Ni_Pol_COCH3
   1.00000000000000     
     9.8291997910000006    0.0000000000000000    0.0000000000000000
     4.9145998955000003    8.5123367178000002    0.0000000000000000
     0.0000000000000000    0.0000000000000000   19.0128002167000005
   Ni   O    C    O    C    H 
    64     3     1     1     1     3
Selective dynamics
Direct
  0.8332940658101763  0.5848547405951222  0.2711486266974547   T   T   T
  0.3336536527293451  0.0846168889883388  0.2703866037977523   T   T   T
  0.8327659273060054  0.0852022280881750  0.2705532452770200   T   T   T
  0.3342879117621811  0.5838558472346692  0.2709416458327438   T   T   T
  0.5837184049122999  0.8344079209743049  0.2706309808531453   T   T   T
  0.8334804427691347  0.8346572008781424  0.2703515936038774   T   T   T
  0.0828321365108780  0.3347807986879518  0.2708825972635186   T   T   T
  0.8318943066043640  0.3350096118210114  0.2716666906710254   T   T   T
  0.5840598974023871  0.5830147594746133  0.2719480012696579   T   T   T
  0.0834419459714961  0.5843194912797445  0.2708197752586304   T   T   T
  0.0823918971249303  0.0862671718087757  0.2702852212880385   T   T   T
  0.5832296411198742  0.0849467301744443  0.2719946235660629   T   T   T
  0.3349236428125834  0.8338357143542768  0.2703327745981345   T   T   T
  0.0835744455480377  0.8347368258753193  0.2700427464304980   T   T   T
  0.3339061737233727  0.3342283826696225  0.2718561674469496   T   T   T
  0.5830022335777606  0.3343500290269728  0.2726898656961244   T   T   T
  0.9174825435348379  0.6669262563893729  0.3754643364641985   T   T   T
  0.9159758097291391  0.4177814653581573  0.3754362280719999   T   T   T
  0.6679109201481060  0.6658803943162439  0.3756472952226885   T   T   T
  0.1667707371009043  0.1683614083936788  0.3760272029156476   T   T   T
  0.9151362194624262  0.1692419386384172  0.3767216969855208   T   T   T
  0.9176575345166639  0.9178912905541353  0.3746529888555098   T   T   T
  0.4176500077807629  0.9175719141827309  0.3756324867188507   T   T   T
  0.4176129305220493  0.1680787823987322  0.3778554153358744   T   T   T
  0.6674603150501504  0.1669802151044398  0.3781315226040476   T   T   T
  0.1670034287524265  0.6681703319688920  0.3747897574387180   T   T   T
  0.4181197683119967  0.6654971370589965  0.3766713759219181   T   T   T
  0.4161493554626586  0.4179639445300347  0.3785775563485366   T   T   T
  0.6670004498635533  0.9175224155885084  0.3770733143585064   T   T   T
  0.1667687635719427  0.4168477654119944  0.3776247772686574   T   T   T
  0.6654102223158160  0.4160361347922047  0.3809028182031152   T   T   T
  0.1680254285244062  0.9191965566840801  0.3758036659421357   T   T   T
  0.9987405755605793  0.2553941919756759  0.4832798379221751   T   T   T
  0.5016545831655127  0.2515679426053630  0.4855055549815728   T   T   T
  0.9975366833921319  0.7475651421006361  0.4794259818794755   T   T   T
  0.5063192253073315  0.7468582136707633  0.4796652412189688   T   T   T
  0.7493411222710608  0.7506080190574056  0.4802628337966414   T   T   T
  0.9979904184909002  0.5011967495863245  0.4838944616561199   T   T   T
  0.7504566363333567  0.5014839943892309  0.4850062036212746   T   T   T
  0.2510896424728646  0.0006274619752819  0.4843355955672288   T   T   T
  0.0088047131933714  0.9982526031098633  0.4814916603524888   T   T   T
  0.5059326169381243  0.9971982291347375  0.4854933939004915   T   T   T
  0.2479779496430156  0.7589516114035637  0.4814930603177113   T   T   T
  0.7521613340322982  0.9928560932420378  0.4841820161627950   T   T   T
  0.2516709521889270  0.2535840014786108  0.4851892626006969   T   T   T
  0.7511777800641248  0.2490442052872687  0.4913918940367973   T   T   T
  0.2421420918667219  0.5027064320389831  0.4843955191612696   T   T   T
  0.5009242759315821  0.5013420295923597  0.4936894287961380   T   T   T
  0.9970724670000024  0.2558556729999992  0.1637003960000030   F   F   F
  0.4999617989999976  0.2500875830000027  0.1643123180000003   F   F   F
  0.9968841629999972  0.7476992069999966  0.1643590660000029   F   F   F
  0.5054474789999972  0.7476858750000019  0.1651548480000002   F   F   F
  0.7507219769999978  0.7486395119999969  0.1651830500000031   F   F   F
  0.9979410790000003  0.5014025589999989  0.1651978470000017   F   F   F
  0.7507272960000009  0.5014379059999996  0.1654730480000026   F   F   F
  0.2484077359999972  0.9989653640000000  0.1655050250000016   F   F   F
  0.0026835399999996  0.9989392600000002  0.1655775309999967   F   F   F
  0.5037179199999997  0.9979203070000011  0.1655856309999990   F   F   F
  0.2483221529999966  0.7533767729999994  0.1658259459999982   F   F   F
  0.7484137009999969  0.9978805350000002  0.1658943890000018   F   F   F
  0.2473094730000014  0.2543786680000011  0.1660089160000027   F   F   F
  0.7483561820000020  0.2543461500000035  0.1660180820000008   F   F   F
  0.2472921950000000  0.4989472700000022  0.1662971330000005   F   F   F
  0.5037960519999984  0.4989156760000029  0.1664085250000014   F   F   F
  0.3361868536173387  0.0833323695286891  0.5449017538699602   T   T   T
  0.8535156232906453  0.0568532312382712  0.5438993888664957   T   T   T
  0.3067168324567336  0.6036895932145609  0.5440599530559581   T   T   T
  0.9163347180931558  0.4198194909616852  0.5548307851776759   T   T   T
  0.9184001436695025  0.4146075085811861  0.6175496917956304   T   T   T
  0.5761418938508132  0.3287016124771599  0.5764260511514251   T   T   T
  0.5028802110837758  0.4385641314438041  0.6050314043324000   T   T   T
  0.5193250936804114  0.2545356014202714  0.5849079780535796   T   T   T
  0.6912511076690639  0.2656602946795946  0.6023375527868214   T   T   T
 
  0.00000000E+00  0.00000000E+00  0.00000000E+00
  0.00000000E+00  0.00000000E+00  0.00000000E+00
  0.00000000E+00  0.00000000E+00  0.00000000E+00
  0.00000000E+00  0.00000000E+00  0.00000000E+00
  0.00000000E+00  0.00000000E+00  0.00000000E+00
  0.00000000E+00  0.00000000E+00  0.00000000E+00
  0.00000000E+00  0.00000000E+00  0.00000000E+00
  0.00000000E+00  0.00000000E+00  0.00000000E+00
  0.00000000E+00  0.00000000E+00  0.00000000E+00
  0.00000000E+00  0.00000000E+00  0.00000000E+00
  0.00000000E+00  0.00000000E+00  0.00000000E+00
  0.00000000E+00  0.00000000E+00  0.00000000E+00
  0.00000000E+00  0.00000000E+00  0.00000000E+00
  0.00000000E+00  0.00000000E+00  0.00000000E+00
  0.00000000E+00  0.00000000E+00  0.00000000E+00
  0.00000000E+00  0.00000000E+00  0.00000000E+00
  0.00000000E+00  0.00000000E+00  0.00000000E+00
  0.00000000E+00  0.00000000E+00  0.00000000E+00
  0.00000000E+00  0.00000000E+00  0.00000000E+00
  0.00000000E+00  0.00000000E+00  0.00000000E+00
  0.00000000E+00  0.00000000E+00  0.00000000E+00
  0.00000000E+00  0.00000000E+00  0.00000000E+00
  0.00000000E+00  0.00000000E+00  0.00000000E+00
  0.00000000E+00  0.00000000E+00  0.00000000E+00
  0.00000000E+00  0.00000000E+00  0.00000000E+00
  0.00000000E+00  0.00000000E+00  0.00000000E+00
  0.00000000E+00  0.00000000E+00  0.00000000E+00
  0.00000000E+00  0.00000000E+00  0.00000000E+00
  0.00000000E+00  0.00000000E+00  0.00000000E+00
  0.00000000E+00  0.00000000E+00  0.00000000E+00
  0.00000000E+00  0.00000000E+00  0.00000000E+00
  0.00000000E+00  0.00000000E+00  0.00000000E+00
  0.00000000E+00  0.00000000E+00  0.00000000E+00
  0.00000000E+00  0.00000000E+00  0.00000000E+00
  0.00000000E+00  0.00000000E+00  0.00000000E+00
  0.00000000E+00  0.00000000E+00  0.00000000E+00
  0.00000000E+00  0.00000000E+00  0.00000000E+00
  0.00000000E+00  0.00000000E+00  0.00000000E+00
  0.00000000E+00  0.00000000E+00  0.00000000E+00
  0.00000000E+00  0.00000000E+00  0.00000000E+00
  0.00000000E+00  0.00000000E+00  0.00000000E+00
  0.00000000E+00  0.00000000E+00  0.00000000E+00
  0.00000000E+00  0.00000000E+00  0.00000000E+00
  0.00000000E+00  0.00000000E+00  0.00000000E+00
  0.00000000E+00  0.00000000E+00  0.00000000E+00
  0.00000000E+00  0.00000000E+00  0.00000000E+00
  0.00000000E+00  0.00000000E+00  0.00000000E+00
  0.00000000E+00  0.00000000E+00  0.00000000E+00
  0.00000000E+00  0.00000000E+00  0.00000000E+00
  0.00000000E+00  0.00000000E+00  0.00000000E+00
  0.00000000E+00  0.00000000E+00  0.00000000E+00
  0.00000000E+00  0.00000000E+00  0.00000000E+00
  0.00000000E+00  0.00000000E+00  0.00000000E+00
  0.00000000E+00  0.00000000E+00  0.00000000E+00
  0.00000000E+00  0.00000000E+00  0.00000000E+00
  0.00000000E+00  0.00000000E+00  0.00000000E+00
  0.00000000E+00  0.00000000E+00  0.00000000E+00
  0.00000000E+00  0.00000000E+00  0.00000000E+00
  0.00000000E+00  0.00000000E+00  0.00000000E+00
  0.00000000E+00  0.00000000E+00  0.00000000E+00
  0.00000000E+00  0.00000000E+00  0.00000000E+00
  0.00000000E+00  0.00000000E+00  0.00000000E+00
  0.00000000E+00  0.00000000E+00  0.00000000E+00
  0.00000000E+00  0.00000000E+00  0.00000000E+00
  0.00000000E+00  0.00000000E+00  0.00000000E+00
  0.00000000E+00  0.00000000E+00  0.00000000E+00
  0.00000000E+00  0.00000000E+00  0.00000000E+00
  0.00000000E+00  0.00000000E+00  0.00000000E+00
  0.00000000E+00  0.00000000E+00  0.00000000E+00
  0.00000000E+00  0.00000000E+00  0.00000000E+00
  0.00000000E+00  0.00000000E+00  0.00000000E+00
  0.00000000E+00  0.00000000E+00  0.00000000E+00
  0.00000000E+00  0.00000000E+00  0.00000000E+00
