Ni_O                                    
   1.00000000000000     
     9.8292000000000002    0.0000000000000000    0.0000000000000000
     4.9146000000000001    8.5123370000000005    0.0000000000000000
     0.0000000000000000    0.0000000000000000   30.7148000000000003
   Ni   O    H    C    O 
    64    30    60     1     1
Direct
  0.0888056100000014  0.0707432600000004  0.1214345799999990
  0.3291125000000008  0.0770048700000032  0.1214047300000018
  0.3419516499999986  0.8240531699999991  0.1177571099999994
  0.5783951200000033  0.3351547899999971  0.1204625499999992
  0.3368419000000031  0.5768683699999997  0.1175463100000016
  0.3272351399999991  0.3278821399999998  0.1227586899999977
  0.8367278699999972  0.0753220699999986  0.1193258799999981
  0.5697589999999977  0.0828757999999965  0.1180340599999994
  0.8309311200000025  0.3267648699999981  0.1197181699999987
  0.5853362000000004  0.5758045199999984  0.1203190700000007
  0.0901361800000018  0.8271179799999970  0.1176798500000018
  0.5800194199999993  0.8236164300000013  0.1167254699999987
  0.0716306599999967  0.3376896299999999  0.1195591399999998
  0.8328108500000013  0.5889172500000015  0.1196868600000016
  0.0931545199999988  0.5769531999999984  0.1208087300000003
  0.8489860600000014  0.8203762099999992  0.1189231700000022
  0.1717572700000005  0.1583717500000006  0.1883671499999977
  0.1670211799999990  0.9194401299999981  0.1885346099999978
  0.4112907199999967  0.1675670699999969  0.1868817599999986
  0.4135739000000029  0.9100961600000019  0.1846060900000026
  0.4086828299999965  0.4342793799999995  0.1859817100000001
  0.4108279300000035  0.6729468600000033  0.1880791700000017
  0.9094443700000028  0.1641455500000006  0.1833067700000015
  0.6595276700000028  0.1644469900000018  0.1813667699999968
  0.6604349400000018  0.4097835099999969  0.1851163799999966
  0.1605268899999999  0.6769550699999982  0.1876368900000003
  0.9097518199999968  0.4175254199999969  0.1883733100000029
  0.6809838100000007  0.6547892700000020  0.1829538799999995
  0.9087469199999987  0.9147206600000004  0.1856302200000002
  0.6628857600000018  0.9166740699999991  0.1835204500000032
  0.1514583499999986  0.4184350100000032  0.1881624500000001
  0.9116651599999983  0.6738888300000028  0.1852862100000010
  0.2490175000000008  0.0000617700000021  0.2542303099999970
  0.5033220500000013  0.2550444099999964  0.2506618199999977
  0.5085631099999972  0.5037477699999968  0.2527787399999966
  0.2548496799999995  0.2497073099999980  0.2515341200000023
  0.9970882000000003  0.2484163199999969  0.2541018300000033
  0.7516035000000016  0.2401157899999973  0.2499535600000016
  0.5193958199999997  0.7470652100000024  0.2485662799999986
  0.2709302100000031  0.7365892199999990  0.2579134100000005
  0.4964326200000002  0.0051023199999989  0.2502148900000023
  0.9954825599999992  0.9967747199999977  0.2510191000000006
  0.2563451700000030  0.5009909699999966  0.2525972400000001
  0.7592060300000014  0.4896336500000018  0.2585947700000020
  0.7534826999999993  0.9976964900000027  0.2520159500000005
  0.0054271300000011  0.7501350499999972  0.2566379800000007
  0.7598289100000031  0.7559723000000034  0.2532784200000009
  0.9933475799999982  0.5006656600000028  0.2520343099999991
  0.2488099899999980  0.0018900000000031  0.0530725899999993
  0.4986599900000002  0.2520299800000032  0.0530725899999993
  0.4987100700000013  0.5019500100000016  0.0530725899999993
  0.2486699900000033  0.2519600099999977  0.0530725899999993
  0.9988300199999998  0.2520000100000033  0.0530725899999993
  0.7487000499999965  0.2521199999999979  0.0530725899999993
  0.4986899700000009  0.7520999700000033  0.0530725899999993
  0.2487699599999971  0.7521200300000004  0.0530725899999993
  0.4985999800000016  0.0021100000000018  0.0530725899999993
  0.9987700300000029  0.0022099999999980  0.0530725899999993
  0.2487500100000020  0.5021200300000004  0.0530725899999993
  0.7486699900000033  0.5022699800000012  0.0530725899999993
  0.7485900000000001  0.0024500000000032  0.0530725899999993
  0.9987000499999965  0.7524499700000007  0.0530725899999993
  0.7486699299999984  0.7524300299999993  0.0530725899999993
  0.9986899600000001  0.5022000199999965  0.0530725899999993
  0.0166976900000009  0.8055467300000032  0.5760361600000010
  0.6148951500000024  0.8369580700000014  0.6031407999999985
  0.4972984600000032  0.7971758699999967  0.3654019299999973
  0.0144381400000029  0.2559078999999969  0.4009664299999969
  0.4586320399999977  0.1042571899999984  0.3512259700000016
  0.0182002299999979  0.5475710099999986  0.5751061699999980
  0.7642677899999981  0.5348765900000032  0.4376085500000002
  0.1459771700000019  0.6213088200000030  0.3768436699999995
  0.7350595300000009  0.7689460200000013  0.3195224600000017
  0.2001064399999990  0.8526038899999975  0.4839608400000017
  0.9951821200000026  0.0512398300000001  0.3535213299999995
  0.2429039800000012  0.3040183100000036  0.5281711299999969
  0.2169734000000005  0.0852069099999966  0.5850995200000000
  0.5913020599999967  0.4027824899999999  0.4671382599999987
  0.5546634999999966  0.5509141400000033  0.5804205800000020
  0.2981623499999984  0.5434495599999991  0.4546046299999986
  0.6161627800000034  0.8992357400000017  0.4497478099999981
  0.7788341199999991  0.5433796900000019  0.5243577099999968
  0.0363451899999987  0.3385339200000033  0.6403625700000006
  0.5134917099999967  0.3119103200000026  0.5472724899999974
  0.7555026200000015  0.3297214199999985  0.6353504499999971
  0.2970316999999980  0.8004588000000012  0.5630653500000022
  0.8459807099999992  0.8675358400000022  0.3897174399999983
  0.7323188900000019  0.0743084499999966  0.6007497200000032
  0.2688151199999993  0.0779241799999966  0.4674036899999976
  0.8292400500000028  0.9644770499999993  0.4950342899999995
  0.6346021700000009  0.1896691399999995  0.4020459899999977
  0.9024019699999997  0.2227232299999997  0.5085056300000019
  0.2492937700000013  0.7770639900000020  0.3300329799999986
  0.1566007200000001  0.3676107300000027  0.3437451899999999
  0.1176797700000023  0.8082632500000031  0.5772617499999981
  0.0547168700000000  0.6945702000000011  0.5838932200000002
  0.6285471200000003  0.7305597399999968  0.5995068799999999
  0.5529596699999999  0.8841158899999968  0.5773386400000007
  0.4598417600000033  0.9106079900000026  0.3623856999999973
  0.4117377800000028  0.7840619799999970  0.3556132699999992
  0.9083874100000031  0.3575874400000032  0.4087205800000007
  0.0700973699999992  0.3000120700000011  0.3822257699999980
  0.3467258100000024  0.2033099900000011  0.3518159099999991
  0.4977160700000027  0.1083058299999990  0.3224525199999988
  0.0095957699999971  0.5026782999999995  0.6023431899999991
  0.9257849600000014  0.5568193800000003  0.5565127200000006
  0.7898666899999967  0.5362751899999978  0.4674758499999996
  0.7162427199999968  0.6457200899999975  0.4292059699999982
  0.0433882399999987  0.7036700999999965  0.3877175699999995
  0.2073157900000027  0.5889200800000012  0.4039520099999976
  0.6601444000000001  0.7539792399999996  0.3378455499999973
  0.7881428800000023  0.8037767799999997  0.3409817699999991
  0.2226285200000007  0.9333875100000029  0.4746880900000008
  0.2328109099999978  0.7600137499999988  0.4673752200000010
  0.9474363400000030  0.0782463700000022  0.3231989100000021
  0.9896004200000021  0.1453455700000035  0.3664383400000020
  0.3397085499999974  0.3004502799999997  0.5362247199999999
  0.1620620500000030  0.3930915299999995  0.5471231499999973
  0.1598048999999975  0.1602300600000035  0.6110320800000011
  0.2431166399999967  0.1546405500000034  0.5659889000000007
  0.6623209299999999  0.4438360600000024  0.4600742100000019
  0.6052292700000024  0.3177562600000030  0.4438906099999969
  0.4407001499999978  0.6612880599999968  0.5741853299999988
  0.5294670899999971  0.4716818099999998  0.5699579200000002
  0.4166231999999965  0.4860189700000035  0.4578542799999994
  0.2457314700000026  0.5299006999999989  0.4787186100000014
  0.5006152500000027  0.9502544899999990  0.4535850700000026
  0.6574024399999985  0.9084972400000026  0.4783120499999995
  0.8152671400000031  0.4302868600000025  0.5228816199999997
  0.6761541500000021  0.5765146700000017  0.5410634400000021
  0.0754662699999997  0.3115457199999980  0.6703986699999973
  0.9345935799999978  0.3418593399999992  0.6393404200000035
  0.5541084799999965  0.3224490699999976  0.5186483900000027
  0.5995803100000003  0.2149175200000002  0.5603975000000005
  0.7479752500000032  0.2408229099999986  0.6245268999999993
  0.6895148999999989  0.4153183600000006  0.6151731100000006
  0.2952769899999979  0.8959978099999972  0.5722007099999971
  0.2663282600000016  0.8143922399999965  0.5305370700000012
  0.8288263600000008  0.9681978899999990  0.3784444200000010
  0.7576813399999978  0.8886844000000025  0.4089147199999985
  0.8231884599999972  0.9708814899999965  0.5929080499999984
  0.6602117500000020  0.0498693700000032  0.6176369200000025
  0.1831590500000004  0.1294634200000004  0.4471432300000018
  0.2461612999999971  0.1719468399999968  0.4860899199999977
  0.9004717500000012  0.9296950399999986  0.4687479199999984
  0.9005247799999978  0.8999923200000026  0.5176981600000019
  0.6240098099999969  0.2818792200000004  0.3835217800000024
  0.5648925799999986  0.1605430600000020  0.3854677300000020
  0.0114779499999997  0.1710891500000002  0.5187216599999971
  0.8758283000000020  0.1368597600000001  0.5072571800000034
  0.2264127600000023  0.6989077200000011  0.3434104199999979
  0.1521226899999988  0.8818900600000035  0.3364763299999964
  0.0753704799999966  0.3916001899999983  0.3204548300000027
  0.1535198300000005  0.4693171500000020  0.3520644999999973
  0.6673414999999991  0.4291345099999972  0.3004268500000009
  0.6515926800000003  0.4254463400000006  0.3386595999999997
 
  0.00000000E+00  0.00000000E+00  0.00000000E+00
  0.00000000E+00  0.00000000E+00  0.00000000E+00
  0.00000000E+00  0.00000000E+00  0.00000000E+00
  0.00000000E+00  0.00000000E+00  0.00000000E+00
  0.00000000E+00  0.00000000E+00  0.00000000E+00
  0.00000000E+00  0.00000000E+00  0.00000000E+00
  0.00000000E+00  0.00000000E+00  0.00000000E+00
  0.00000000E+00  0.00000000E+00  0.00000000E+00
  0.00000000E+00  0.00000000E+00  0.00000000E+00
  0.00000000E+00  0.00000000E+00  0.00000000E+00
  0.00000000E+00  0.00000000E+00  0.00000000E+00
  0.00000000E+00  0.00000000E+00  0.00000000E+00
  0.00000000E+00  0.00000000E+00  0.00000000E+00
  0.00000000E+00  0.00000000E+00  0.00000000E+00
  0.00000000E+00  0.00000000E+00  0.00000000E+00
  0.00000000E+00  0.00000000E+00  0.00000000E+00
  0.00000000E+00  0.00000000E+00  0.00000000E+00
  0.00000000E+00  0.00000000E+00  0.00000000E+00
  0.00000000E+00  0.00000000E+00  0.00000000E+00
  0.00000000E+00  0.00000000E+00  0.00000000E+00
  0.00000000E+00  0.00000000E+00  0.00000000E+00
  0.00000000E+00  0.00000000E+00  0.00000000E+00
  0.00000000E+00  0.00000000E+00  0.00000000E+00
  0.00000000E+00  0.00000000E+00  0.00000000E+00
  0.00000000E+00  0.00000000E+00  0.00000000E+00
  0.00000000E+00  0.00000000E+00  0.00000000E+00
  0.00000000E+00  0.00000000E+00  0.00000000E+00
  0.00000000E+00  0.00000000E+00  0.00000000E+00
  0.00000000E+00  0.00000000E+00  0.00000000E+00
  0.00000000E+00  0.00000000E+00  0.00000000E+00
  0.00000000E+00  0.00000000E+00  0.00000000E+00
  0.00000000E+00  0.00000000E+00  0.00000000E+00
  0.00000000E+00  0.00000000E+00  0.00000000E+00
  0.00000000E+00  0.00000000E+00  0.00000000E+00
  0.00000000E+00  0.00000000E+00  0.00000000E+00
  0.00000000E+00  0.00000000E+00  0.00000000E+00
  0.00000000E+00  0.00000000E+00  0.00000000E+00
  0.00000000E+00  0.00000000E+00  0.00000000E+00
  0.00000000E+00  0.00000000E+00  0.00000000E+00
  0.00000000E+00  0.00000000E+00  0.00000000E+00
  0.00000000E+00  0.00000000E+00  0.00000000E+00
  0.00000000E+00  0.00000000E+00  0.00000000E+00
  0.00000000E+00  0.00000000E+00  0.00000000E+00
  0.00000000E+00  0.00000000E+00  0.00000000E+00
  0.00000000E+00  0.00000000E+00  0.00000000E+00
  0.00000000E+00  0.00000000E+00  0.00000000E+00
  0.00000000E+00  0.00000000E+00  0.00000000E+00
  0.00000000E+00  0.00000000E+00  0.00000000E+00
  0.00000000E+00  0.00000000E+00  0.00000000E+00
  0.00000000E+00  0.00000000E+00  0.00000000E+00
  0.00000000E+00  0.00000000E+00  0.00000000E+00
  0.00000000E+00  0.00000000E+00  0.00000000E+00
  0.00000000E+00  0.00000000E+00  0.00000000E+00
  0.00000000E+00  0.00000000E+00  0.00000000E+00
  0.00000000E+00  0.00000000E+00  0.00000000E+00
  0.00000000E+00  0.00000000E+00  0.00000000E+00
  0.00000000E+00  0.00000000E+00  0.00000000E+00
  0.00000000E+00  0.00000000E+00  0.00000000E+00
  0.00000000E+00  0.00000000E+00  0.00000000E+00
  0.00000000E+00  0.00000000E+00  0.00000000E+00
  0.00000000E+00  0.00000000E+00  0.00000000E+00
  0.00000000E+00  0.00000000E+00  0.00000000E+00
  0.00000000E+00  0.00000000E+00  0.00000000E+00
  0.00000000E+00  0.00000000E+00  0.00000000E+00
  0.00000000E+00  0.00000000E+00  0.00000000E+00
  0.00000000E+00  0.00000000E+00  0.00000000E+00
  0.00000000E+00  0.00000000E+00  0.00000000E+00
  0.00000000E+00  0.00000000E+00  0.00000000E+00
  0.00000000E+00  0.00000000E+00  0.00000000E+00
  0.00000000E+00  0.00000000E+00  0.00000000E+00
  0.00000000E+00  0.00000000E+00  0.00000000E+00
  0.00000000E+00  0.00000000E+00  0.00000000E+00
  0.00000000E+00  0.00000000E+00  0.00000000E+00
  0.00000000E+00  0.00000000E+00  0.00000000E+00
  0.00000000E+00  0.00000000E+00  0.00000000E+00
  0.00000000E+00  0.00000000E+00  0.00000000E+00
  0.00000000E+00  0.00000000E+00  0.00000000E+00
  0.00000000E+00  0.00000000E+00  0.00000000E+00
  0.00000000E+00  0.00000000E+00  0.00000000E+00
  0.00000000E+00  0.00000000E+00  0.00000000E+00
  0.00000000E+00  0.00000000E+00  0.00000000E+00
  0.00000000E+00  0.00000000E+00  0.00000000E+00
  0.00000000E+00  0.00000000E+00  0.00000000E+00
  0.00000000E+00  0.00000000E+00  0.00000000E+00
  0.00000000E+00  0.00000000E+00  0.00000000E+00
  0.00000000E+00  0.00000000E+00  0.00000000E+00
  0.00000000E+00  0.00000000E+00  0.00000000E+00
  0.00000000E+00  0.00000000E+00  0.00000000E+00
  0.00000000E+00  0.00000000E+00  0.00000000E+00
  0.00000000E+00  0.00000000E+00  0.00000000E+00
  0.00000000E+00  0.00000000E+00  0.00000000E+00
  0.00000000E+00  0.00000000E+00  0.00000000E+00
  0.00000000E+00  0.00000000E+00  0.00000000E+00
  0.00000000E+00  0.00000000E+00  0.00000000E+00
  0.00000000E+00  0.00000000E+00  0.00000000E+00
  0.00000000E+00  0.00000000E+00  0.00000000E+00
  0.00000000E+00  0.00000000E+00  0.00000000E+00
  0.00000000E+00  0.00000000E+00  0.00000000E+00
  0.00000000E+00  0.00000000E+00  0.00000000E+00
  0.00000000E+00  0.00000000E+00  0.00000000E+00
  0.00000000E+00  0.00000000E+00  0.00000000E+00
  0.00000000E+00  0.00000000E+00  0.00000000E+00
  0.00000000E+00  0.00000000E+00  0.00000000E+00
  0.00000000E+00  0.00000000E+00  0.00000000E+00
  0.00000000E+00  0.00000000E+00  0.00000000E+00
  0.00000000E+00  0.00000000E+00  0.00000000E+00
  0.00000000E+00  0.00000000E+00  0.00000000E+00
  0.00000000E+00  0.00000000E+00  0.00000000E+00
  0.00000000E+00  0.00000000E+00  0.00000000E+00
  0.00000000E+00  0.00000000E+00  0.00000000E+00
  0.00000000E+00  0.00000000E+00  0.00000000E+00
  0.00000000E+00  0.00000000E+00  0.00000000E+00
  0.00000000E+00  0.00000000E+00  0.00000000E+00
  0.00000000E+00  0.00000000E+00  0.00000000E+00
  0.00000000E+00  0.00000000E+00  0.00000000E+00
  0.00000000E+00  0.00000000E+00  0.00000000E+00
  0.00000000E+00  0.00000000E+00  0.00000000E+00
  0.00000000E+00  0.00000000E+00  0.00000000E+00
  0.00000000E+00  0.00000000E+00  0.00000000E+00
  0.00000000E+00  0.00000000E+00  0.00000000E+00
  0.00000000E+00  0.00000000E+00  0.00000000E+00
  0.00000000E+00  0.00000000E+00  0.00000000E+00
  0.00000000E+00  0.00000000E+00  0.00000000E+00
  0.00000000E+00  0.00000000E+00  0.00000000E+00
  0.00000000E+00  0.00000000E+00  0.00000000E+00
  0.00000000E+00  0.00000000E+00  0.00000000E+00
  0.00000000E+00  0.00000000E+00  0.00000000E+00
  0.00000000E+00  0.00000000E+00  0.00000000E+00
  0.00000000E+00  0.00000000E+00  0.00000000E+00
  0.00000000E+00  0.00000000E+00  0.00000000E+00
  0.00000000E+00  0.00000000E+00  0.00000000E+00
  0.00000000E+00  0.00000000E+00  0.00000000E+00
  0.00000000E+00  0.00000000E+00  0.00000000E+00
  0.00000000E+00  0.00000000E+00  0.00000000E+00
  0.00000000E+00  0.00000000E+00  0.00000000E+00
  0.00000000E+00  0.00000000E+00  0.00000000E+00
  0.00000000E+00  0.00000000E+00  0.00000000E+00
  0.00000000E+00  0.00000000E+00  0.00000000E+00
  0.00000000E+00  0.00000000E+00  0.00000000E+00
  0.00000000E+00  0.00000000E+00  0.00000000E+00
  0.00000000E+00  0.00000000E+00  0.00000000E+00
  0.00000000E+00  0.00000000E+00  0.00000000E+00
  0.00000000E+00  0.00000000E+00  0.00000000E+00
  0.00000000E+00  0.00000000E+00  0.00000000E+00
  0.00000000E+00  0.00000000E+00  0.00000000E+00
  0.00000000E+00  0.00000000E+00  0.00000000E+00
  0.00000000E+00  0.00000000E+00  0.00000000E+00
  0.00000000E+00  0.00000000E+00  0.00000000E+00
  0.00000000E+00  0.00000000E+00  0.00000000E+00
  0.00000000E+00  0.00000000E+00  0.00000000E+00
  0.00000000E+00  0.00000000E+00  0.00000000E+00
  0.00000000E+00  0.00000000E+00  0.00000000E+00
  0.00000000E+00  0.00000000E+00  0.00000000E+00
  0.00000000E+00  0.00000000E+00  0.00000000E+00
  0.00000000E+00  0.00000000E+00  0.00000000E+00
  0.00000000E+00  0.00000000E+00  0.00000000E+00
