 Ni_Pol_CH2_CH3(ER)                                   
   1.00000000000000     
     9.8292000000000002    0.0000000000000000    0.0000000000000000
     4.9146000000000001    8.5123370000000005    0.0000000000000000
     0.0000000000000000    0.0000000000000000   33.0127999999999986
   Ni   O    O    H    C    H 
    64     3    30    60     1     2
Selective dynamics
Direct
  0.8344891599999968  0.5910396700000007  0.1245425299999994   F   F   F
  0.3277571599999973  0.0915471599999975  0.1203778100000008   F   F   F
  0.8358367599999994  0.0797513199999997  0.1213072400000001   F   F   F
  0.3303205200000008  0.5910967100000022  0.1175208599999991   F   F   F
  0.5785460999999970  0.8434740699999992  0.1209419300000008   F   F   F
  0.8581436699999969  0.8304528199999979  0.1227300600000021   F   F   F
  0.0791635599999978  0.3418362299999984  0.1232426700000033   F   F   F
  0.8317585400000027  0.3342807100000016  0.1227151499999977   F   F   F
  0.5916583699999975  0.5838763000000000  0.1215999400000030   F   F   F
  0.0906524199999978  0.5780319300000016  0.1214342700000017   F   F   F
  0.0751263399999971  0.0881747700000020  0.1212024000000014   F   F   F
  0.5886210399999996  0.0840079999999972  0.1226622800000001   F   F   F
  0.3286123999999973  0.8455295500000020  0.1243042999999986   F   F   F
  0.0868304400000000  0.8410170900000011  0.1245596699999965   F   F   F
  0.3311659800000015  0.3429115200000012  0.1222518100000016   F   F   F
  0.5863027799999969  0.3325431100000031  0.1216811700000022   F   F   F
  0.9205744734889438  0.6725702624766537  0.1855121558815039   T   T   T
  0.9222739421243830  0.4055784274269998  0.1846360423219855   T   T   T
  0.6694519731558938  0.6588074712973585  0.1829610983461571   T   T   T
  0.1664499212495465  0.1676910064519354  0.1797426021053073   T   T   T
  0.9242099989183477  0.1566686524435026  0.1854805521036133   T   T   T
  0.9260964686617278  0.9053858252365551  0.1867064243199783   T   T   T
  0.4088966885276489  0.9359408822688935  0.1844551614567012   T   T   T
  0.4178272920749016  0.1741531955745223  0.1798761422442380   T   T   T
  0.6698124809787035  0.1597894714041764  0.1824425442052729   T   T   T
  0.1759145756213105  0.6584607714068844  0.1814926449240854   T   T   T
  0.4187116481017283  0.6717211702845521  0.1831550242167425   T   T   T
  0.4095226040417237  0.4236725643696865  0.1830063728938308   T   T   T
  0.6702337449930855  0.9144713581238608  0.1819626146522739   T   T   T
  0.1708658760318066  0.4217730490688344  0.1828243525650939   T   T   T
  0.6636821305421193  0.4146732879317481  0.1857130197436548   T   T   T
  0.1674914538366989  0.9220204378954470  0.1864685744844404   T   T   T
  0.0040093430933586  0.2405263007066837  0.2463893807081342   T   T   T
  0.5112259229656346  0.2357425064799951  0.2412003943852094   T   T   T
  0.0057593174534695  0.7480452386345584  0.2492538538733741   T   T   T
  0.5027341617780049  0.7439808028158603  0.2434972117349234   T   T   T
  0.7457925159559059  0.7531278113774318  0.2414349941102288   T   T   T
  0.0110781290405691  0.5004194750554796  0.2487155569616022   T   T   T
  0.7506781018477078  0.5113568342803291  0.2440974339541599   T   T   T
  0.2646562011983742 -0.0055064378645178  0.2488818977226373   T   T   T
  1.0152550501668418 -0.0027565836822295  0.2493741185843003   T   T   T
  0.4956155000219169 -0.0004324599939673  0.2503970060931944   T   T   T
  0.2575706772524555  0.7445034433151136  0.2453195381495840   T   T   T
  0.7508470416409130 -0.0080119664994340  0.2508492074420792   T   T   T
  0.2499941959284475  0.2452625300369284  0.2425229535307177   T   T   T
  0.7533164452294431  0.2489944758948268  0.2462998601066009   T   T   T
  0.2577029668000087  0.4840566647453567  0.2467396634422243   T   T   T
  0.5083147192073759  0.4848553648846349  0.2454059310804843   T   T   T
  0.9970724699999991  0.2558556700000025  0.0591330299999981   F   F   F
  0.4999618000000012  0.2500875799999989  0.0594854499999968   F   F   F
  0.9968841600000005  0.7476992100000004  0.0595123700000002   F   F   F
  0.5054474800000008  0.7476858799999988  0.0599706799999993   F   F   F
  0.7507219800000016  0.7486395099999967  0.0599869200000001   F   F   F
  0.9979410799999968  0.5014025600000025  0.0599954500000024   F   F   F
  0.7507273000000012  0.5014379099999999  0.0601539399999993   F   F   F
  0.2484077399999975  0.9989653599999997  0.0601723600000028   F   F   F
  0.0026835399999996  0.9989392600000002  0.0602141099999969   F   F   F
  0.5037179199999997  0.9979203099999978  0.0602187799999996   F   F   F
  0.2483221499999999  0.7533767700000027  0.0603571799999969   F   F   F
  0.7484137000000004  0.9978805399999970  0.0603965999999971   F   F   F
  0.2473094699999976  0.2543786700000013  0.0604625599999977   F   F   F
  0.7483561800000018  0.2543461500000035  0.0604678400000012   F   F   F
  0.2472921999999969  0.4989472700000022  0.0606285499999970   F   F   F
  0.5037960499999983  0.4989156800000032  0.0606926999999970   F   F   F
  0.3297426937917669  0.0890842335092834  0.2861199889932720   T   T   T
  0.8519406284169257  0.0803462610404222  0.2815329106880320   T   T   T
  0.3442341221052736  0.5717246742105886  0.2843424203871162   T   T   T
  0.0827456610381252  0.4766945077516581  0.5884446234164740   T   T   T
 -0.0700536458785002  0.7250867426309583  0.5061023122935149   T   T   T
  0.0726829970210933  0.5523778157002991  0.4354386294042271   T   T   T
  0.8253731838405924  0.4934865984803108  0.4478590299908218   T   T   T
  0.1693205677390981  0.0597466284030429  0.3503693504947542   T   T   T
 -0.0431668334467467 -0.1784375877321933  0.5761988400031437   T   T   T
  0.8411473843927082  0.5863298537080079  0.3745521522910739   T   T   T
  0.8863920912501725  0.0707937577176428  0.4354070487383832   T   T   T
  0.9451503827432364  0.2992263260049759  0.3068693386969875   T   T   T
  0.4980746824804215  0.8641907232015118  0.5707302544284119   T   T   T
  0.4343756556716769  0.0487612636004060  0.3961878579182407   T   T   T
  0.1187625673381251  0.2027084203821450  0.6059863112805502   T   T   T
  0.3380081484514678  0.3448634047829655  0.5357248416245110   T   T   T
  0.0064910786615494  0.5454119431924560  0.3056425804108972   T   T   T
  0.4210506593475435  0.7931369697977754  0.4940202514037340   T   T   T
  0.2759261095126627  0.2378171097752927  0.4667983317382398   T   T   T
  0.2852762641705501  0.7667775678813777  0.3535296136233329   T   T   T
  0.0050286982526059  0.7946090795812963  0.3863389196503556   T   T   T
  0.5881839069727649  0.0770830254563449  0.5693629704757133   T   T   T
  0.4583872903740822  0.4002915741708900  0.4098117887158512   T   T   T
 -0.0539869889298760  0.1147872010996014  0.5557357927513612   T   T   T
  0.7915856675377925  0.5932481764529279  0.5468153823550571   T   T   T
  0.6246124482213324  0.8107485472969524  0.4434204996752514   T   T   T
  0.4248983905682633  0.5040802664226683  0.4857956025973759   T   T   T
  0.7131902842194566 -0.0195209429967174  0.3450537645656285   T   T   T
  0.1251148051776912  0.0736289208917024  0.4847953527284556   T   T   T
  0.7012893783631704  0.0429953941720060  0.4923463182838609   T   T   T
  0.7646016944919565  0.3459169331506077  0.5100844229700846   T   T   T
  0.7574295293619752  0.3355220977209578  0.3886903436098113   T   T   T
  0.3328414754024910  0.3503683769903907  0.3379850790749444   T   T   T
  0.0580303662664729  0.5869096837529273  0.5949968203721395   T   T   T
  0.1709498671556368  0.4311231238626687  0.5649076377800838   T   T   T
 -0.0104134031842982  0.6785015806671284  0.4808894055243620   T   T   T
 -0.1348474447089199  0.6793368366443310  0.5130879684788926   T   T   T
  0.1607656985948639  0.4484457412033616  0.4430288241787513   T   T   T
 -0.0095114091376119  0.5201336848421926  0.4348327995204722   T   T   T
  0.8117375002629778  0.4358186488309077  0.4718061820970487   T   T   T
  0.7373475670598355  0.5982466058582445  0.4519534791590015   T   T   T
  0.2329651099824252  0.0685238594105700  0.3280975314821280   T   T   T
  0.2128883443393222  0.9392289912320188  0.3511504661283749   T   T   T
  0.8495097865465513 -0.1321597353810195  0.5863791663136277   T   T   T
 -0.0454031107664549  0.7940429729366788  0.5468364129343539   T   T   T
  0.7949566149116798  0.6847211496900607  0.3891368097481219   T   T   T
  0.7106589189805567  0.6608246696405100  0.3115020569743496   T   T   T
  0.8167583397340884  0.1655002316684438  0.4204325944545873   T   T   T
  0.8266954168002613  0.0627189002646118  0.4578861338646106   T   T   T
  0.0112269725155171  0.2013622324637326  0.3258085941207851   T   T   T
 -0.0311960825389386  0.3823097202295935  0.3110946169470682   T   T   T
  0.5771808034936474  0.7533563480688241  0.5670676608292494   T   T   T
  0.4176837487825922  0.8866509687841009  0.5504619626247322   T   T   T
  0.5098924563782444  0.0332486605501622  0.3729298866299495   T   T   T
  0.3442372104701575  0.0427488662232573  0.3865869357862866   T   T   T
  0.0952219014117091  0.3125016220739333  0.6061196453030318   T   T   T
  0.2252717618220178  0.1560508620070880  0.6166812213285547   T   T   T
  0.3637136099706226  0.4172048847246438  0.5201205388514528   T   T   T
  0.3213942087295434  0.2876658132883318  0.5142021560826947   T   T   T
  0.9168890120008037  0.5977810699772633  0.3573710588098377   T   T   T
  0.1204901948901202  0.4811299694743030  0.3172845778590466   T   T   T
  0.3096806424642938  0.8822997569932282  0.4893132898575354   T   T   T
  0.4849752730727750  0.8046204689621407  0.4726472338980769   T   T   T
  0.2298692026133704  0.1683033102178630  0.4703077603598224   T   T   T
  0.3782672005020333  0.1641804503719127  0.4543484028111372   T   T   T
  0.2002581226812206  0.7492253640461625  0.3655329072012025   T   T   T
  0.3090828285340927  0.7077895464427644  0.3258105486857480   T   T   T
  0.0436745491012712  0.6951841356048152  0.4016159225004182   T   T   T
 -0.0310053577339157  0.8804661434373141  0.4061181481301319   T   T   T
  0.4858450572584762  0.1735006802453452  0.5634878883321101   T   T   T
  0.5609507145697502 -0.0054958143518110  0.5732107063617038   T   T   T
  0.4947818502367858  0.2920875934222714  0.4212028427376955   T   T   T
  0.5595877726185533  0.3928797590015931  0.4000687003485614   T   T   T
 -0.0072860163707078  0.1477666207966107  0.5777026448254768   T   T   T
 -0.0640146219924744  0.0260703740589325  0.5668435906992605   T   T   T
 -0.1094352344441077  0.5324749810894251  0.5612174465731468   T   T   T
  0.7696330730412970  0.5093409040456786  0.5351335476421183   T   T   T
  0.5465056638561068  0.9042321984875060  0.4243276370944942   T   T   T
  0.6595114474251702  0.8563493163548197  0.4651346919493077   T   T   T
  0.4295492886963210  0.4987105013583242  0.4549077970454180   T   T   T
  0.4024522675743401  0.6130452652975117  0.4924653458570182   T   T   T
  0.7236326463303471  0.0527028504147624  0.3260068742055552   T   T   T
  0.8174644810194326  0.9235138960782628  0.3601580364734145   T   T   T
  0.0316087074369573  0.1010666546657562  0.4690613653287041   T   T   T
  0.0810975680278352  0.0757239420375142  0.5128912253162737   T   T   T
  0.6352614581336429  0.0802339526360358  0.5190651754159812   T   T   T
  0.7916436360061561  0.9345694441368038  0.4996777800676362   T   T   T
  0.6504861148530335  0.3720918703070127  0.5055812660690430   T   T   T
  0.8161144009712022  0.2486682907544795  0.5286818219350649   T   T   T
  0.8171486474391163  0.3100350134220988  0.3633413329248552   T   T   T
  0.8073340059900013  0.3897346920477425  0.4040724037996678   T   T   T
  0.3584001798706913  0.3928533417580211  0.3639239376243833   T   T   T
  0.3406740706666147  0.4242471017826854  0.3178776817536225   T   T   T
  0.6375461701795065  0.6224300469708318  0.2944299026023738   T   T   T
  0.5038181222593803  0.7081549766586769  0.2988684075769358   T   T   T
  0.6587671631917178  0.5127369675343632  0.3071267036329583   T   T   T
 
  0.00000000E+00  0.00000000E+00  0.00000000E+00
  0.00000000E+00  0.00000000E+00  0.00000000E+00
  0.00000000E+00  0.00000000E+00  0.00000000E+00
  0.00000000E+00  0.00000000E+00  0.00000000E+00
  0.00000000E+00  0.00000000E+00  0.00000000E+00
  0.00000000E+00  0.00000000E+00  0.00000000E+00
  0.00000000E+00  0.00000000E+00  0.00000000E+00
  0.00000000E+00  0.00000000E+00  0.00000000E+00
  0.00000000E+00  0.00000000E+00  0.00000000E+00
  0.00000000E+00  0.00000000E+00  0.00000000E+00
  0.00000000E+00  0.00000000E+00  0.00000000E+00
  0.00000000E+00  0.00000000E+00  0.00000000E+00
  0.00000000E+00  0.00000000E+00  0.00000000E+00
  0.00000000E+00  0.00000000E+00  0.00000000E+00
  0.00000000E+00  0.00000000E+00  0.00000000E+00
  0.00000000E+00  0.00000000E+00  0.00000000E+00
 -0.12261518E-02  0.35234719E-03 -0.37859328E-02
  0.31343083E-02 -0.20498919E-02  0.11804440E-02
 -0.54953405E-02  0.31283566E-02 -0.21729786E-02
  0.12408138E-02  0.27494491E-03 -0.18498661E-02
  0.12000623E-03 -0.37211682E-02 -0.22970889E-02
 -0.44323457E-02  0.17975345E-03  0.57357668E-02
  0.36495481E-02  0.26331096E-03 -0.37030515E-03
  0.12167767E-02 -0.16148444E-02  0.25733258E-02
  0.31249359E-03  0.12403407E-02 -0.66780112E-03
  0.33962351E-02  0.11558366E-02 -0.25827410E-02
  0.21195902E-02  0.49447330E-03  0.21724265E-04
  0.11949686E-02 -0.13327050E-02 -0.14779941E-02
  0.31238235E-02 -0.70449185E-03 -0.13768546E-02
  0.67766379E-03 -0.22669622E-02  0.91701694E-04
  0.10016577E-02  0.17164629E-02  0.10584754E-02
  0.35432416E-03 -0.13072212E-02  0.42565426E-02
  0.58470466E-04 -0.28617027E-02  0.81314691E-03
 -0.82469061E-03  0.33803274E-02 -0.24891621E-02
 -0.35609258E-03 -0.13767740E-02 -0.53143039E-02
 -0.30804334E-02 -0.10010283E-02  0.31892109E-02
  0.88398731E-03  0.32929886E-03 -0.32027176E-04
  0.25323042E-02  0.83810703E-03 -0.64806683E-03
  0.26284635E-03 -0.48724519E-03  0.73749531E-03
  0.42615372E-02  0.17749047E-02 -0.24632138E-02
  0.82161275E-03 -0.31418867E-02 -0.12216992E-02
 -0.38939679E-02 -0.34239074E-02  0.32957984E-02
 -0.39827586E-03 -0.96558070E-03  0.59064872E-03
 -0.38756378E-02  0.17641147E-02 -0.28734824E-02
  0.99599465E-03  0.20791547E-03 -0.14776882E-02
 -0.51018424E-03  0.34472956E-03  0.15666381E-02
 -0.16766703E-02  0.11366199E-02  0.19076368E-02
  0.56095189E-03 -0.26519643E-02  0.46663104E-02
  0.00000000E+00  0.00000000E+00  0.00000000E+00
  0.00000000E+00  0.00000000E+00  0.00000000E+00
  0.00000000E+00  0.00000000E+00  0.00000000E+00
  0.00000000E+00  0.00000000E+00  0.00000000E+00
  0.00000000E+00  0.00000000E+00  0.00000000E+00
  0.00000000E+00  0.00000000E+00  0.00000000E+00
  0.00000000E+00  0.00000000E+00  0.00000000E+00
  0.00000000E+00  0.00000000E+00  0.00000000E+00
  0.00000000E+00  0.00000000E+00  0.00000000E+00
  0.00000000E+00  0.00000000E+00  0.00000000E+00
  0.00000000E+00  0.00000000E+00  0.00000000E+00
  0.00000000E+00  0.00000000E+00  0.00000000E+00
  0.00000000E+00  0.00000000E+00  0.00000000E+00
  0.00000000E+00  0.00000000E+00  0.00000000E+00
  0.00000000E+00  0.00000000E+00  0.00000000E+00
  0.00000000E+00  0.00000000E+00  0.00000000E+00
 -0.28815323E-02  0.21198344E-02  0.22105993E-02
 -0.21604300E-02  0.41682714E-02  0.13958099E-02
  0.55306624E-02 -0.24958941E-02 -0.36896608E-02
  0.87473153E-02  0.28160584E-02  0.11042011E-02
 -0.38737901E-02  0.42933137E-03  0.16638788E-02
 -0.10451415E-02 -0.50010837E-02  0.46557707E-03
  0.39004119E-02 -0.95975402E-03 -0.32951266E-03
 -0.31298389E-02  0.34922710E-02  0.52089026E-02
  0.75206301E-02  0.20149277E-02  0.21918161E-02
  0.73074456E-02 -0.36174837E-02  0.64556439E-02
 -0.14309623E-02 -0.16226059E-02  0.38709988E-02
 -0.14703487E-02  0.20082525E-03 -0.52473992E-02
  0.43475610E-02  0.16024505E-02 -0.17057805E-02
 -0.18093095E-03 -0.78739180E-03 -0.16193774E-02
  0.40118005E-02 -0.24762496E-02  0.49727566E-02
  0.11068442E-02 -0.29543037E-03 -0.51845677E-03
  0.52094137E-02  0.66327145E-02 -0.22716598E-02
  0.31230437E-02 -0.16092352E-02  0.12198283E-02
  0.43233362E-03 -0.37769055E-02  0.56936975E-02
  0.16109766E-02  0.13251150E-02  0.18963081E-02
  0.23909527E-02  0.94316582E-03  0.29870685E-03
  0.65934530E-02 -0.50793890E-02 -0.23914399E-02
 -0.55441463E-02 -0.46462055E-03 -0.49176732E-04
  0.20265171E-03 -0.83931188E-03 -0.26643349E-03
  0.58108565E-02 -0.58946082E-03 -0.35920906E-02
 -0.33218204E-02  0.33736253E-03 -0.57240132E-02
  0.44685806E-02 -0.56596864E-02 -0.81863222E-02
  0.21819982E-02 -0.91025869E-03 -0.57383575E-02
  0.48075937E-02 -0.31137802E-02  0.71493127E-02
  0.61005209E-02  0.69058777E-02  0.41379076E-02
  0.44600702E-02 -0.12365910E-02  0.49334982E-02
  0.80898035E-02 -0.20341133E-02  0.59276588E-02
 -0.21540566E-02  0.13647317E-02  0.35727373E-02
 -0.19595814E-01 -0.70368959E-02 -0.11198142E-01
  0.16607835E-01 -0.26690504E-02  0.99063630E-02
 -0.31377116E-01  0.18899911E-01 -0.28982412E-02
 -0.10012974E-01 -0.31965200E-01  0.79904476E-03
  0.67790843E-02  0.35578963E-01  0.60615093E-02
 -0.16139941E-01  0.12539774E-01 -0.81971946E-02
  0.26468379E-01 -0.20487218E-02 -0.14070819E-01
 -0.33628336E-02  0.55614098E-03 -0.62064185E-02
  0.11222346E-01 -0.80502150E-02 -0.91168373E-02
  0.39848081E-01 -0.11266533E-01 -0.60546324E-02
  0.95958198E-02 -0.82891454E-02 -0.90228367E-02
 -0.13559732E-01 -0.90691256E-02  0.29673609E-01
 -0.35696453E-02  0.13127655E-01 -0.60618363E-02
  0.73801603E-02  0.81258039E-02 -0.78088237E-02
 -0.36123858E-02  0.87433249E-02 -0.21427509E-01
  0.13856833E-01 -0.43036372E-02 -0.83344934E-02
 -0.84615602E-02  0.22757795E-01 -0.56087709E-02
  0.86586926E-02  0.26422224E-02  0.15390564E-01
  0.34978161E-01  0.80464101E-02 -0.23504953E-01
  0.48244892E-02 -0.16270100E-01 -0.10513554E-01
 -0.27659833E-01 -0.18726240E-01 -0.60299712E-02
  0.10065866E-01  0.54315825E-02 -0.76976403E-03
 -0.80914748E-02  0.89170124E-02 -0.12280430E-01
  0.13065947E-01 -0.23648983E-01 -0.25948534E-02
  0.12353699E-01  0.11397888E-01 -0.11711452E-01
  0.10610416E-01  0.13324325E-01  0.86299023E-02
 -0.22699649E-03 -0.84160955E-02 -0.18063630E-01
 -0.14155595E-01  0.17644718E-01  0.11574399E-01
  0.13424812E-01 -0.66164242E-02  0.17714808E-01
  0.35637339E-02 -0.12830368E-01 -0.26849387E-01
 -0.22267391E-02 -0.53909807E-02  0.17558493E-01
  0.35319393E-03 -0.79635167E-02  0.10051843E-01
  0.80601499E-02 -0.87289387E-02  0.89197206E-02
  0.51575589E-03  0.16210464E-01  0.22306371E-01
 -0.58745529E-02 -0.51696730E-02 -0.50722728E-02
  0.63264607E-02 -0.76362863E-03  0.32657160E-01
  0.33378621E-02  0.12658031E-01 -0.25649103E-03
  0.21645768E-01 -0.11375476E-01 -0.25730041E-01
  0.20322213E-01  0.40259494E-02 -0.21286836E-01
 -0.13984161E-01 -0.10660269E-01 -0.10750251E-01
 -0.30947967E-02  0.15684392E-01 -0.22343469E-01
 -0.11279440E-01 -0.10307570E-02 -0.58073503E-02
  0.87798888E-03  0.15058993E-01  0.20966791E-01
  0.89008086E-02  0.76832362E-02 -0.20951221E-01
  0.52286455E-02 -0.49304169E-02  0.81599947E-02
 -0.13970004E-01  0.18698415E-01 -0.18158465E-01
  0.77576769E-02  0.19368443E-01 -0.21026300E-01
  0.17363045E-01 -0.32879097E-02 -0.81274484E-02
  0.21287699E-02  0.12460300E-01 -0.23081060E-01
  0.16110962E-02 -0.11651321E-01 -0.79462695E-03
  0.17984980E-03  0.24423916E-02 -0.13440936E-03
  0.27188591E-01  0.38253166E-02  0.12784454E-01
  0.36483198E-01  0.52409178E-01 -0.11711966E-02
  0.18831096E-01  0.15331015E-01  0.12923561E-02
  0.43969868E-02 -0.27524677E-02  0.35904618E-01
  0.33092872E-01  0.36516109E-02 -0.93133588E-03
  0.22983962E-01  0.69937919E-02  0.12642844E-01
 -0.11927313E-02 -0.94434922E-02 -0.52516210E-02
  0.28385151E-01  0.17371132E-01 -0.27176162E-02
 -0.46609997E-02 -0.21906236E-01  0.87945730E-02
  0.47149452E-02  0.34814609E-02  0.85213705E-03
  0.35263304E-01 -0.23202454E-01  0.89979893E-02
 -0.47731424E-02 -0.85128114E-02 -0.13076032E-02
 
           1
   1.00000000000000     
 -0.14347580E-01 -0.20648011E-02 -0.19929615E-02 -0.12318699E-01
  0.83448916E+00  0.59103967E+00  0.12454253E+00
  0.32775716E+00  0.91547160E-01  0.12037781E+00
  0.83583676E+00  0.79751320E-01  0.12130724E+00
  0.33032052E+00  0.59109671E+00  0.11752086E+00
  0.57854610E+00  0.84347407E+00  0.12094193E+00
  0.85814367E+00  0.83045282E+00  0.12273006E+00
  0.79163560E-01  0.34183623E+00  0.12324267E+00
  0.83175854E+00  0.33428071E+00  0.12271515E+00
  0.59165837E+00  0.58387630E+00  0.12159994E+00
  0.90652420E-01  0.57803193E+00  0.12143427E+00
  0.75126340E-01  0.88174770E-01  0.12120240E+00
  0.58862104E+00  0.84008000E-01  0.12266228E+00
  0.32861240E+00  0.84552955E+00  0.12430430E+00
  0.86830440E-01  0.84101709E+00  0.12455967E+00
  0.33116598E+00  0.34291152E+00  0.12225181E+00
  0.58630278E+00  0.33254311E+00  0.12168117E+00
  0.92042903E+00  0.67261166E+00  0.18539748E+00
  0.92271323E+00  0.40533761E+00  0.18467180E+00
  0.66870914E+00  0.65917498E+00  0.18289528E+00
  0.16656001E+00  0.16772331E+00  0.17968657E+00
  0.92444078E+00  0.15623150E+00  0.18541097E+00
  0.92563497E+00  0.90540694E+00  0.18688017E+00
  0.40925252E+00  0.93597182E+00  0.18444394E+00
  0.41804594E+00  0.17396349E+00  0.17995409E+00
  0.66977142E+00  0.15993518E+00  0.18242232E+00
  0.17619221E+00  0.65859656E+00  0.18141441E+00
  0.41889825E+00  0.67177926E+00  0.18315568E+00
  0.40972246E+00  0.42351600E+00  0.18296160E+00
  0.67059294E+00  0.91438860E+00  0.18192091E+00
  0.17106798E+00  0.42150673E+00  0.18282713E+00
  0.66368321E+00  0.41487493E+00  0.18574508E+00
  0.16760429E+00  0.92186687E+00  0.18659751E+00
  0.41833832E-02  0.24019012E+00  0.24641401E+00
  0.51094347E+00  0.23613962E+00  0.24112499E+00
  0.58039587E-02  0.74788350E+00  0.24909288E+00
  0.50247956E+00  0.74386321E+00  0.24359382E+00
  0.74586311E+00  0.75316650E+00  0.24143402E+00
  0.11286531E-01  0.50051793E+00  0.24869593E+00
  0.75073346E+00  0.51129959E+00  0.24411977E+00
  0.26498551E+00  0.99470207E+00  0.24880728E+00
  0.15523188E-01  0.99687432E+00  0.24933711E+00
  0.49542045E+00  0.99916531E+00  0.25049684E+00
  0.25758687E+00  0.74439001E+00  0.24533743E+00
  0.75034912E+00  0.99219528E+00  0.25076217E+00
  0.25008331E+00  0.24528696E+00  0.24247819E+00
  0.75324429E+00  0.24903497E+00  0.24634732E+00
  0.25746562E+00  0.48419019E+00  0.24679745E+00
  0.50852756E+00  0.48454382E+00  0.24554728E+00
  0.99707247E+00  0.25585567E+00  0.59133030E-01
  0.49996180E+00  0.25008758E+00  0.59485450E-01
  0.99688416E+00  0.74769921E+00  0.59512370E-01
  0.50544748E+00  0.74768588E+00  0.59970680E-01
  0.75072198E+00  0.74863951E+00  0.59986920E-01
  0.99794108E+00  0.50140256E+00  0.59995450E-01
  0.75072730E+00  0.50143791E+00  0.60153940E-01
  0.24840774E+00  0.99896536E+00  0.60172360E-01
  0.26835400E-02  0.99893926E+00  0.60214110E-01
  0.50371792E+00  0.99792031E+00  0.60218780E-01
  0.24832215E+00  0.75337677E+00  0.60357180E-01
  0.74841370E+00  0.99788054E+00  0.60396600E-01
  0.24730947E+00  0.25437867E+00  0.60462560E-01
  0.74835618E+00  0.25434615E+00  0.60467840E-01
  0.24729220E+00  0.49894727E+00  0.60628550E-01
  0.50379605E+00  0.49891568E+00  0.60692700E-01
  0.32932502E+00  0.89333264E-01  0.28618695E+00
  0.85147599E+00  0.80835935E-01  0.28157519E+00
  0.34494340E+00  0.57143147E+00  0.28423066E+00
  0.83470182E-01  0.47702533E+00  0.58847807E+00
  0.92952703E+00  0.72513718E+00  0.50615271E+00
  0.72870422E-01  0.55179031E+00  0.43545273E+00
  0.82582638E+00  0.49337385E+00  0.44784905E+00
  0.16879702E+00  0.60156888E-01  0.35052713E+00
  0.95747994E+00  0.82179912E+00  0.57626523E+00
  0.84210331E+00  0.58590488E+00  0.37474770E+00
  0.88634182E+00  0.70603140E-01  0.43552431E+00
  0.94498900E+00  0.29924992E+00  0.30671039E+00
  0.49842287E+00  0.86437897E+00  0.57067858E+00
  0.43440350E+00  0.48668764E-01  0.39613880E+00
  0.11931617E+00  0.20241752E+00  0.60613694E+00
  0.33813811E+00  0.34482870E+00  0.53570914E+00
  0.66314781E-02  0.54619113E+00  0.30557377E+00
  0.42146291E+00  0.79294792E+00  0.49405720E+00
  0.27619194E+00  0.23737341E+00  0.46697080E+00
  0.28536233E+00  0.76693324E+00  0.35358706E+00
  0.52165483E-02  0.79471988E+00  0.38634797E+00
  0.58915306E+00  0.76486316E-01  0.56929053E+00
  0.45785053E+00  0.40023699E+00  0.40981030E+00
  0.94608293E+00  0.11468860E+00  0.55572772E+00
  0.79221147E+00  0.59317893E+00  0.54670657E+00
  0.62425468E+00  0.81078818E+00  0.44324711E+00
  0.42568545E+00  0.50341539E+00  0.48554763E+00
  0.71346574E+00  0.98037212E+00  0.34487994E+00
  0.12578682E+00  0.73263125E-01  0.48501191E+00
  0.70150439E+00  0.43806673E-01  0.49247166E+00
  0.76512809E+00  0.34577166E+00  0.51023386E+00
  0.75837205E+00  0.33528314E+00  0.38886990E+00
  0.33254216E+00  0.35052870E+00  0.33809330E+00
  0.56450069E-01  0.58608301E+00  0.59465761E+00
  0.17279629E+00  0.43080957E+00  0.56520771E+00
  0.98528421E+00  0.68072188E+00  0.48080161E+00
  0.86601144E+00  0.67558168E+00  0.51311217E+00
  0.15936554E+00  0.45262544E+00  0.44321244E+00
  0.98810999E+00  0.52160681E+00  0.43458450E+00
  0.81455067E+00  0.43557797E+00  0.47137996E+00
  0.73697277E+00  0.59831194E+00  0.45176548E+00
  0.23457970E+00  0.67578148E-01  0.32782137E+00
  0.21760417E+00  0.93790544E+00  0.35096706E+00
  0.85097293E+00  0.86686648E+00  0.58610585E+00
  0.95375006E+00  0.79297756E+00  0.54773526E+00
  0.79382235E+00  0.68626334E+00  0.38895319E+00
  0.71093246E+00  0.66177926E+00  0.31126552E+00
  0.81587726E+00  0.16652737E+00  0.41978353E+00
  0.82835797E+00  0.62213324E-01  0.45763367E+00
  0.90293594E-02  0.20403574E+00  0.32563870E+00
  0.96952963E+00  0.38262012E+00  0.31156082E+00
  0.58026677E+00  0.75430161E+00  0.56635567E+00
  0.41913026E+00  0.88473961E+00  0.55014349E+00
  0.50817836E+00  0.31048766E-01  0.37274723E+00
  0.34494225E+00  0.43386950E-01  0.38656362E+00
  0.93874924E-01  0.31354916E+00  0.60574766E+00
  0.22799016E+00  0.15327266E+00  0.61660262E+00
  0.36430095E+00  0.41854387E+00  0.51976578E+00
  0.32169104E+00  0.28923111E+00  0.51446357E+00
  0.91736026E+00  0.59679238E+00  0.35682389E+00
  0.11801362E+00  0.48320281E+00  0.31763518E+00
  0.31143509E+00  0.88152248E+00  0.48984989E+00
  0.48609147E+00  0.80311320E+00  0.47183393E+00
  0.22995932E+00  0.16767000E+00  0.47083963E+00
  0.37877090E+00  0.16324492E+00  0.45465289E+00
  0.20159087E+00  0.74819992E+00  0.36580310E+00
  0.30818313E+00  0.70969390E+00  0.32648624E+00
  0.43380543E-01  0.69457682E+00  0.40146228E+00
  0.96968314E+00  0.88037643E+00  0.40710738E+00
  0.48544113E+00  0.17498770E+00  0.56348012E+00
  0.56382108E+00  0.99316783E+00  0.57243131E+00
  0.49661291E+00  0.29256055E+00  0.42055804E+00
  0.55879122E+00  0.39162743E+00  0.39974306E+00
  0.99147785E+00  0.14960917E+00  0.57702583E+00
  0.93489838E+00  0.25949284E-01  0.56666768E+00
  0.88976955E+00  0.53424406E+00  0.56185256E+00
  0.77008732E+00  0.51024350E+00  0.53449891E+00
  0.54732722E+00  0.90365299E+00  0.42457481E+00
  0.65699186E+00  0.85854594E+00  0.46458465E+00
  0.42920087E+00  0.50098584E+00  0.45427088E+00
  0.40441187E+00  0.61265901E+00  0.49221916E+00
  0.72311733E+00  0.54166643E-01  0.32530772E+00
  0.81831277E+00  0.92214514E+00  0.36013397E+00
  0.31483543E-01  0.10135358E+00  0.46905729E+00
  0.83638980E-01  0.76173327E-01  0.51327848E+00
  0.63589475E+00  0.86390802E-01  0.51902970E+00
  0.79265895E+00  0.93637048E+00  0.49971693E+00
  0.65109513E+00  0.37176852E+00  0.50666886E+00
  0.81926670E+00  0.24909727E+00  0.52865361E+00
  0.81907618E+00  0.31085662E+00  0.36372430E+00
  0.80776735E+00  0.38862530E+00  0.40391333E+00
  0.36026767E+00  0.39489404E+00  0.36384162E+00
  0.34148661E+00  0.42167363E+00  0.31814408E+00
  0.63782136E+00  0.62283904E+00  0.29445571E+00
  0.50876860E+00  0.70542923E+00  0.29914097E+00
  0.65878158E+00  0.51173691E+00  0.30708709E+00
  0.00000000E+00  0.00000000E+00  0.00000000E+00
  0.00000000E+00  0.00000000E+00  0.00000000E+00
  0.00000000E+00  0.00000000E+00  0.00000000E+00
  0.00000000E+00  0.00000000E+00  0.00000000E+00
  0.00000000E+00  0.00000000E+00  0.00000000E+00
  0.00000000E+00  0.00000000E+00  0.00000000E+00
  0.00000000E+00  0.00000000E+00  0.00000000E+00
  0.00000000E+00  0.00000000E+00  0.00000000E+00
  0.00000000E+00  0.00000000E+00  0.00000000E+00
  0.00000000E+00  0.00000000E+00  0.00000000E+00
  0.00000000E+00  0.00000000E+00  0.00000000E+00
  0.00000000E+00  0.00000000E+00  0.00000000E+00
  0.00000000E+00  0.00000000E+00  0.00000000E+00
  0.00000000E+00  0.00000000E+00  0.00000000E+00
  0.00000000E+00  0.00000000E+00  0.00000000E+00
  0.00000000E+00  0.00000000E+00  0.00000000E+00
  0.00000000E+00  0.00000000E+00  0.00000000E+00
  0.00000000E+00  0.00000000E+00  0.00000000E+00
  0.00000000E+00  0.00000000E+00  0.00000000E+00
  0.00000000E+00  0.00000000E+00  0.00000000E+00
  0.00000000E+00  0.00000000E+00  0.00000000E+00
  0.00000000E+00  0.00000000E+00  0.00000000E+00
  0.00000000E+00  0.00000000E+00  0.00000000E+00
  0.00000000E+00  0.00000000E+00  0.00000000E+00
  0.00000000E+00  0.00000000E+00  0.00000000E+00
  0.00000000E+00  0.00000000E+00  0.00000000E+00
  0.00000000E+00  0.00000000E+00  0.00000000E+00
  0.00000000E+00  0.00000000E+00  0.00000000E+00
  0.00000000E+00  0.00000000E+00  0.00000000E+00
  0.00000000E+00  0.00000000E+00  0.00000000E+00
  0.00000000E+00  0.00000000E+00  0.00000000E+00
  0.00000000E+00  0.00000000E+00  0.00000000E+00
  0.00000000E+00  0.00000000E+00  0.00000000E+00
  0.00000000E+00  0.00000000E+00  0.00000000E+00
  0.00000000E+00  0.00000000E+00  0.00000000E+00
  0.00000000E+00  0.00000000E+00  0.00000000E+00
  0.00000000E+00  0.00000000E+00  0.00000000E+00
  0.00000000E+00  0.00000000E+00  0.00000000E+00
  0.00000000E+00  0.00000000E+00  0.00000000E+00
  0.00000000E+00  0.00000000E+00  0.00000000E+00
  0.00000000E+00  0.00000000E+00  0.00000000E+00
  0.00000000E+00  0.00000000E+00  0.00000000E+00
  0.00000000E+00  0.00000000E+00  0.00000000E+00