Ni_O                                    
   1.00000000000000     
    10.1184997559000003    0.0000000000000000    0.0000000000000000
    -5.0592498779000001    8.7628778367999995    0.0000000000000000
     0.0000000000000000    0.0000000000000000   30.4843997954999999
   Cu   O    C 
    64     1     1
Direct
  0.4134531153179739  0.0870816086684834  0.1144711242458752
  0.9135541614619777  0.5869758787918661  0.1144208702677155
  0.6634726486864018  0.3368420011281744  0.1143710485904615
  0.1633557567916223  0.8369854786036764  0.1145117529557945
  0.1633353206637657  0.5870405654306550  0.1143690854389785
  0.4131097933288195  0.3368348908341341  0.1143095580238401
  0.1633338736674885  0.0870366068181311  0.1143363379057608
  0.4134229337796811  0.8370181384383270  0.1145124565587365
  0.9131046869887997  0.3372363466101508  0.1146448433995022
  0.1636856886003266  0.3371886132607153  0.1145827634495255
  0.6633796306104628  0.0870825807599816  0.1143712379822369
  0.6634512658265590  0.8373663212423210  0.1143657870256624
  0.6633848306351811  0.5871120236990410  0.1144709113473205
  0.4130650421984418  0.5869982913550669  0.1143242902811946
  0.9135703055879013  0.8372949417311910  0.1144105262847983
  0.9131108639084229  0.0866067222673872  0.1146296418358189
  0.3293323835937020  0.1707098163535505  0.1810418083577831
  0.8284485432009803  0.4217464847340325  0.1818988309615002
  0.0795091413262528  0.6701337801476039  0.1811430174566925
  0.3297019976015160  0.9205836262270187  0.1815135615390407
  0.5801381864292758  0.1707471350372890  0.1810964504470736
  0.5799176513908891  0.4211654946214584  0.1811327735278757
  0.0794006418301559  0.4203364050912974  0.1811321672053536
  0.8289713603192292  0.6702305359852135  0.1812609930170669
  0.0795208585449225  0.9208588886854450  0.1811123665611901
  0.3317801620385468  0.4216739374906430  0.1817042250377672
  0.3293020495239419  0.6701482591915028  0.1811183306368657
  0.0794039745475855  0.1706283436402476  0.1810771072091117
  0.5801258705221092  0.9209448291921778  0.1811314567010341
  0.8298805877727498  0.1707496539905672  0.1811506633440231
  0.5798393290667324  0.6703344902537722  0.1811230965822034
  0.8284257562670062  0.9181956420212208  0.1818418786492890
  0.4947750616811649  0.2509526759370510  0.2481375658405247
  0.2461748969524478  0.0037406820033166  0.2487797605421099
 -0.0011881995501575  0.7550637833394157  0.2482492091165571
  0.4962300014731325  0.0038628323475501  0.2488239791186669
  0.9963229048197476  0.5036099231408895  0.2488135256880115
  0.7463274878052841  0.5033802561406197  0.2507811855600358
  0.2461109947670644  0.7537948289433666  0.2488379684864038
  0.7463365974672783  0.2535438474771321  0.2487955824966686
  0.2456108816878664  0.2533358198458925  0.2486321730806499
  0.2455536517769742  0.5036000957316205  0.2487305994574638
  0.9961720391793962  0.2537455934039628  0.2487335127921853
  0.4946109816653875  0.5031122036175030  0.2503442643746820
  0.4946148859684777  0.7553586495352872  0.2482132647475956
  0.9964071048010338  0.0040941025528468  0.2487255515163883
  0.7463444357944389  0.0042747797959132  0.2487805201328268
  0.7464401239130833  0.7547121789247556  0.2506318264577317
  0.4968253204909209  0.2532665648497633  0.0468265943613817
  0.2470771682837861  0.0035166047928124  0.0466323261601787
 -0.0026275466647032  0.7538373199339178  0.0468803062605688
  0.4968437712864260  0.0035537513826336  0.0466413435090021
 -0.0027943584410241  0.5033831382503013  0.0467317928044865
  0.7471055738429623  0.5035948206714582  0.0471691912263618
  0.2470767327943198  0.7538149672331821  0.0466550770292463
  0.7473046178438402  0.2534478681788712  0.0467207500751514
  0.2464090162121944  0.2533860057355892  0.0466768410825415
  0.2463987342187616  0.5033426729903189  0.0466829723230295
 -0.0030606881620782  0.2536519278402285  0.0468999874469075
  0.4967941226423896  0.5035821298111146  0.0471508627706993
  0.4968247656921835  0.7538490789970249  0.0468425612069921
 -0.0027809850163888  0.0041995413357802  0.0467233196500278
  0.7473152265144757  0.0042453466429115  0.0467115493494310
  0.7471080841709498  0.7538946843856057  0.0471805070625206
  0.6587214130054534  0.5864805830607637  0.3360300827980868
  0.6600066060534866  0.5866586498682715  0.2972503406478427
 
  0.00000000E+00  0.00000000E+00  0.00000000E+00
  0.00000000E+00  0.00000000E+00  0.00000000E+00
  0.00000000E+00  0.00000000E+00  0.00000000E+00
  0.00000000E+00  0.00000000E+00  0.00000000E+00
  0.00000000E+00  0.00000000E+00  0.00000000E+00
  0.00000000E+00  0.00000000E+00  0.00000000E+00
  0.00000000E+00  0.00000000E+00  0.00000000E+00
  0.00000000E+00  0.00000000E+00  0.00000000E+00
  0.00000000E+00  0.00000000E+00  0.00000000E+00
  0.00000000E+00  0.00000000E+00  0.00000000E+00
  0.00000000E+00  0.00000000E+00  0.00000000E+00
  0.00000000E+00  0.00000000E+00  0.00000000E+00
  0.00000000E+00  0.00000000E+00  0.00000000E+00
  0.00000000E+00  0.00000000E+00  0.00000000E+00
  0.00000000E+00  0.00000000E+00  0.00000000E+00
  0.00000000E+00  0.00000000E+00  0.00000000E+00
  0.00000000E+00  0.00000000E+00  0.00000000E+00
  0.00000000E+00  0.00000000E+00  0.00000000E+00
  0.00000000E+00  0.00000000E+00  0.00000000E+00
  0.00000000E+00  0.00000000E+00  0.00000000E+00
  0.00000000E+00  0.00000000E+00  0.00000000E+00
  0.00000000E+00  0.00000000E+00  0.00000000E+00
  0.00000000E+00  0.00000000E+00  0.00000000E+00
  0.00000000E+00  0.00000000E+00  0.00000000E+00
  0.00000000E+00  0.00000000E+00  0.00000000E+00
  0.00000000E+00  0.00000000E+00  0.00000000E+00
  0.00000000E+00  0.00000000E+00  0.00000000E+00
  0.00000000E+00  0.00000000E+00  0.00000000E+00
  0.00000000E+00  0.00000000E+00  0.00000000E+00
  0.00000000E+00  0.00000000E+00  0.00000000E+00
  0.00000000E+00  0.00000000E+00  0.00000000E+00
  0.00000000E+00  0.00000000E+00  0.00000000E+00
  0.00000000E+00  0.00000000E+00  0.00000000E+00
  0.00000000E+00  0.00000000E+00  0.00000000E+00
  0.00000000E+00  0.00000000E+00  0.00000000E+00
  0.00000000E+00  0.00000000E+00  0.00000000E+00
  0.00000000E+00  0.00000000E+00  0.00000000E+00
  0.00000000E+00  0.00000000E+00  0.00000000E+00
  0.00000000E+00  0.00000000E+00  0.00000000E+00
  0.00000000E+00  0.00000000E+00  0.00000000E+00
  0.00000000E+00  0.00000000E+00  0.00000000E+00
  0.00000000E+00  0.00000000E+00  0.00000000E+00
  0.00000000E+00  0.00000000E+00  0.00000000E+00
  0.00000000E+00  0.00000000E+00  0.00000000E+00
  0.00000000E+00  0.00000000E+00  0.00000000E+00
  0.00000000E+00  0.00000000E+00  0.00000000E+00
  0.00000000E+00  0.00000000E+00  0.00000000E+00
  0.00000000E+00  0.00000000E+00  0.00000000E+00
  0.00000000E+00  0.00000000E+00  0.00000000E+00
  0.00000000E+00  0.00000000E+00  0.00000000E+00
  0.00000000E+00  0.00000000E+00  0.00000000E+00
  0.00000000E+00  0.00000000E+00  0.00000000E+00
  0.00000000E+00  0.00000000E+00  0.00000000E+00
  0.00000000E+00  0.00000000E+00  0.00000000E+00
  0.00000000E+00  0.00000000E+00  0.00000000E+00
  0.00000000E+00  0.00000000E+00  0.00000000E+00
  0.00000000E+00  0.00000000E+00  0.00000000E+00
  0.00000000E+00  0.00000000E+00  0.00000000E+00
  0.00000000E+00  0.00000000E+00  0.00000000E+00
  0.00000000E+00  0.00000000E+00  0.00000000E+00
  0.00000000E+00  0.00000000E+00  0.00000000E+00
  0.00000000E+00  0.00000000E+00  0.00000000E+00
  0.00000000E+00  0.00000000E+00  0.00000000E+00
  0.00000000E+00  0.00000000E+00  0.00000000E+00
  0.00000000E+00  0.00000000E+00  0.00000000E+00
  0.00000000E+00  0.00000000E+00  0.00000000E+00
