 Layer\(8)                              
   1.00000000000000     
    10.1184997559000003    0.0000000000000000    0.0000000000000000
    -5.0592498779000001    8.7628778367999995    0.0000000000000000
     0.0000000000000000    0.0000000000000000   30.4844000000000008
   Cu   O    H    C    H    C    O    O    H 
    64    30    60     1     2     1     1     1     1
Selective dynamics
Direct
  0.4065088896094542  0.0907833649894576  0.1155547824510314   T   T   T
  0.9138838557363949  0.5817099044540450  0.1089901817707509   T   T   T
  0.6614525748533761  0.3291563453628469  0.1143365103730893   T   T   T
  0.1586468813329631  0.8425849419118205  0.1131095527874192   T   T   T
  0.1548379305128056  0.5861158997428586  0.1128036142929954   T   T   T
  0.4191323700478918  0.3404866888715574  0.1155078811048503   T   T   T
  0.1670944973265848  0.0915667851190833  0.1136924571426718   T   T   T
  0.3979123132715114  0.8299255519437142  0.1168950464057870   T   T   T
  0.9125161301437522  0.3232282088817054  0.1115945119272953   T   T   T
  0.1689810596317166  0.3491706916998687  0.1127905277571671   T   T   T
  0.6546998501470759  0.0845550228319518  0.1183621831791685   T   T   T
  0.6600291819969012  0.8369852028316871  0.1173872146752122   T   T   T
  0.6660391802891444  0.5769828968044522  0.1160306028231254   T   T   T
  0.4107726692496271  0.5913830155108039  0.1134812916558038   T   T   T
  0.8998145669491477  0.8205338650511445  0.1132274037726439   T   T   T
  0.8998712638109777  0.0658890923796571  0.1128374677645948   T   T   T
  0.3234754255925527  0.1647530329978013  0.1816119435392539   T   T   T
  0.8327589193365860  0.4118831238371520  0.1791747658689295   T   T   T
  0.0765061111307509  0.6679011996670706  0.1778187315059224   T   T   T
  0.3184210169384371  0.9168991211489395  0.1825745340001834   T   T   T
  0.5769257717158154  0.1771830721609702  0.1814660280103445   T   T   T
  0.5781811435052405  0.4153568860722963  0.1790531912719952   T   T   T
  0.0963777069826185  0.4228024816847712  0.1771537539573549   T   T   T
  0.8286729681300899  0.6626388959653002  0.1794830064890727   T   T   T
  0.0695066988914023  0.9331540362852511  0.1813109269140133   T   T   T
  0.3190541241184525  0.4039750443445320  0.1810480035514455   T   T   T
  0.3336638058498109  0.6663331513340678  0.1810647812092446   T   T   T
  0.0745440565501118  0.1690935374564807  0.1781723241264526   T   T   T
  0.5623047798267349  0.9190820171243756  0.1842939919208302   T   T   T
  0.8254232036630736  0.1569423878723482  0.1774081593083429   T   T   T
  0.5808951712216769  0.6718982419101436  0.1796021692039640   T   T   T
  0.8221254417433972  0.9148752870705489  0.1822217920247138   T   T   T
  0.4845957166790316  0.2423919316894841  0.2528894842420264   T   T   T
  0.2381999606075191  0.0003978746163232  0.2507174766728941   T   T   T
 -0.0046489552531563  0.7505212785293043  0.2448658527884892   T   T   T
  0.5006992642551980  0.0120211375770983  0.2514723389739868   T   T   T
  0.0119407194262969  0.5103725570248476  0.2420080477258432   T   T   T
  0.7479473112780207  0.5083333462923838  0.2496888896183078   T   T   T
  0.2529157180788540  0.7630383210198204  0.2457588693286537   T   T   T
  0.7482123545004921  0.2503899153810060  0.2433086158643311   T   T   T
  0.2328727228584968  0.2514474753478679  0.2482202818604538   T   T   T
  0.2487843825570928  0.5080997221492058  0.2492413859079081   T   T   T
 -0.0087876959606917  0.2637735670290019  0.2477612780322732   T   T   T
  0.4768415864592208  0.4897178051820793  0.2445329422844012   T   T   T
  0.4913203845317810  0.7463589528554075  0.2508951091774127   T   T   T
 -0.0155967499723851 -0.0086018714052425  0.2560251248044427   T   T   T
  0.7371348759428289 -0.0080860830884093  0.2536344011523975   T   T   T
  0.7209238736681236  0.7304238926437067  0.2509832761312577   T   T   T
  0.5051699799999980  0.2552200000000013  0.0459221600000035   F   F   F
  0.2551900300000014  0.0052499999999966  0.0459221600000035   F   F   F
  0.0052099999999982  0.7552400000000006  0.0459221600000035   F   F   F
  0.5051599700000011  0.0052700000000030  0.0459221600000035   F   F   F
  0.0051299799999995  0.5051999900000013  0.0459221600000035   F   F   F
  0.7552299800000029  0.5052699700000005  0.0459221600000035   F   F   F
  0.2551200099999988  0.7552599699999973  0.0459221600000035   F   F   F
  0.7550999899999979  0.2552900000000022  0.0459221600000035   F   F   F
  0.2552500099999975  0.2551599999999965  0.0459221600000035   F   F   F
  0.2551399900000035  0.5051699500000026  0.0459221600000035   F   F   F
  0.0052599999999998  0.2552700000000030  0.0459221600000035   F   F   F
  0.5051800000000028  0.5051699500000026  0.0459221600000035   F   F   F
  0.5051100100000028  0.7552000000000021  0.0459221600000035   F   F   F
  0.0051800000000028  0.0052200000000013  0.0459221600000035   F   F   F
  0.7551699999999997  0.0052400000000006  0.0459221600000035   F   F   F
  0.7551899899999981  0.7551799800000012  0.0459221600000035   F   F   F
  0.4606538321801418  0.2306375297772599  0.3224553897211956   T   T   T
  0.9329637764121940  0.6028208604315658  0.3494925032421805   T   T   T
  1.2431510664433860  1.1595423656632131  0.4349264056656563   T   T   T
  1.3134354056003210  0.4692218753558590  0.4239705236127862   T   T   T
  0.6844003819268152  1.1247405611717269  0.5876717528395384   T   T   T
  1.1645619339786069  0.9538103062307549  0.5568752159892193   T   T   T
  0.4794960821600624  0.5166842832247374  0.3455979045645901   T   T   T
  1.1421530398041115  0.7167147925655234  0.6105882950321098   T   T   T
  1.2205630987647373  0.9594634521998623  0.3609735756619680   T   T   T
  1.0881609047732390  0.6699745623451525  0.4342012342809057   T   T   T
  1.0218467338952779  0.4566885305983277  0.4875533244963212   T   T   T
  0.4050105747632139  0.8377649103742535  0.5702908681895128   T   T   T
  0.5491646794749360  1.0495686689490535  0.4148521238054508   T   T   T
  0.5909473493385043  0.7362630920933784  0.6284420319071145   T   T   T
  0.6216023088369352  0.3085450805864497  0.4514247600300475   T   T   T
  0.9326894875141623  1.1452417325373463  0.5527921624622532   T   T   T
  0.7002420087747251  0.5784150735685357  0.5662647846496530   T   T   T
  0.7734986716591564  0.7518721339684906  0.3679009050637010   T   T   T
  1.1507516122643766  0.4862309384720119  0.5678451653605293   T   T   T
  0.7403691894242086  0.9509651144555759  0.4193515350217681   T   T   T
  1.3616713598412782  0.8976234595708410  0.4715770911604124   T   T   T
  0.7984408873637160  0.6337400010954755  0.4474235784768295   T   T   T
  1.0169970367745840  1.0604848897207326  0.3368002661952932   T   T   T
  0.9840331558880762  1.1551610141125108  0.4672815133765231   T   T   T
  0.8970083604959120  0.8580772152422813  0.5089362505430217   T   T   T
  0.7701179467854528  1.3738916821427531  0.5353890520611332   T   T   T
  0.2537847122026966  0.6055408680477623  0.3464989609058807   T   T   T
  0.4673654263470288  0.7200808045269562  0.4654079254508356   T   T   T
  0.3926021028446274  0.2042556201369428  0.5080170549995859   T   T   T
  0.4083732595075675  0.5145066710586350  0.5399334479922933   T   T   T
  0.3664426301968478  1.1375784707996233  0.3358691056671980   T   T   T
  0.5666452421508391  0.2491043748075250  0.3352563715959871   T   T   T
  0.9164196273724513  0.5810813213443465  0.3172941216969745   T   T   T
  0.8972803659748290  0.4988266392582943  0.3609627469871465   T   T   T
  1.2379461916072574  1.0919389667299870  0.4110394460404337   T   T   T
  1.1408060992840321  1.1413069280186219  0.4403997675413253   T   T   T
  0.4064385220082484  0.6159836097817650  0.4503022246711575   T   T   T
  1.3622358411991087  0.4803660918857193  0.3948375701619116   T   T   T
  0.5873018583489235  1.0332598087872455  0.5821825870641913   T   T   T
  0.6785011812895968  1.2039904069492289  0.5703113490543621   T   T   T
  1.0849606635719165  0.9372543244864813  0.5355002907972495   T   T   T
  1.2594049722462906  1.0146808830465004  0.5407377884744055   T   T   T
  0.4737089249571884  0.4161814716849301  0.3413748911874827   T   T   T
  0.4137584493397301  0.5298964419437567  0.3235150036270440   T   T   T
  1.1329828719268220  0.7208602163979301  0.6432120783462660   T   T   T
  1.1331163437332168  0.8008922921732262  0.5962070601695066   T   T   T
  0.1946043686625707  0.8584525945597116  0.3524341334919651   T   T   T
  1.1456007134726296  0.9825653204505147  0.3482869743494994   T   T   T
  1.0618387983169062  0.5932924384057054  0.4611250544452994   T   T   T
  1.1067823105877039  0.6263702990888902  0.4077376646677132   T   T   T
  1.1005661504069757  0.4767168991244177  0.5103073550257179   T   T   T
  0.9260907052349459  0.4218491801492956  0.5082463132373122   T   T   T
  0.3873898874987404  0.8621675923680813  0.5392528755816761   T   T   T
  0.3001250192149206  0.7862119577837403  0.5819800583735162   T   T   T
  0.6206030113739487  1.0118769926640803  0.4172511381826842   T   T   T
  0.6028858254805873  1.1626393463988067  0.4247945919169116   T   T   T
  0.6291234330504898  0.8135356045672738  0.6496510901873027   T   T   T
  0.5525101336875050  0.7687231621059858  0.6029799203716008   T   T   T
  0.5461955227896061  0.2798173874355696  0.4759623981919260   T   T   T
  0.6794135218292757  0.4218567490041619  0.4446311598486808   T   T   T
  0.8354142568120090  1.1327025222606912  0.5657834523566012   T   T   T
  0.9196831283693845  1.0478633559170167  0.5628906367485360   T   T   T
  0.5969187726756053  0.5548503135728097  0.5526939975724678   T   T   T
  0.6949732448601124  0.6261204113044675  0.5955451394551292   T   T   T
  0.8302027808360224  0.6974208809505559  0.3612817819890042   T   T   T
  0.6709611464809991  0.6889941642745138  0.3517827695929493   T   T   T
  1.1197656389997799  0.5499748056934638  0.5852662816300449   T   T   T
  1.0676016617927289  0.3850174924284406  0.5642391539783788   T   T   T
  0.8298437468343078  1.0155388864159713  0.4379882043644530   T   T   T
  0.7606330366990555  0.8805738039090359  0.4014318373221887   T   T   T
  1.2552768172158157  0.8382959050365451  0.4593606771595483   T   T   T
  0.4512220725007915  0.9795741501085999  0.4375127801997625   T   T   T
  0.7544634583337595  0.6590231039677688  0.4209727266966210   T   T   T
  0.8945650251744331  0.6396623851716027  0.4369482733359585   T   T   T
  0.9242277813948818  0.9589209389001191  0.3402118741736666   T   T   T
  0.9927612738156032  1.1469856449815499  0.3382076099194364   T   T   T
  0.9755580525809948  1.1363398728421195  0.4989742216614471   T   T   T
  0.9983168667843173  1.2589390996647596  0.4659774443898987   T   T   T
  0.8526852046602371  0.7688767759732577  0.4897571473171096   T   T   T
  0.8195041968582686  0.8268602845199442  0.5312696575282951   T   T   T
  0.7210714486539870  1.3609972743979548  0.5067716904721289   T   T   T
  0.7791444467693744  1.4747346080331649  0.5457150407869183   T   T   T
  0.2980558674762361  0.6438972863823859  0.3173888191410071   T   T   T
  0.1614316650210972  0.5092096320335407  0.3385167748367420   T   T   T
  0.3990667079097234  0.8152891440857073  0.4695557087516198   T   T   T
  0.5771791427830730  0.7898900307580866  0.4554672141302268   T   T   T
  0.3800762243002702  0.2756117062654898  0.5266086645231203   T   T   T
  1.3150155072211580  0.1717736403546454  0.4846933137324473   T   T   T
  0.3503085080138323  0.5276840641078440  0.5634419932542335   T   T   T
  0.4188849140065276  0.5890187654623984  0.5183363352751217   T   T   T
  0.6865099981631212  0.0836334694526931  0.3116519787268290   T   T   T
  0.5705340424266705  0.0527802106488913  0.3205207972987204   T   T   T
  0.6959355517232372 -0.0143294430834588  0.3152561323460517   T   T   T
  0.7880856648206948  0.2193504535346417  0.3331039239912781   T   T   T
  0.7313475143767270  0.2965623714777414  0.3499387714014718   T   T   T
  0.9377606256544745  0.2642584536348242  0.3333329412092719   T   T   T
  1.2956461497525957  0.3614809872773396  0.4295013798381144   T   T   T
 
  0.23843796E-02  0.76887353E-03  0.85231975E-03
 -0.35085521E-03  0.16900987E-03  0.30631126E-02
  0.32561818E-03  0.57085134E-03 -0.13221975E-03
  0.11049624E-02  0.33490931E-03  0.15375272E-02
  0.27287102E-02 -0.38366857E-03  0.16945662E-02
 -0.16704983E-02  0.74300834E-03  0.86863967E-03
 -0.14653147E-03  0.97088322E-03  0.24535990E-02
  0.57408082E-03  0.15680091E-03  0.15488583E-02
  0.99326149E-03 -0.16239482E-02  0.15359121E-02
  0.28324242E-02  0.25727364E-03 -0.98129167E-04
 -0.30588697E-03  0.47272116E-03 -0.14646160E-02
 -0.23629241E-02 -0.14649616E-02  0.72328499E-03
  0.18530988E-02  0.61221057E-03  0.60510655E-03
  0.14300141E-02 -0.13028890E-02  0.13845633E-02
  0.12551253E-02 -0.22305106E-03  0.31313638E-02
 -0.40783665E-03  0.18552336E-02  0.25461976E-02
  0.21741552E-02 -0.24730896E-03  0.30439924E-03
 -0.22993963E-03  0.72326163E-03 -0.32463716E-03
 -0.22572174E-02  0.80559654E-03 -0.16371665E-02
  0.12865684E-02  0.18007028E-03 -0.13614043E-02
 -0.98904081E-03 -0.45461009E-02 -0.40606123E-02
 -0.17574496E-02 -0.19542016E-03  0.14262137E-03
  0.38941591E-03 -0.20849051E-03 -0.18340062E-04
  0.14877079E-02 -0.14324886E-02 -0.63893281E-03
 -0.39884220E-02  0.44770900E-03 -0.83679673E-03
 -0.10433293E-02  0.18673447E-02  0.37472831E-02
  0.11310100E-03  0.61831104E-03  0.95252603E-03
  0.83000337E-03 -0.19710839E-02  0.10880275E-02
  0.14116313E-02 -0.14708801E-03 -0.86552901E-03
  0.16414634E-02 -0.74737071E-03 -0.16396456E-02
  0.92914158E-03  0.69997362E-03 -0.14270028E-02
  0.74887561E-03  0.91323857E-03  0.25245398E-02
  0.12745194E-03 -0.25955507E-02 -0.57443303E-02
 -0.58657391E-03 -0.20232820E-02 -0.29531982E-02
 -0.54612359E-03 -0.33171802E-02  0.68862536E-04
  0.73210151E-03 -0.37464774E-02  0.27161873E-02
 -0.28195777E-02  0.40315331E-03  0.35367906E-05
 -0.11608265E-02  0.13845092E-02  0.18221262E-03
  0.13084175E-02 -0.86465889E-03 -0.18618425E-02
  0.30585362E-02 -0.12874467E-02  0.52100520E-02
 -0.22435045E-02 -0.23353015E-02  0.16744533E-02
 -0.55128110E-03  0.15069906E-03  0.18862011E-02
 -0.20082528E-02 -0.28625018E-02 -0.42270426E-03
 -0.90123205E-03 -0.17122415E-02 -0.20858051E-03
 -0.12597386E-02  0.23837396E-02  0.88837637E-04
 -0.40178977E-02  0.50453802E-03  0.15012412E-03
 -0.38962922E-02  0.18294115E-02  0.39287815E-03
 -0.19819075E-02  0.14818191E-02  0.19441431E-04
  0.00000000E+00  0.00000000E+00  0.00000000E+00
  0.00000000E+00  0.00000000E+00  0.00000000E+00
  0.00000000E+00  0.00000000E+00  0.00000000E+00
  0.00000000E+00  0.00000000E+00  0.00000000E+00
  0.00000000E+00  0.00000000E+00  0.00000000E+00
  0.00000000E+00  0.00000000E+00  0.00000000E+00
  0.00000000E+00  0.00000000E+00  0.00000000E+00
  0.00000000E+00  0.00000000E+00  0.00000000E+00
  0.00000000E+00  0.00000000E+00  0.00000000E+00
  0.00000000E+00  0.00000000E+00  0.00000000E+00
  0.00000000E+00  0.00000000E+00  0.00000000E+00
  0.00000000E+00  0.00000000E+00  0.00000000E+00
  0.00000000E+00  0.00000000E+00  0.00000000E+00
  0.00000000E+00  0.00000000E+00  0.00000000E+00
  0.00000000E+00  0.00000000E+00  0.00000000E+00
  0.00000000E+00  0.00000000E+00  0.00000000E+00
  0.11021727E-02  0.31059453E-02  0.34471781E-02
 -0.25997356E-02  0.32926335E-02  0.64429492E-04
  0.83750268E-02 -0.24690285E-04 -0.25228118E-03
 -0.32763117E-02 -0.91313306E-03  0.93836722E-03
  0.49993578E-02  0.21024291E-02  0.33132644E-03
  0.98567395E-02  0.27550985E-02 -0.12844125E-02
 -0.18181013E-02  0.31167499E-02  0.10367375E-02
  0.10203074E-02 -0.10855672E-01 -0.39261978E-02
  0.12612727E-02  0.22242406E-02  0.40879306E-02
  0.67343615E-02  0.32694930E-02  0.32590372E-02
 -0.26439452E-02 -0.41866322E-02  0.41253769E-02
 -0.39314372E-02 -0.58019869E-02 -0.56597860E-02
  0.31304758E-02  0.39156173E-02 -0.43305559E-02
  0.79676323E-02  0.11678587E-01  0.26800951E-02
 -0.12646973E-02  0.11301901E-02  0.23538626E-02
  0.61704892E-03 -0.51885897E-02  0.10033235E-02
 -0.44178220E-02  0.30154210E-02  0.62308356E-03
  0.15535319E-02 -0.40115746E-02  0.93697605E-03
  0.16864700E-02 -0.45255259E-02 -0.68871699E-03
  0.23865417E-02 -0.52610956E-02 -0.37171628E-02
 -0.17899868E-02 -0.15256612E-02 -0.46052037E-02
  0.75099189E-02 -0.24275914E-02 -0.32164487E-02
 -0.24285548E-02  0.48504277E-03 -0.38175674E-02
 -0.37254335E-02 -0.56970718E-03 -0.11429816E-02
  0.21582548E-02 -0.31629244E-02  0.24200270E-02
  0.30612533E-02  0.18187669E-02  0.10175799E-02
  0.19809192E-02 -0.24987467E-02  0.25425708E-02
 -0.87935965E-03  0.10050287E-01 -0.66321442E-02
 -0.19287129E-02 -0.10541276E-02 -0.22699644E-02
 -0.40792359E-02  0.17705544E-02  0.34053771E-02
  0.43634757E-02  0.11941337E-01  0.11808483E-01
 -0.20549240E-02 -0.21575598E-01 -0.22329186E-01
  0.25579870E-01 -0.70500366E-02  0.16900827E-01
 -0.18930242E-01 -0.31004523E-01 -0.22022964E-01
  0.13943937E-01 -0.82607193E-02 -0.27292109E-02
  0.87221732E-02  0.19543444E-01 -0.20208250E-01
 -0.38422944E-02  0.21572506E-01  0.11218257E-01
  0.59299810E-02  0.75798663E-02  0.11410549E-01
  0.33009337E-01 -0.52928465E-02  0.33781605E-01
 -0.16671969E-01 -0.26739870E-02  0.52392041E-02
  0.86190580E-02  0.29469105E-01  0.76821621E-02
  0.31334233E-01  0.11940025E-01 -0.53830950E-02
  0.24897958E-02  0.61184437E-02 -0.84905436E-02
 -0.19743204E-01 -0.22819078E-01  0.25558225E-01
  0.24653691E-01 -0.60569090E-02 -0.24103471E-01
 -0.73479738E-02 -0.53367018E-02  0.36035802E-02
 -0.28789412E-02  0.72329152E-02  0.35211063E-02
  0.22059437E-02  0.30597308E-01  0.86744667E-02
 -0.95168726E-03  0.30090963E-03 -0.65518106E-02
 -0.10388049E-01 -0.69094288E-02 -0.11199329E-01
  0.21639487E-01 -0.16219644E-01 -0.53087891E-02
  0.55024978E-02 -0.49794202E-02  0.12653432E-01
 -0.24537197E-02  0.12608042E-01  0.77262943E-02
 -0.13382556E-01  0.11577312E-01  0.22576589E-01
  0.30740078E-01  0.24630604E-01  0.10678299E-01
  0.17100173E-01  0.21137796E-01  0.26073694E-03
  0.27864474E-02  0.14356700E-01  0.71023077E-03
  0.26803251E-02  0.16579789E-01  0.11268693E-01
  0.73310288E-02  0.29985273E-02 -0.20183353E-01
  0.12668730E-01 -0.78377039E-02  0.21070984E-02
 -0.14748850E-01  0.35211959E-01  0.13970798E-01
  0.42547787E-02  0.56024897E-02 -0.25878622E-02
  0.76656697E-03  0.19633096E-01 -0.22915735E-01
  0.12421304E-01 -0.39648550E-02  0.23105895E-01
  0.99467072E-02  0.63680249E-02  0.24151233E-01
  0.16812617E-01  0.67215842E-02  0.90956438E-03
 -0.59280542E-02 -0.35903909E-02 -0.21007767E-01
  0.31228427E-01 -0.30190640E-01  0.12187379E-01
 -0.12340785E-01  0.81584014E-02 -0.67229098E-02
  0.31549769E-01 -0.86231938E-02 -0.10275468E-01
 -0.41714012E-02  0.11133764E-01 -0.17937447E-01
 -0.20100317E-01 -0.14377959E-01  0.20532585E-02
  0.19243705E-01 -0.58650767E-02  0.62758863E-02
  0.17247415E-01  0.14272524E-01 -0.11766167E-01
 -0.43729341E-02  0.28833206E-02 -0.35022744E-04
  0.21025875E-01  0.10134352E-01  0.19939904E-01
 -0.15092730E-01 -0.14071419E-01  0.53470579E-03
 -0.88826731E-02  0.15916127E-01 -0.13595326E-02
 -0.86018317E-02 -0.99392125E-02 -0.15846171E-02
 -0.17659880E-02  0.11442200E-01 -0.13814724E-01
 -0.30717441E-02 -0.26843306E-01 -0.95619241E-02
 -0.12146490E-01 -0.81939292E-02  0.98786055E-03
  0.21888180E-01 -0.14167213E-01  0.51461423E-02
 -0.61447081E-02  0.34734052E-02  0.22342396E-02
  0.27825415E-02 -0.26001132E-02 -0.90443841E-02
  0.85324321E-02 -0.35601164E-02 -0.12927873E-02
 -0.67230624E-02 -0.12744136E-01  0.52263107E-02
  0.67414699E-02 -0.19002824E-01  0.35878829E-01
 -0.51405412E-02 -0.54331685E-02  0.11705855E-01
  0.77746864E-02 -0.18988564E-01 -0.49184519E-02
 -0.57095813E-02  0.55579470E-02 -0.25074550E-03
  0.78616835E-02  0.58155576E-02  0.28970215E-01
 -0.87436419E-02  0.18207279E-01  0.87686611E-02
  0.26697254E-02  0.48900416E-03  0.28033645E-02
  0.26097104E-02  0.62971629E-02  0.84335774E-02
  0.30656910E-02 -0.31179328E-02  0.20454567E-02
  0.32005213E-01  0.56397214E-02  0.17332418E-01
 
           1
   1.00000000000000     
  0.39855043E+00 -0.66368308E-02 -0.51550104E-02  0.40444635E+00
  0.40678841E+00  0.90871107E-01  0.11558274E+00
  0.91385882E+00  0.58172919E+00  0.10909066E+00
  0.66151733E+00  0.32922149E+00  0.11433217E+00
  0.15877519E+00  0.84262316E+00  0.11315999E+00
  0.15508571E+00  0.58607212E+00  0.11285920E+00
  0.41900967E+00  0.34057148E+00  0.11553638E+00
  0.16713541E+00  0.91677580E-01  0.11377294E+00
  0.39797800E+00  0.82994345E+00  0.11694585E+00
  0.91252163E+00  0.32304289E+00  0.11164490E+00
  0.16927566E+00  0.34920005E+00  0.11278731E+00
  0.65469659E+00  0.84608969E-01  0.11831414E+00
  0.65971207E+00  0.83681802E+00  0.11741094E+00
  0.66625725E+00  0.57705276E+00  0.11605045E+00
  0.41083965E+00  0.59123433E+00  0.11352671E+00
  0.89992588E+00  0.82050841E+00  0.11333012E+00
  0.89993682E+00  0.66100807E-01  0.11292099E+00
  0.32367618E+00  0.16472481E+00  0.18162193E+00
  0.83277746E+00  0.41196566E+00  0.17916412E+00
  0.76328999E-01  0.66799313E+00  0.17776503E+00
  0.31855844E+00  0.91691967E+00  0.18252987E+00
  0.57656863E+00  0.17666428E+00  0.18133283E+00
  0.57799631E+00  0.41533459E+00  0.17905787E+00
  0.96404296E-01  0.42277869E+00  0.17715315E+00
  0.82873826E+00  0.66247542E+00  0.17946205E+00
  0.69138073E-01  0.93320513E+00  0.18128348E+00
  0.31905756E+00  0.40418814E+00  0.18117093E+00
  0.33371026E+00  0.66640371E+00  0.18109603E+00
  0.74513617E-01  0.16886860E+00  0.17820802E+00
  0.56243590E+00  0.91906523E+00  0.18426560E+00
  0.82554278E+00  0.15685710E+00  0.17735437E+00
  0.58102694E+00  0.67197812E+00  0.17955536E+00
  0.82225156E+00  0.91497950E+00  0.18230461E+00
  0.48446021E+00  0.24209573E+00  0.25270105E+00
  0.23802654E+00  0.16698221E-03  0.25062060E+00
  0.99510780E+00  0.75014273E+00  0.24486811E+00
  0.50055785E+00  0.11593598E-01  0.25156144E+00
  0.11685067E-01  0.51041856E+00  0.24200816E+00
  0.74791159E+00  0.50849134E+00  0.24969487E+00
  0.25299569E+00  0.76293965E+00  0.24569779E+00
  0.74844117E+00  0.25024299E+00  0.24347952E+00
  0.23251775E+00  0.25118098E+00  0.24827521E+00
  0.24873850E+00  0.50811692E+00  0.24930326E+00
  0.99085050E+00  0.26344690E+00  0.24774741E+00
  0.47665482E+00  0.48952241E+00  0.24452610E+00
  0.49133190E+00  0.74663098E+00  0.25089802E+00
  0.98403495E+00  0.99145571E+00  0.25603005E+00
  0.73685419E+00  0.99212269E+00  0.25364729E+00
  0.72081255E+00  0.73059299E+00  0.25098391E+00
  0.50516998E+00  0.25522000E+00  0.45922160E-01
  0.25519003E+00  0.52500000E-02  0.45922160E-01
  0.52100000E-02  0.75524000E+00  0.45922160E-01
  0.50515997E+00  0.52700000E-02  0.45922160E-01
  0.51299800E-02  0.50519999E+00  0.45922160E-01
  0.75522998E+00  0.50526997E+00  0.45922160E-01
  0.25512001E+00  0.75525997E+00  0.45922160E-01
  0.75509999E+00  0.25529000E+00  0.45922160E-01
  0.25525001E+00  0.25516000E+00  0.45922160E-01
  0.25513999E+00  0.50516995E+00  0.45922160E-01
  0.52600000E-02  0.25527000E+00  0.45922160E-01
  0.50518000E+00  0.50516995E+00  0.45922160E-01
  0.50511001E+00  0.75520000E+00  0.45922160E-01
  0.51800000E-02  0.52200000E-02  0.45922160E-01
  0.75517000E+00  0.52400000E-02  0.45922160E-01
  0.75518999E+00  0.75517998E+00  0.45922160E-01
  0.46093998E+00  0.23099197E+00  0.32256847E+00
  0.93289472E+00  0.60319661E+00  0.34949462E+00
  0.24397735E+00  0.15953955E+00  0.43491813E+00
  0.31305951E+00  0.46911767E+00  0.42400131E+00
  0.68501443E+00  0.12498049E+00  0.58768262E+00
  0.16569327E+00  0.95412471E+00  0.55683308E+00
  0.47949424E+00  0.51703996E+00  0.34563191E+00
  0.14163446E+00  0.71547597E+00  0.61045950E+00
  0.22081466E+00  0.95971728E+00  0.36110767E+00
  0.89013008E-01  0.67034767E+00  0.43430814E+00
  0.21346551E-01  0.45621076E+00  0.48768865E+00
  0.40429098E+00  0.83710280E+00  0.57010521E+00
  0.54969748E+00  0.50015510E-01  0.41471007E+00
  0.59240115E+00  0.73759583E+00  0.62852995E+00
  0.62154181E+00  0.30867406E+00  0.45150198E+00
  0.93245441E+00  0.14464962E+00  0.55282508E+00
  0.69997746E+00  0.57875919E+00  0.56628522E+00
  0.77342331E+00  0.75141434E+00  0.36793164E+00
  0.15066006E+00  0.48571450E+00  0.56782257E+00
  0.74030486E+00  0.95036473E+00  0.41922960E+00
  0.36140740E+00  0.89744935E+00  0.47142602E+00
  0.79904457E+00  0.63346297E+00  0.44731807E+00
  0.16784701E-01  0.60540242E-01  0.33667504E+00
  0.98363247E+00  0.15509600E+00  0.46724402E+00
  0.89704119E+00  0.85771627E+00  0.50901564E+00
  0.77052426E+00  0.37409924E+00  0.53542243E+00
  0.25383791E+00  0.60525572E+00  0.34658237E+00
  0.46785198E+00  0.72122772E+00  0.46519037E+00
  0.39235134E+00  0.20413533E+00  0.50794259E+00
  0.40807114E+00  0.51470872E+00  0.54004516E+00
  0.36755523E+00  0.13894119E+00  0.33625647E+00
  0.56521108E+00  0.24664222E+00  0.33452389E+00
  0.91854539E+00  0.58027679E+00  0.31784853E+00
  0.89364043E+00  0.49528847E+00  0.36024031E+00
  0.23885291E+00  0.90996272E-01  0.41094992E+00
  0.14278323E+00  0.14353718E+00  0.43973686E+00
  0.40728970E+00  0.61844542E+00  0.45067022E+00
  0.36325439E+00  0.48123109E+00  0.39521188E+00
  0.59026213E+00  0.32655801E-01  0.58329075E+00
  0.67670093E+00  0.20368526E+00  0.57048321E+00
  0.87493950E-01  0.94061727E+00  0.53575229E+00
  0.26318298E+00  0.16043452E-01  0.54056120E+00
  0.47430410E+00  0.41687969E+00  0.34109637E+00
  0.41050522E+00  0.52729238E+00  0.32435341E+00
  0.13507377E+00  0.72016902E+00  0.64242140E+00
  0.13208565E+00  0.80028328E+00  0.59632527E+00
  0.19473255E+00  0.85927800E+00  0.35254964E+00
  0.14756457E+00  0.98605702E+00  0.34857153E+00
  0.61761914E-01  0.59332678E+00  0.46091013E+00
  0.10536143E+00  0.62558181E+00  0.40737029E+00
  0.10177928E+00  0.47486595E+00  0.51013321E+00
  0.92635039E+00  0.42128094E+00  0.50866139E+00
  0.38786679E+00  0.86360639E+00  0.53950633E+00
  0.29946302E+00  0.78753313E+00  0.58272065E+00
  0.62504641E+00  0.14687782E-01  0.41760143E+00
  0.60578192E+00  0.16505154E+00  0.42480315E+00
  0.63021799E+00  0.81517396E+00  0.64967439E+00
  0.55372105E+00  0.77061521E+00  0.60334957E+00
  0.54709113E+00  0.28015957E+00  0.47530031E+00
  0.68021835E+00  0.42096233E+00  0.44470028E+00
  0.83596580E+00  0.13672083E+00  0.56624175E+00
  0.92042330E+00  0.48502700E-01  0.56280575E+00
  0.59811477E+00  0.55709080E+00  0.55194228E+00
  0.69597460E+00  0.62566795E+00  0.59630310E+00
  0.83154916E+00  0.69814759E+00  0.36207403E+00
  0.67300624E+00  0.68976122E+00  0.35181261E+00
  0.11897491E+00  0.54956508E+00  0.58457715E+00
  0.68965288E-01  0.38157220E+00  0.56463894E+00
  0.82908963E+00  0.16469905E-01  0.43776767E+00
  0.76325904E+00  0.87958974E+00  0.40109476E+00
  0.25549984E+00  0.83956647E+00  0.45877226E+00
  0.44841519E+00  0.97793337E+00  0.43758013E+00
  0.75603064E+00  0.65835379E+00  0.42117860E+00
  0.89708394E+00  0.64129113E+00  0.43656230E+00
  0.92396013E+00  0.95924998E+00  0.34021073E+00
  0.99541749E+00  0.14814215E+00  0.33886171E+00
  0.97326356E+00  0.13473407E+00  0.49899176E+00
  0.99834716E+00  0.26075541E+00  0.46593285E+00
  0.85126797E+00  0.76774254E+00  0.48970517E+00
  0.81998255E+00  0.82816604E+00  0.53081648E+00
  0.71923622E+00  0.35793398E+00  0.50645802E+00
  0.77747649E+00  0.47379954E+00  0.54574745E+00
  0.29941069E+00  0.64228056E+00  0.31755763E+00
  0.16102258E+00  0.50960601E+00  0.33859007E+00
  0.39919334E+00  0.81499242E+00  0.46925902E+00
  0.57781926E+00  0.78948376E+00  0.45542481E+00
  0.37868463E+00  0.27415737E+00  0.52678011E+00
  0.31459748E+00  0.16960508E+00  0.48587027E+00
  0.34949046E+00  0.52706404E+00  0.56382599E+00
  0.41856981E+00  0.58685183E+00  0.51817499E+00
  0.68626286E+00  0.84267730E-01  0.31164375E+00
  0.57164283E+00  0.53443869E-01  0.32147113E+00
  0.69611031E+00  0.98774833E+00  0.31554378E+00
  0.78837741E+00  0.21940626E+00  0.33319588E+00
  0.73196474E+00  0.29728099E+00  0.35021542E+00
  0.93788570E+00  0.26390264E+00  0.33340004E+00
  0.29913099E+00  0.36212458E+00  0.43006995E+00
  0.00000000E+00  0.00000000E+00  0.00000000E+00
  0.00000000E+00  0.00000000E+00  0.00000000E+00
  0.00000000E+00  0.00000000E+00  0.00000000E+00
  0.00000000E+00  0.00000000E+00  0.00000000E+00
  0.00000000E+00  0.00000000E+00  0.00000000E+00
  0.00000000E+00  0.00000000E+00  0.00000000E+00
  0.00000000E+00  0.00000000E+00  0.00000000E+00
  0.00000000E+00  0.00000000E+00  0.00000000E+00
  0.00000000E+00  0.00000000E+00  0.00000000E+00
  0.00000000E+00  0.00000000E+00  0.00000000E+00
  0.00000000E+00  0.00000000E+00  0.00000000E+00
  0.00000000E+00  0.00000000E+00  0.00000000E+00
  0.00000000E+00  0.00000000E+00  0.00000000E+00
  0.00000000E+00  0.00000000E+00  0.00000000E+00
  0.00000000E+00  0.00000000E+00  0.00000000E+00
  0.00000000E+00  0.00000000E+00  0.00000000E+00
  0.00000000E+00  0.00000000E+00  0.00000000E+00
  0.00000000E+00  0.00000000E+00  0.00000000E+00
  0.00000000E+00  0.00000000E+00  0.00000000E+00
  0.00000000E+00  0.00000000E+00  0.00000000E+00
  0.00000000E+00  0.00000000E+00  0.00000000E+00
  0.00000000E+00  0.00000000E+00  0.00000000E+00
  0.00000000E+00  0.00000000E+00  0.00000000E+00
  0.00000000E+00  0.00000000E+00  0.00000000E+00
  0.00000000E+00  0.00000000E+00  0.00000000E+00
  0.00000000E+00  0.00000000E+00  0.00000000E+00
  0.00000000E+00  0.00000000E+00  0.00000000E+00
  0.00000000E+00  0.00000000E+00  0.00000000E+00
  0.00000000E+00  0.00000000E+00  0.00000000E+00
  0.00000000E+00  0.00000000E+00  0.00000000E+00
  0.00000000E+00  0.00000000E+00  0.00000000E+00
  0.00000000E+00  0.00000000E+00  0.00000000E+00
  0.00000000E+00  0.00000000E+00  0.00000000E+00
  0.00000000E+00  0.00000000E+00  0.00000000E+00
  0.00000000E+00  0.00000000E+00  0.00000000E+00
  0.00000000E+00  0.00000000E+00  0.00000000E+00
  0.00000000E+00  0.00000000E+00  0.00000000E+00
  0.00000000E+00  0.00000000E+00  0.00000000E+00
  0.00000000E+00  0.00000000E+00  0.00000000E+00
  0.00000000E+00  0.00000000E+00  0.00000000E+00