 Ni\(1\1\1)                             
   1.00000000000000     
     9.8291997910000006    0.0000000000000000    0.0000000000000000
     4.9145998955000003    8.5123367178000002    0.0000000000000000
     0.0000000000000000    0.0000000000000000   19.0128002167000005
   Ni   O    C    O    C    H 
    64     3     1     2     1     2
Selective dynamics
Direct
  0.8360798658217411  0.5815255886393008  0.2715806536674612   T   T   T
  0.3354524005483758  0.0816095871348493  0.2706208925655025   T   T   T
  0.8360530926826398  0.0817073964702062  0.2706883710687348   T   T   T
  0.3352358700603565  0.5821178988023956  0.2707164501088445   T   T   T
  0.5861510871362844  0.8320704647294468  0.2713096702778044   T   T   T
  0.8356006021533614  0.8316285177343226  0.2713757237382513   T   T   T
  0.0857259801422787  0.3313554682473560  0.2711310482566102   T   T   T
  0.8356127857394609  0.3315302242836229  0.2715038764499328   T   T   T
  0.5858241363596079  0.5815012464322625  0.2713870915362185   T   T   T
  0.0848766294772123  0.5820881778315082  0.2711090740366818   T   T   T
  0.0854838572815321  0.0823256277675976  0.2710954588193949   T   T   T
  0.5861090984626123  0.0814117435956800  0.2714936024573417   T   T   T
  0.3358100238140352  0.8316416609078607  0.2707355555764571   T   T   T
  0.0850240963794223  0.8318319470726622  0.2707549744558942   T   T   T
  0.3355493711953981  0.3317669837020821  0.2712425203798073   T   T   T
  0.5855700738899967  0.3313089043540739  0.2711364111764087   T   T   T
  0.9205522657782031  0.6631538217716841  0.3771489134543483   T   T   T
  0.9193614921310836  0.4138968602962934  0.3766400705001116   T   T   T
  0.6699865586269876  0.6648077414315210  0.3756549551143934   T   T   T
  0.1691592189775701  0.1642224884250511  0.3768997207009332   T   T   T
  0.9210609370225629  0.1650165342820935  0.3779043000270227   T   T   T
  0.9202569099018844  0.9148293610876479  0.3760683419752968   T   T   T
  0.4195675011483861  0.9144282985047117  0.3759465863648752   T   T   T
  0.4198541126254006  0.1640090421947345  0.3755218220162183   T   T   T
  0.6706316580724401  0.1641798282258424  0.3758890146157302   T   T   T
  0.1699019256837222  0.6644672469937286  0.3759180137728282   T   T   T
  0.4196758599384195  0.6642661231601069  0.3760733259104826   T   T   T
  0.4193527200365024  0.4149769220812660  0.3758123184449426   T   T   T
  0.6705783122114806  0.9138168695078203  0.3786175266473602   T   T   T
  0.1700295655115273  0.4144164054839514  0.3774867913589226   T   T   T
  0.6698928612557852  0.4138479930919138  0.3776107220345648   T   T   T
  0.1697222757201318  0.9146840226177819  0.3777551642013742   T   T   T
 -0.0008649035297295  0.2547165237109661  0.4860644003057725   T   T   T
  0.5033036957126539  0.2475253566796766  0.4794162823466185   T   T   T
  0.0011291605593923  0.7460977716707816  0.4798565968919434   T   T   T
  0.5043766304515400  0.7478977659153977  0.4804977069958367   T   T   T
  0.7517973259176909  0.7481328354203757  0.4845434568713354   T   T   T
  0.0058741387383375  0.4960894784398968  0.4834792693119219   T   T   T
  0.7430377603083889  0.5048530028103649  0.4818388021431332   T   T   T
  0.2514924373515148  0.9957959034608656  0.4850689580998976   T   T   T
  0.0062218185683581 -0.0029881311073655  0.4855688064368062   T   T   T
  0.5064952910367655  0.9973121264938547  0.4849829206909057   T   T   T
  0.2501715525329817  0.7522596870061343  0.4854723634588946   T   T   T
  0.7522614023460231  0.9958764266629966  0.4857271891471658   T   T   T
  0.2562954529378923  0.2489634831730973  0.4841257671116216   T   T   T
  0.7496502749902831  0.2518757455448690  0.4852309981419222   T   T   T
  0.2510107500576486  0.4972081558238632  0.4855376122764816   T   T   T
  0.5036021656410491  0.4956971169076520  0.4851718115850217   T   T   T
  0.9970724670000024  0.2558556729999992  0.1637003960000030   F   F   F
  0.4999617989999976  0.2500875830000027  0.1643123180000003   F   F   F
  0.9968841629999972  0.7476992069999966  0.1643590660000029   F   F   F
  0.5054474789999972  0.7476858750000019  0.1651548480000002   F   F   F
  0.7507219769999978  0.7486395119999969  0.1651830500000031   F   F   F
  0.9979410790000003  0.5014025589999989  0.1651978470000017   F   F   F
  0.7507272960000009  0.5014379059999996  0.1654730480000026   F   F   F
  0.2484077359999972  0.9989653640000000  0.1655050250000016   F   F   F
  0.0026835399999996  0.9989392600000002  0.1655775309999967   F   F   F
  0.5037179199999997  0.9979203070000011  0.1655856309999990   F   F   F
  0.2483221529999966  0.7533767729999994  0.1658259459999982   F   F   F
  0.7484137009999969  0.9978805350000002  0.1658943890000018   F   F   F
  0.2473094730000014  0.2543786680000011  0.1660089160000027   F   F   F
  0.7483561820000020  0.2543461500000035  0.1660180820000008   F   F   F
  0.2472921950000000  0.4989472700000022  0.1662971330000005   F   F   F
  0.5037960519999984  0.4989156760000029  0.1664085250000014   F   F   F
  0.3369746185683423  0.0796341151413735  0.5443909237586109   T   T   T
  0.8362358648416366  0.0822562727466461  0.5447506009260323   T   T   T
  0.3346910145402036  0.5831461658209592  0.5451082159863045   T   T   T
  0.8391917018536340  0.4725610373044293  0.6021918194428147   T   T   T
 -0.0178380503689937  0.3946142206885780  0.5677736265911609   T   T   T
  0.8102701717014749  0.4154254666433471  0.6526766089372477   T   T   T
  0.7269194189674789  0.6334444634190343  0.5724857678060710   T   T   T
  0.6153318001383385  0.6885103201126370  0.6017809116227582   T   T   T
  0.7835050770470821  0.7082553021754261  0.5818082577476452   T   T   T
 
  0.00000000E+00  0.00000000E+00  0.00000000E+00
  0.00000000E+00  0.00000000E+00  0.00000000E+00
  0.00000000E+00  0.00000000E+00  0.00000000E+00
  0.00000000E+00  0.00000000E+00  0.00000000E+00
  0.00000000E+00  0.00000000E+00  0.00000000E+00
  0.00000000E+00  0.00000000E+00  0.00000000E+00
  0.00000000E+00  0.00000000E+00  0.00000000E+00
  0.00000000E+00  0.00000000E+00  0.00000000E+00
  0.00000000E+00  0.00000000E+00  0.00000000E+00
  0.00000000E+00  0.00000000E+00  0.00000000E+00
  0.00000000E+00  0.00000000E+00  0.00000000E+00
  0.00000000E+00  0.00000000E+00  0.00000000E+00
  0.00000000E+00  0.00000000E+00  0.00000000E+00
  0.00000000E+00  0.00000000E+00  0.00000000E+00
  0.00000000E+00  0.00000000E+00  0.00000000E+00
  0.00000000E+00  0.00000000E+00  0.00000000E+00
  0.00000000E+00  0.00000000E+00  0.00000000E+00
  0.00000000E+00  0.00000000E+00  0.00000000E+00
  0.00000000E+00  0.00000000E+00  0.00000000E+00
  0.00000000E+00  0.00000000E+00  0.00000000E+00
  0.00000000E+00  0.00000000E+00  0.00000000E+00
  0.00000000E+00  0.00000000E+00  0.00000000E+00
  0.00000000E+00  0.00000000E+00  0.00000000E+00
  0.00000000E+00  0.00000000E+00  0.00000000E+00
  0.00000000E+00  0.00000000E+00  0.00000000E+00
  0.00000000E+00  0.00000000E+00  0.00000000E+00
  0.00000000E+00  0.00000000E+00  0.00000000E+00
  0.00000000E+00  0.00000000E+00  0.00000000E+00
  0.00000000E+00  0.00000000E+00  0.00000000E+00
  0.00000000E+00  0.00000000E+00  0.00000000E+00
  0.00000000E+00  0.00000000E+00  0.00000000E+00
  0.00000000E+00  0.00000000E+00  0.00000000E+00
  0.00000000E+00  0.00000000E+00  0.00000000E+00
  0.00000000E+00  0.00000000E+00  0.00000000E+00
  0.00000000E+00  0.00000000E+00  0.00000000E+00
  0.00000000E+00  0.00000000E+00  0.00000000E+00
  0.00000000E+00  0.00000000E+00  0.00000000E+00
  0.00000000E+00  0.00000000E+00  0.00000000E+00
  0.00000000E+00  0.00000000E+00  0.00000000E+00
  0.00000000E+00  0.00000000E+00  0.00000000E+00
  0.00000000E+00  0.00000000E+00  0.00000000E+00
  0.00000000E+00  0.00000000E+00  0.00000000E+00
  0.00000000E+00  0.00000000E+00  0.00000000E+00
  0.00000000E+00  0.00000000E+00  0.00000000E+00
  0.00000000E+00  0.00000000E+00  0.00000000E+00
  0.00000000E+00  0.00000000E+00  0.00000000E+00
  0.00000000E+00  0.00000000E+00  0.00000000E+00
  0.00000000E+00  0.00000000E+00  0.00000000E+00
  0.00000000E+00  0.00000000E+00  0.00000000E+00
  0.00000000E+00  0.00000000E+00  0.00000000E+00
  0.00000000E+00  0.00000000E+00  0.00000000E+00
  0.00000000E+00  0.00000000E+00  0.00000000E+00
  0.00000000E+00  0.00000000E+00  0.00000000E+00
  0.00000000E+00  0.00000000E+00  0.00000000E+00
  0.00000000E+00  0.00000000E+00  0.00000000E+00
  0.00000000E+00  0.00000000E+00  0.00000000E+00
  0.00000000E+00  0.00000000E+00  0.00000000E+00
  0.00000000E+00  0.00000000E+00  0.00000000E+00
  0.00000000E+00  0.00000000E+00  0.00000000E+00
  0.00000000E+00  0.00000000E+00  0.00000000E+00
  0.00000000E+00  0.00000000E+00  0.00000000E+00
  0.00000000E+00  0.00000000E+00  0.00000000E+00
  0.00000000E+00  0.00000000E+00  0.00000000E+00
  0.00000000E+00  0.00000000E+00  0.00000000E+00
  0.00000000E+00  0.00000000E+00  0.00000000E+00
  0.00000000E+00  0.00000000E+00  0.00000000E+00
  0.00000000E+00  0.00000000E+00  0.00000000E+00
  0.00000000E+00  0.00000000E+00  0.00000000E+00
  0.00000000E+00  0.00000000E+00  0.00000000E+00
  0.00000000E+00  0.00000000E+00  0.00000000E+00
  0.00000000E+00  0.00000000E+00  0.00000000E+00
  0.00000000E+00  0.00000000E+00  0.00000000E+00
  0.00000000E+00  0.00000000E+00  0.00000000E+00
