 Ni\(1\1\1)                             
   1.00000000000000     
     9.8291997910000006    0.0000000000000000    0.0000000000000000
     4.9145998955000003    8.5123367178000002    0.0000000000000000
     0.0000000000000000    0.0000000000000000   19.0128002167000005
   Ni   O    C    H 
    64     1     2     3
Direct
  0.8330348854934860  0.5850782136438062  0.2712418446058713
  0.3329566817416643  0.0847321069780534  0.2712699345815007
  0.8327330281237636  0.0852295010553473  0.2716430578762941
  0.3335137664335138  0.5844696773662842  0.2716258462820919
  0.5829064891861041  0.8349478131291683  0.2709679246135568
  0.8331066464036079  0.8349877748455157  0.2710104995206609
  0.0833639332762000  0.3344833827635076  0.2713607130157022
  0.8326449250064832  0.3345678877501700  0.2717910046632320
  0.5828032060085114  0.5847377730362820  0.2717473404586238
  0.0831888972771741  0.5847294647642048  0.2712735229014025
  0.0827251856739650  0.0851352711026434  0.2716437536534719
  0.5827230291526241  0.0850642415229807  0.2718492040227375
  0.3331717722789623  0.8348448469172993  0.2713068320458784
  0.0830105124584061  0.8350252003581623  0.2711765185264376
  0.3335293754563661  0.3343350976030574  0.2714432780942253
  0.5827802711935414  0.3348016269377159  0.2717937722178337
  0.9168245082019700  0.6660978572031161  0.3767568209116494
  0.9166478407424065  0.4167388204317560  0.3762143916499536
  0.6671438781207977  0.6663300725659668  0.3763694894137489
  0.1656993038500958  0.1676451650174552  0.3769304751794790
  0.9149307817472514  0.1683436131080471  0.3782947493892623
  0.9168809898687449  0.9170528789098334  0.3762543988872946
  0.4166420015942144  0.9167019686509380  0.3763722467648408
  0.4168055255923198  0.1674741329692296  0.3778442831078808
  0.6663274556377233  0.1673061546823943  0.3774696601102686
  0.1666055011008628  0.6668451847012687  0.3762247592593708
  0.4180165601811247  0.6647390878468389  0.3778377345177528
  0.4167254788081785  0.4165182917690421  0.3774583433970705
  0.6666234023652644  0.9164845355018705  0.3762299112438489
  0.1660174502216733  0.4166554289933965  0.3764788628136149
  0.6667899409302084  0.4167037007504794  0.3777902649814298
  0.1665108532814379  0.9172885244831220  0.3764084615811459
  0.0009369630333954  0.2484809059401199  0.4855330405894742
  0.4989730512070778  0.2480485792991458  0.4852926725323961
  0.0003075992541233  0.7493759220727922  0.4821955735240602
  0.4998132593220691  0.7499868151090117  0.4820307311512682
  0.7485346603209401  0.7522503020454528  0.4818353723831186
  0.0003712361946546  0.4993035202456624  0.4859716852753486
  0.7511256123366763  0.5014589817856341  0.4844588191779048
  0.2500159617958207 -0.0010468765250202  0.4822231392217747
  0.0011580593568497  0.9982036351241733  0.4823768445472640
  0.4999660974429639 -0.0017786782036649  0.4822568484488121
  0.2495039351008813  0.7500306608544269  0.4820979402391264
  0.7522335510913123  0.9953278966477385  0.4812322034518667
  0.2522683216369205  0.2475903740730364  0.4818500352762615
  0.7498116986586737  0.2465400392559941  0.4849803138642981
  0.2457405111661324  0.5016753634833715  0.4811444358068401
  0.4989484869022628  0.5009449516498011  0.4854187999409743
  0.9990153037412730  0.2522636290814835  0.1660247361609984
  0.4994459433655947  0.2521780030595392  0.1659599209962112
 -0.0001001160331715  0.7519551298320917  0.1655005017276528
  0.4995961552844714  0.7517877344875725  0.1657222925589741
  0.7497507818911419  0.7517828958407667  0.1656076491206059
 -0.0003607192808532  0.5018656041231566  0.1657258244248132
  0.7492612021439584  0.5021216625017685  0.1659298440904452
  0.2490575887641090  0.0021915918214687  0.1656656032851794
 -0.0008038391643046  0.0021487795082834  0.1658902420783190
  0.4996243327879415  0.0020691356609823  0.1658364196189744
  0.2496306676220266  0.7518352570919347  0.1657034350928623
  0.7494272312893946  0.0021335852121296  0.1658397941490961
  0.2493316014639601  0.2522205407172523  0.1659107869352074
  0.7493516496747367  0.2522579124891549  0.1662150012241832
  0.2494868034450489  0.5020776566297975  0.1657204608743361
  0.4993418342422475  0.5022229619658987  0.1659248810412554
  0.9127259039811556  0.4143699280403222  0.6178241874507699
  0.9167095534703509  0.4159251392576408  0.5548900809523830
  0.5809802927666559  0.3318512741649000  0.5654675219664167
  0.5189031301082974  0.4542841997982904  0.5872612654925150
  0.5187626887645796  0.2722974272017752  0.5878915551963326
  0.7007827884419789  0.2724480432971569  0.5894277358435487
 
  0.00000000E+00  0.00000000E+00  0.00000000E+00
  0.00000000E+00  0.00000000E+00  0.00000000E+00
  0.00000000E+00  0.00000000E+00  0.00000000E+00
  0.00000000E+00  0.00000000E+00  0.00000000E+00
  0.00000000E+00  0.00000000E+00  0.00000000E+00
  0.00000000E+00  0.00000000E+00  0.00000000E+00
  0.00000000E+00  0.00000000E+00  0.00000000E+00
  0.00000000E+00  0.00000000E+00  0.00000000E+00
  0.00000000E+00  0.00000000E+00  0.00000000E+00
  0.00000000E+00  0.00000000E+00  0.00000000E+00
  0.00000000E+00  0.00000000E+00  0.00000000E+00
  0.00000000E+00  0.00000000E+00  0.00000000E+00
  0.00000000E+00  0.00000000E+00  0.00000000E+00
  0.00000000E+00  0.00000000E+00  0.00000000E+00
  0.00000000E+00  0.00000000E+00  0.00000000E+00
  0.00000000E+00  0.00000000E+00  0.00000000E+00
  0.00000000E+00  0.00000000E+00  0.00000000E+00
  0.00000000E+00  0.00000000E+00  0.00000000E+00
  0.00000000E+00  0.00000000E+00  0.00000000E+00
  0.00000000E+00  0.00000000E+00  0.00000000E+00
  0.00000000E+00  0.00000000E+00  0.00000000E+00
  0.00000000E+00  0.00000000E+00  0.00000000E+00
  0.00000000E+00  0.00000000E+00  0.00000000E+00
  0.00000000E+00  0.00000000E+00  0.00000000E+00
  0.00000000E+00  0.00000000E+00  0.00000000E+00
  0.00000000E+00  0.00000000E+00  0.00000000E+00
  0.00000000E+00  0.00000000E+00  0.00000000E+00
  0.00000000E+00  0.00000000E+00  0.00000000E+00
  0.00000000E+00  0.00000000E+00  0.00000000E+00
  0.00000000E+00  0.00000000E+00  0.00000000E+00
  0.00000000E+00  0.00000000E+00  0.00000000E+00
  0.00000000E+00  0.00000000E+00  0.00000000E+00
  0.00000000E+00  0.00000000E+00  0.00000000E+00
  0.00000000E+00  0.00000000E+00  0.00000000E+00
  0.00000000E+00  0.00000000E+00  0.00000000E+00
  0.00000000E+00  0.00000000E+00  0.00000000E+00
  0.00000000E+00  0.00000000E+00  0.00000000E+00
  0.00000000E+00  0.00000000E+00  0.00000000E+00
  0.00000000E+00  0.00000000E+00  0.00000000E+00
  0.00000000E+00  0.00000000E+00  0.00000000E+00
  0.00000000E+00  0.00000000E+00  0.00000000E+00
  0.00000000E+00  0.00000000E+00  0.00000000E+00
  0.00000000E+00  0.00000000E+00  0.00000000E+00
  0.00000000E+00  0.00000000E+00  0.00000000E+00
  0.00000000E+00  0.00000000E+00  0.00000000E+00
  0.00000000E+00  0.00000000E+00  0.00000000E+00
  0.00000000E+00  0.00000000E+00  0.00000000E+00
  0.00000000E+00  0.00000000E+00  0.00000000E+00
  0.00000000E+00  0.00000000E+00  0.00000000E+00
  0.00000000E+00  0.00000000E+00  0.00000000E+00
  0.00000000E+00  0.00000000E+00  0.00000000E+00
  0.00000000E+00  0.00000000E+00  0.00000000E+00
  0.00000000E+00  0.00000000E+00  0.00000000E+00
  0.00000000E+00  0.00000000E+00  0.00000000E+00
  0.00000000E+00  0.00000000E+00  0.00000000E+00
  0.00000000E+00  0.00000000E+00  0.00000000E+00
  0.00000000E+00  0.00000000E+00  0.00000000E+00
  0.00000000E+00  0.00000000E+00  0.00000000E+00
  0.00000000E+00  0.00000000E+00  0.00000000E+00
  0.00000000E+00  0.00000000E+00  0.00000000E+00
  0.00000000E+00  0.00000000E+00  0.00000000E+00
  0.00000000E+00  0.00000000E+00  0.00000000E+00
  0.00000000E+00  0.00000000E+00  0.00000000E+00
  0.00000000E+00  0.00000000E+00  0.00000000E+00
  0.00000000E+00  0.00000000E+00  0.00000000E+00
  0.00000000E+00  0.00000000E+00  0.00000000E+00
  0.00000000E+00  0.00000000E+00  0.00000000E+00
  0.00000000E+00  0.00000000E+00  0.00000000E+00
  0.00000000E+00  0.00000000E+00  0.00000000E+00
  0.00000000E+00  0.00000000E+00  0.00000000E+00
