Ni_O                                    
   1.00000000000000     
     9.8292000000000002    0.0000000000000000    0.0000000000000000
     4.9146000000000001    8.5123370000000005    0.0000000000000000
     0.0000000000000000    0.0000000000000000   33.0127999999999986
   Ni   O    O    H    C    O 
    64     3    30    60     1     2
Direct
  0.8417288953605990  0.5877816164760914  0.1213804466152337
  0.3404294827415335  0.0830884273157223  0.1214903973292573
  0.8395049783107874  0.0896435436186138  0.1220355180802524
  0.3407962406145550  0.5988969266686628  0.1225065748426420
  0.5938736183335160  0.8341840241683987  0.1189086131455980
  0.8372325473932599  0.8378178877053735  0.1200491097121619
  0.0866530156885545  0.3298074648683690  0.1235738964333677
  0.8344700193947321  0.3370965255725485  0.1252026216206608
  0.5945511714367027  0.5811132826604969  0.1234512567335241
  0.0991381377238782  0.5840713424720081  0.1216132510099484
  0.0891839285379075  0.0817093354502550  0.1213988619977800
  0.5887622356814203  0.0931255465349248  0.1192912611132438
  0.3471803447559226  0.8290348786534125  0.1205391103459200
  0.0960237100246978  0.8369560692874551  0.1245937709782374
  0.3369174640158239  0.3391668761365739  0.1234498905645761
  0.5870258186443774  0.3386852089831406  0.1236475493740726
  0.9206607969194647  0.6709390268356693  0.1816623913025193
  0.9220325986113727  0.4265029694713195  0.1850307564163148
  0.6746207443106720  0.6783087766371930  0.1826347616353926
  0.1729055505453686  0.1750800623251458  0.1860619985594625
  0.9229322923184513  0.1763643437424978  0.1880639104613351
  0.9164449070792972  0.9298824182990142  0.1854620558760885
  0.4242594941709307  0.9187087136558133  0.1789300249950697
  0.4141340306785474  0.1773368320849845  0.1866500269881518
  0.6693779255998101  0.1886995979413001  0.1870768661220886
  0.1670249742318100  0.6834839171197471  0.1833978584590824
  0.4263752772987497  0.6687394532190524  0.1855155819328471
  0.4125775415982406  0.4231930930803399  0.1848224577069533
  0.6723401913767636  0.9261408108697575  0.1825186111914204
  0.1777051748113989  0.4212940441128893  0.1847199710184458
  0.6702269011804148  0.4229578631986948  0.1865273657368464
  0.1859148722132511  0.9198847885750313  0.1869730285375344
  0.0082857934883098  0.2512475847072076  0.2516696016278889
  0.5087112719461725  0.2512893987826945  0.2498904208478174
  0.0048451197709062  0.7428349703537962  0.2462975315306387
  0.5126022023515958  0.7474440976936656  0.2493105129897082
  0.7589964216387306  0.7564866708689235  0.2383094366548342
  0.0127836051624937  0.4971859361778743  0.2452080930176186
  0.7594797242746943  0.5233470133284412  0.2442743578317693
  0.2474441528846840  1.0135703180796236  0.2473530905596708
  0.0120561901080184  0.9920885845968702  0.2464372854415672
  0.4941330333978030  1.0031981445382374  0.2416514082121655
  0.2560165047714067  0.7615122533045572  0.2488737832142717
  0.7429916583494769  1.0125504116595663  0.2472850900771591
  0.2503179778948897  0.2630811536229976  0.2495739811549725
  0.7626602579439697  0.2533054925364635  0.2486270688430631
  0.2596506625853721  0.5157275390757684  0.2474183973302475
  0.5078745410999117  0.5062522622452800  0.2465444482950325
  1.0259605519201025  0.2370208593426996  0.0645678294157048
  0.5183895859041463  0.2546210687880964  0.0570190006447986
  1.0243402747062533  0.7398520697162750  0.0600146453404568
  0.5148632782007657  0.7507755774353777  0.0606935369294025
  0.7600233896027996  0.7391298338148486  0.0594574606495082
  1.0246649316669765  0.4809383007299181  0.0634834643829778
  0.7758047827754856  0.4849479989421216  0.0625542529813705
  0.2752242429291087  0.9908475774375017  0.0623520793121115
  0.0334549560934068  0.9873976115577876  0.0624881207491602
  0.5158458503555186  0.9987621983364715  0.0584091304379191
  0.2691465463450538  0.7514969792855819  0.0564635277669185
  0.7732662261889786  0.9942334305735960  0.0589275749717854
  0.2838869893280087  0.2413282528336422  0.0628496445418234
  0.7681307401960389  0.2457979880862834  0.0628384096818126
  0.2704702208612215  0.4954323530335200  0.0609253477214072
  0.5153725833751887  0.5010076711507359  0.0625649887549374
  0.4035730403179294 -0.0414095029915410  0.2829160132348402
  0.8462978720414758  0.0787245975320500  0.2847236013873222
  0.3477948180626149  0.5980087079933812  0.2851954358411953
  0.3051499747191139  0.4483346564543292  0.6103762947140059
  0.5547720526533388  0.0292898904461875  0.5240156123437777
  0.4258913809063458  0.8670290930107636  0.4609581701718261
  0.1170219960475474  0.0495116474212028  0.4391959368329618
 -0.0010966753201563  0.2521468879486419  0.3139027407516766
  0.2247936136883523  0.1736124875497642  0.5455086136658148
  0.0123165226030047  0.7136273048966960  0.3110916151912220
  0.3025445526639606  0.7088554068249627  0.3583220981023660
  0.4695213744352978  0.8782085001188732  0.3734877202842968
  0.7210722737088808  0.3446838960214064  0.4972172270930689
  0.2531103873679178  0.5484387138655279  0.4935978439515778
  0.7995118041763632  0.7225712162735052  0.5551129865284544
  0.5163463527678777  0.7213536168942890  0.5543816821216232
  0.7018939286298224  0.8692259142562035  0.3332658588364404
  0.7936008158753886  0.0306779183310560  0.3837575243317123
  0.4203465493081365  0.4754918841648766  0.4257732068249266
  0.0021630888971173  0.4921240083165699  0.3543536023689456
  0.6907257891433100  0.6164666316355448  0.2940085679313079
  0.0255543724496967  0.3042710041089265  0.4863260984214723
  0.8362304478681062  0.7075763997973109  0.4165620199358869
  1.0050303331479153  0.7375419291138093  0.6073527007286321
  0.0685047981961899  0.8615764692651374  0.5023096261006006
  0.7510816807015501  0.0791815661769167  0.4644189401383083
  0.0665786618984133  0.0099281115324955  0.3631406233520739
  0.6800825617713964  0.4253584694463151  0.3429136942305154
  0.4795544720607859  0.4560619676154952  0.5471576633833002
 -0.0296056913730826  0.6101101519533462  0.4865178927805707
  0.1731236828428167  0.8986112601663034  0.5808411906299518
  0.6863177224779614  0.4923824191371584  0.4200876810931437
  0.2808856335764568  0.2685856278519442  0.3951757333867845
  0.2104445180012019  0.5462402240556632  0.6133724606772334
  0.2806423923533700  0.3756798202005129  0.5979789576479133
  0.4565856064737659  0.0647363291078051  0.5374307965528204
  0.6351523137362765 -0.0577777134537273  0.5400204567843050
  0.3079051559721191  0.9339088413135762  0.4552476596364780
  0.4590267020050530  0.9421293391690342  0.4705267071855929
  0.0962466827807049  0.0466980247511133  0.4072705985968041
  0.0683990610751246 -0.0044977082892159  0.4527475250850929
  0.0435720539866543  0.1550268433498281  0.3293365359865594
  0.0154121268968702  0.3315374623595681  0.3272723443546119
  0.1344136775810476  0.2318212009522728  0.5254335745963220
  0.1883906715532659  0.1235026486091607  0.5655540432987404
  0.0129298399021138  0.6142656734695366  0.3244575948786396
  0.9039234865337995  0.8044425697157959  0.3188200388593898
  0.3342128048501375  0.6600315329293079  0.3293509164471510
  0.3710684306518845  0.7489061587778152  0.3628837213218264
  0.3806376460899263  0.9815274809488259  0.3657796853676550
  0.5004012566463703  0.8757819831830785  0.4034940216686295
  0.6754363609404351  0.4220246718180161  0.4755719855485834
  0.6338525967656091  0.3735064914895095  0.5169923896364635
  0.2131919191241729  0.6679993876634179  0.4923196527008089
  0.3074736455115680  0.5176465731092966  0.4678377903346450
  0.7139117121440303  0.6959395520342851  0.5616934771025426
  0.8613612463356131  0.6508850834331701  0.5332182464847525
  0.4833691812866427  0.7684895024474794  0.5266239411930341
  0.5237194923787506  0.6173069772706935  0.5517485586175199
  0.6191333679211044  0.8634060145401494  0.3474841491979208
  0.6424174545829520 -0.0627662851824436  0.3091441549070959
  0.7495673159297640  0.0631851280524762  0.4113515736834129
  0.7285489457262112  0.0120573640079457  0.3658636493346502
  0.5153300659428329  0.4839418864359642  0.4270907974232825
  0.3621168437536006  0.5489362558829585  0.4038631180683134
  0.1140529739332378  0.4289288425629576  0.3641868182221489
  0.9375025872426346  0.5682751144509106  0.3757246539083096
  0.7409931913929738  0.6708820954487434  0.3060144373277248
  0.6700889163592981  0.5024856791978556  0.3227620904591508
  0.9149838965776002  0.3220863935831905  0.4899436834071580
  0.0716194578125860  0.2037246866553425  0.4721331291202215
  0.8436605283124035  0.8024484012722979  0.4087256406571698
  0.9012903431537463  0.6674178182810372  0.4426260909486348
  0.9322809469650934  0.7142615604614747  0.5912530754036978
  0.9890047555647401  0.7155248051801322  0.6347373291817171
  0.0781517287772042  0.9051501548164117  0.5281804600493726
 -0.0396572566262814  0.8885101648376864  0.4998545350161426
  0.6668159414991670  0.0678035441863251  0.4781101700730013
  0.7237250038771103  0.1945746009147037  0.4708618739997713
  0.1343444400044725  0.8946397230385867  0.3565057196069951
  0.9591333057272966  0.0227287930863458  0.3669339508038206
  0.5842907827851213  0.3181076121818103  0.3371299225904792
  0.7904434582956982  0.3378896935696902  0.3366321230019628
  0.3963755226003425  0.4969884657015902  0.5280747848584079
  0.4439003170081373  0.4584575216631429  0.5745998950128238
 -0.0106723966629768  0.4984807771503649  0.4881503761216296
  0.0787418688718070  0.5938733126869511  0.4870935404815451
  0.1439849015291768  0.8192603093097907  0.5891861454834795
  0.2854655277217654  0.8410910699369364  0.5740204758729966
  0.6685578788851069  0.6016966853672390  0.4209130657238367
  0.6861297900040463  0.4802598434910499  0.3888517644863624
  0.3084898377730085  0.2603329804296054  0.4231525532011978
  0.3571997830847013  0.2865202637202840  0.3803716646336910
  0.4282002857285729  0.2790378387547273  0.3045499158873259
  0.2991839868190795  0.2828496606711690  0.3072046618769172
  0.4966669451150774  0.2927985440244211  0.3389861596392720
 
  0.21088594E-02 -0.27188248E-03 -0.77250387E-03
 -0.15075866E-02 -0.14807200E-02  0.17884184E-02
 -0.10765427E-02 -0.42593918E-02  0.22492837E-03
 -0.12088080E-02 -0.11184797E-02 -0.73365224E-03
 -0.17742340E-04  0.16933441E-02 -0.17485332E-03
  0.86315063E-03 -0.20279180E-04 -0.14764225E-02
  0.43515395E-02 -0.61010675E-03  0.51013007E-03
  0.33467873E-02  0.39330187E-03 -0.15177214E-02
 -0.32374779E-02 -0.30912585E-02  0.34426157E-03
  0.12361819E-02 -0.17396920E-02 -0.11024323E-03
 -0.34638457E-03 -0.11170530E-02 -0.11634489E-02
  0.29582854E-03  0.21259810E-02  0.11926161E-02
 -0.43471511E-03 -0.33618530E-02  0.13709035E-02
 -0.14311538E-02 -0.12223738E-02  0.25391649E-02
  0.18609309E-03  0.36749030E-02  0.51183308E-03
  0.19845039E-03  0.18641057E-02  0.55147372E-03
  0.60271122E-03  0.17483652E-02 -0.27620162E-02
  0.47198671E-04  0.10429894E-02 -0.12408373E-02
  0.38890936E-02 -0.43185948E-03  0.63846543E-03
  0.17983609E-02  0.15220113E-02  0.49200211E-03
  0.19155020E-02 -0.28580513E-02  0.12872142E-02
 -0.16999444E-02  0.31361540E-03 -0.26591830E-03
  0.23220161E-02  0.11099554E-02  0.10093654E-02
 -0.63851194E-03  0.43715016E-02 -0.94540815E-04
  0.40155781E-03  0.94725133E-03  0.12329734E-02
  0.41928890E-02  0.23186461E-03 -0.23361154E-02
  0.17069184E-02  0.31715642E-02 -0.78059618E-03
 -0.26635274E-04 -0.95906835E-03  0.21325034E-02
  0.33692468E-03  0.68789737E-03  0.24179925E-02
 -0.98984539E-03  0.21446330E-02 -0.19548396E-02
  0.67359877E-03 -0.17431533E-02  0.21515414E-02
  0.17739986E-02 -0.13273342E-02 -0.24527602E-02
  0.40444953E-03 -0.49935788E-03  0.27519310E-02
  0.12193774E-02 -0.11572577E-02  0.79189054E-03
 -0.31745498E-02  0.23461145E-02 -0.43390158E-02
  0.58051727E-03  0.36114313E-03 -0.18383410E-02
 -0.61159946E-03  0.13340460E-02 -0.93309005E-03
  0.36856740E-03  0.48092226E-03  0.21793606E-03
  0.25603857E-02  0.53601446E-03  0.13896022E-02
 -0.11029470E-02  0.26155832E-02 -0.48430225E-03
  0.11025322E-02  0.73599604E-03  0.16260643E-02
  0.12074815E-02 -0.15466331E-02 -0.16864249E-03
  0.66450924E-03  0.13646495E-02  0.24591124E-02
 -0.32805439E-02 -0.25680608E-02  0.20672493E-02
  0.32385863E-02  0.27058423E-03 -0.56839195E-02
 -0.30380402E-02 -0.23742972E-02  0.32301752E-02
  0.89277284E-03  0.20430557E-02 -0.26380670E-03
 -0.72317311E-03 -0.70584011E-03 -0.22394365E-02
  0.13176225E-02 -0.11628309E-02 -0.13940361E-02
 -0.53033017E-03 -0.47409579E-03 -0.29403398E-02
 -0.12775856E-02 -0.13657215E-03 -0.20822179E-02
 -0.10027769E-02  0.11146387E-02 -0.18423012E-02
 -0.40475582E-03  0.20758246E-02 -0.14126651E-02
  0.26140845E-02  0.11052459E-02  0.13868419E-02
 -0.14671649E-03  0.41319857E-05  0.22627230E-02
 -0.42511754E-02 -0.12885919E-02  0.32247738E-02
 -0.10796182E-02  0.11874591E-02  0.57892260E-04
  0.63771826E-03 -0.20491995E-02  0.37237014E-02
 -0.29773082E-03  0.11208796E-02 -0.28993030E-04
  0.31155734E-03  0.12201875E-02 -0.28855168E-02
 -0.21824860E-02  0.40081572E-04  0.38030946E-03
 -0.31388578E-02  0.22951391E-02 -0.17219918E-03
 -0.13090608E-02 -0.18830833E-02 -0.13960315E-02
 -0.10864948E-02 -0.27507965E-02 -0.79486607E-03
  0.28005997E-02  0.10988273E-01  0.29716547E-03
 -0.18267161E-02 -0.81092887E-03  0.22330961E-02
  0.44120864E-02  0.10206752E-01  0.22243173E-02
  0.22188189E-02 -0.25224585E-02 -0.48623505E-03
 -0.63685745E-02 -0.63680803E-02 -0.21839982E-02
  0.85413785E-03 -0.14798353E-02 -0.48386729E-02
 -0.58227863E-02  0.28426063E-02 -0.18013153E-02
  0.23122620E-02  0.50455616E-02 -0.11248221E-02
  0.37246220E-02  0.37178594E-02  0.34876287E-02
  0.13335858E-03 -0.48664531E-02  0.23570079E-02
 -0.28152925E-02  0.68683984E-02  0.60892333E-03
 -0.58283211E-02 -0.30010342E-02  0.13442021E-02
  0.47120298E-02 -0.22555888E-02 -0.44499316E-02
 -0.33813559E-02 -0.41106327E-02  0.47276669E-02
 -0.15992935E-02 -0.38744401E-03  0.17114626E-02
  0.31190045E-02  0.67551606E-02  0.70736833E-03
 -0.90261676E-02  0.17699265E-02  0.17835883E-02
  0.45862293E-02 -0.35466193E-02  0.43808000E-02
 -0.11494156E-02 -0.35527669E-02 -0.46614731E-02
 -0.54441175E-02 -0.33923591E-02  0.29589266E-02
  0.12418753E-01 -0.47906045E-02 -0.94640748E-02
  0.36158945E-02 -0.17795244E-02  0.51924534E-03
  0.31075890E-02  0.63218868E-02  0.79422344E-05
 -0.89305649E-02 -0.17698692E-02  0.13720143E-02
 -0.72634950E-02 -0.18849297E-02 -0.45028688E-02
  0.71750487E-02 -0.80626218E-02  0.10959944E-01
 -0.37125007E-02  0.26163799E-02 -0.13453550E-02
 -0.79046906E-02 -0.31669715E-02  0.47769038E-03
  0.23084001E-02  0.37504078E-03 -0.41377784E-02
 -0.65641341E-02 -0.23573187E-02 -0.51823555E-02
  0.49565474E-02  0.88058649E-02  0.28944039E-02
  0.14250885E-02  0.26820149E-02  0.86648242E-03
  0.45683935E-03  0.42180441E-02  0.16976612E-03
 -0.18457638E-01  0.11821907E-01  0.17381571E-02
 -0.19147928E-01 -0.63027679E-02 -0.25559203E-02
 -0.28259190E-01 -0.22440373E-01  0.86013461E-02
  0.12430531E-02  0.18980568E-01  0.10312444E-01
 -0.56576653E-02 -0.13553156E-02  0.17664595E-01
  0.17915068E-01 -0.41663475E-02  0.26120917E-01
 -0.44572424E-02  0.16000943E-01  0.27488918E-02
  0.16250176E-01  0.21620012E-01  0.22302260E-01
  0.93929097E-02 -0.17986673E-01 -0.28153272E-01
  0.17539413E-01 -0.16750295E-01 -0.80769616E-02
 -0.12147309E-01  0.36249426E-01 -0.20100058E-01
  0.93744105E-02 -0.11490154E-01 -0.14876182E-01
 -0.18182924E-02 -0.30801562E-01  0.10070605E-02
  0.24567916E-01  0.19823804E-01 -0.55904658E-02
 -0.74500720E-02  0.10775838E-01  0.30210673E-01
 -0.11870089E-01 -0.18141437E-01  0.34346158E-01
  0.25804281E-02 -0.25915582E-02  0.42980123E-02
 -0.15555127E-01 -0.45669511E-02 -0.27146214E-02
 -0.13641736E-01  0.12028685E-01  0.25982048E-02
  0.25386552E-01  0.13991068E-01 -0.22603659E-01
  0.11019045E-01 -0.55152875E-03 -0.38175958E-01
  0.22274680E-01 -0.49190176E-02  0.36827056E-02
 -0.18841005E-01 -0.24033527E-01  0.13201660E-01
  0.10635397E-02 -0.43789993E-02 -0.15112152E-01
 -0.12733617E-01 -0.71137403E-03  0.18896321E-01
 -0.31904660E-02 -0.14463453E-01 -0.93380548E-02
 -0.18873378E-02 -0.20537211E-01  0.22959584E-01
 -0.27761036E-01  0.96597197E-02 -0.78233740E-02
 -0.12012261E-01 -0.12451334E-01  0.20758590E-01
 -0.61541382E-02 -0.34426441E-02  0.17463027E-01
 -0.76437145E-02  0.12534930E-01  0.56115270E-02
 -0.24951744E-01 -0.20926846E-01 -0.66938546E-03
  0.14818497E-01 -0.24905225E-01 -0.11380594E-01
  0.18929246E-02 -0.19154072E-01  0.19398514E-01
 -0.28626678E-01 -0.25354496E-01 -0.13372095E-01
 -0.28982354E-01 -0.13228643E-01 -0.12861383E-02
 -0.11363591E-02 -0.21519564E-01  0.17203380E-01
 -0.54536312E-02 -0.18822187E-01  0.13398619E-01
  0.29076798E-02 -0.16891193E-02 -0.15212343E-03
 -0.17018577E-01 -0.82196138E-02 -0.15426895E-01
 -0.23802176E-01  0.26036322E-01 -0.15232675E-01
  0.95568175E-02 -0.25503866E-02  0.48762225E-02
  0.86088396E-03 -0.44160373E-02 -0.22763818E-01
 -0.34233061E-02 -0.21212486E-01  0.25921510E-01
 -0.10365936E-01  0.11730796E-01 -0.27325556E-01
 -0.32939122E-02 -0.23213152E-01  0.36645922E-01
 -0.29135077E-02  0.87633185E-02  0.11509310E-01
 -0.18531610E-01  0.91687553E-02 -0.14660606E-01
 -0.40406438E-02 -0.82879329E-02 -0.90167850E-02
  0.64131169E-02 -0.10815174E-01  0.18932811E-01
 -0.15339516E-01  0.32145160E-02 -0.35012235E-01
  0.15952451E-01  0.29465197E-02  0.18264298E-01
  0.14179348E-01  0.87214441E-02 -0.10267893E-01
 -0.10753055E-01  0.27436387E-02 -0.23856281E-02
 -0.56424621E-02  0.25940792E-01  0.14643686E-01
 -0.92401202E-02  0.24913019E-01  0.29641521E-01
 -0.30272160E-01  0.28604132E-02 -0.25124631E-02
 -0.31778693E-01 -0.15056635E-01  0.11377726E-01
  0.25364279E-01  0.41047324E-02 -0.23266817E-02
 -0.61453903E-02 -0.19080338E-01  0.16708688E-01
  0.36293671E-02 -0.14296588E-02  0.31908564E-02
 -0.79721533E-03 -0.61708881E-02  0.14038449E-02
 -0.21501907E-02 -0.14150039E-01 -0.45567587E-02
 
           1
   1.00000000000000     
 -0.61282006E-02  0.50576555E-02  0.45776592E-02 -0.10945858E-01
  0.84195942E+00  0.58774968E+00  0.12135705E+00
  0.34036308E+00  0.82914477E-01  0.12154457E+00
  0.83964564E+00  0.89143165E-01  0.12204233E+00
  0.34073896E+00  0.59876553E+00  0.12248435E+00
  0.59377235E+00  0.83438295E+00  0.11890332E+00
  0.83732155E+00  0.83781551E+00  0.12000439E+00
  0.87131568E-01  0.32973579E+00  0.12358935E+00
  0.83478741E+00  0.33714273E+00  0.12515665E+00
  0.59440337E+00  0.58075013E+00  0.12346168E+00
  0.99366091E-01  0.58386697E+00  0.12160991E+00
  0.89214302E-01  0.81578108E-01  0.12136362E+00
  0.58866746E+00  0.93375299E-01  0.11932739E+00
  0.34733359E+00  0.82863994E+00  0.12058064E+00
  0.95949908E-01  0.83681247E+00  0.12467069E+00
  0.33672054E+00  0.33959859E+00  0.12346539E+00
  0.58693651E+00  0.33890420E+00  0.12366425E+00
  0.92061942E+00  0.67114442E+00  0.18157873E+00
  0.92197614E+00  0.42662550E+00  0.18499317E+00
  0.67504178E+00  0.67825804E+00  0.18265410E+00
  0.17299911E+00  0.17525886E+00  0.18607690E+00
  0.92329505E+00  0.17602859E+00  0.18810290E+00
  0.91625354E+00  0.92991926E+00  0.18545400E+00
  0.42443053E+00  0.91883911E+00  0.17896060E+00
  0.41381230E+00  0.17785038E+00  0.18664716E+00
  0.66936314E+00  0.18881088E+00  0.18711421E+00
  0.16743793E+00  0.68351116E+00  0.18332709E+00
  0.42636264E+00  0.66911204E+00  0.18549194E+00
  0.41263117E+00  0.42308043E+00  0.18488705E+00
  0.67233406E+00  0.92622162E+00  0.18259186E+00
  0.17747850E+00  0.42154599E+00  0.18466076E+00
  0.67039782E+00  0.42275308E+00  0.18659254E+00
  0.18617332E+00  0.91972886E+00  0.18689873E+00
  0.83562727E-02  0.25118892E+00  0.25175296E+00
  0.50890330E+00  0.25115345E+00  0.24991441E+00
  0.43843417E-02  0.74311058E+00  0.24616610E+00
  0.51264005E+00  0.74748652E+00  0.24925483E+00
  0.75885584E+00  0.75664339E+00  0.23828117E+00
  0.12792854E-01  0.49724243E+00  0.24521469E+00
  0.75970873E+00  0.52340998E+00  0.24431645E+00
  0.24717831E+00  0.13877588E-01  0.24733842E+00
  0.12125128E-01  0.99217505E+00  0.24648654E+00
  0.49434673E+00  0.30164514E-02  0.24164630E+00
  0.25600395E+00  0.76167257E+00  0.24894827E+00
  0.74280875E+00  0.12248725E-01  0.24734771E+00
  0.25063157E+00  0.26311294E+00  0.24940181E+00
  0.76249064E+00  0.25302657E+00  0.24872491E+00
  0.25962149E+00  0.51596755E+00  0.24741041E+00
  0.50784243E+00  0.50616934E+00  0.24647661E+00
  0.26162906E-01  0.23688425E+00  0.64525602E-01
  0.51836348E+00  0.25456537E+00  0.56929934E-01
  0.24218318E-01  0.73983603E+00  0.59951572E-01
  0.51469579E+00  0.75090652E+00  0.60637731E-01
  0.75986028E+00  0.73937369E+00  0.59414669E-01
  0.24865962E-01  0.48106814E+00  0.63525474E-01
  0.77578961E+00  0.48494848E+00  0.62622794E-01
  0.27486743E+00  0.99069620E+00  0.62449762E-01
  0.33275369E-01  0.98753711E+00  0.62489874E-01
  0.51603110E+00  0.99852147E+00  0.58521926E-01
  0.26905042E+00  0.75162866E+00  0.56462650E-01
  0.77322625E+00  0.99437677E+00  0.58840169E-01
  0.28366259E+00  0.24133296E+00  0.62861165E-01
  0.76767659E+00  0.24606761E+00  0.62833194E-01
  0.27044765E+00  0.49521113E+00  0.60883060E-01
  0.51542362E+00  0.50068452E+00  0.62540911E-01
  0.40321253E+00  0.95988136E+00  0.28292501E+00
  0.84615966E+00  0.78629332E-01  0.28479124E+00
  0.34764417E+00  0.59920776E+00  0.28526281E+00
  0.30552388E+00  0.44803833E+00  0.61036157E+00
  0.55449818E+00  0.28541790E-01  0.52394946E+00
  0.42606520E+00  0.86685525E+00  0.46081160E+00
  0.11626263E+00  0.49845587E-01  0.43914137E+00
  0.99884220E+00  0.25273962E+00  0.31386867E+00
  0.22495417E+00  0.17404925E+00  0.54561426E+00
  0.12615937E-01  0.71305561E+00  0.31116301E+00
  0.30185469E+00  0.70966228E+00  0.35834054E+00
  0.46910469E+00  0.87785595E+00  0.37352844E+00
  0.72168415E+00  0.34441892E+00  0.49708243E+00
  0.25300783E+00  0.54795581E+00  0.49374105E+00
  0.79937185E+00  0.72252570E+00  0.55516483E+00
  0.51626689E+00  0.72214719E+00  0.55440311E+00
  0.70087166E+00  0.86943384E+00  0.33331989E+00
  0.79427573E+00  0.30261274E-01  0.38389022E+00
  0.42043829E+00  0.47507452E+00  0.42563200E+00
  0.18084783E-02  0.49172549E+00  0.35444323E+00
  0.69227064E+00  0.61590385E+00  0.29372189E+00
  0.26026771E-01  0.30406195E+00  0.48634183E+00
  0.83617527E+00  0.70831907E+00  0.41656226E+00
  0.42257173E-02  0.73733401E+00  0.60739426E+00
  0.67876545E-01  0.86135503E+00  0.50217323E+00
  0.75228524E+00  0.78234397E-01  0.46475093E+00
  0.66047279E-01  0.10235475E-01  0.36309987E+00
  0.67946438E+00  0.42498642E+00  0.34292816E+00
  0.47976729E+00  0.45610603E+00  0.54703232E+00
  0.96986495E+00  0.60983322E+00  0.48636091E+00
  0.17311071E+00  0.89964574E+00  0.58092887E+00
  0.68630517E+00  0.49269749E+00  0.42011393E+00
  0.28068435E+00  0.26908115E+00  0.39518088E+00
  0.20787228E+00  0.54762902E+00  0.61342511E+00
  0.27906454E+00  0.37493939E+00  0.59790154E+00
  0.45502869E+00  0.62100111E-01  0.53769134E+00
  0.63416389E+00  0.94445206E+00  0.54033283E+00
  0.30740917E+00  0.93374962E+00  0.45578274E+00
  0.46109406E+00  0.94163989E+00  0.47131794E+00
  0.94853345E-01  0.48577760E-01  0.40735387E+00
  0.68782394E-01  0.99804214E+00  0.45342309E+00
  0.45584173E-01  0.15291383E+00  0.32848374E+00
  0.18180430E-01  0.32956970E+00  0.32702768E+00
  0.13104861E+00  0.23607966E+00  0.52482472E+00
  0.19001931E+00  0.12215282E+00  0.56510342E+00
  0.14554082E-01  0.61064721E+00  0.32448810E+00
  0.90525855E+00  0.80677140E+00  0.31865070E+00
  0.33282190E+00  0.66129744E+00  0.33026604E+00
  0.37092639E+00  0.74677497E+00  0.36392411E+00
  0.38105240E+00  0.98122303E+00  0.36590988E+00
  0.49908697E+00  0.87524547E+00  0.40341179E+00
  0.67334194E+00  0.42343776E+00  0.47565069E+00
  0.63561355E+00  0.37515011E+00  0.51630770E+00
  0.21434537E+00  0.66793460E+00  0.49116325E+00
  0.31002875E+00  0.51706870E+00  0.46794934E+00
  0.71340656E+00  0.69311618E+00  0.56209337E+00
  0.86172666E+00  0.65037065E+00  0.53276048E+00
  0.48211548E+00  0.76840593E+00  0.52719633E+00
  0.52424446E+00  0.61560786E+00  0.55146570E+00
  0.62014767E+00  0.86099337E+00  0.34817962E+00
  0.63902572E+00  0.93836851E+00  0.30890717E+00
  0.74907659E+00  0.61722388E-01  0.41198038E+00
  0.72812505E+00  0.11652934E-01  0.36639263E+00
  0.51381613E+00  0.48541445E+00  0.42726078E+00
  0.36080752E+00  0.54647784E+00  0.40384284E+00
  0.11702346E+00  0.42600306E+00  0.36384209E+00
  0.93882025E+00  0.56602496E+00  0.37631226E+00
  0.73957006E+00  0.66790354E+00  0.30560938E+00
  0.66791735E+00  0.50093162E+00  0.32272313E+00
  0.91613231E+00  0.31955835E+00  0.49046480E+00
  0.72170201E-01  0.20151352E+00  0.47253899E+00
  0.84405556E+00  0.80224997E+00  0.40872103E+00
  0.90004172E+00  0.66645221E+00  0.44215879E+00
  0.92833004E+00  0.71732022E+00  0.59079166E+00
  0.99012685E+00  0.71522519E+00  0.63488504E+00
  0.78498704E-01  0.90463137E+00  0.52749091E+00
  0.96124045E+00  0.88601820E+00  0.50063973E+00
  0.66507229E+00  0.69181638E-01  0.47728244E+00
  0.72475339E+00  0.19184760E+00  0.47197193E+00
  0.13353328E+00  0.89566921E+00  0.35685435E+00
  0.95670939E+00  0.23805907E-01  0.36648986E+00
  0.58436652E+00  0.31713397E+00  0.33685679E+00
  0.79173118E+00  0.33661916E+00  0.33720562E+00
  0.39462610E+00  0.49736610E+00  0.52701422E+00
  0.44535021E+00  0.45880367E+00  0.57515314E+00
  0.99025789E+00  0.49950534E+00  0.48783935E+00
  0.77486721E-01  0.59419563E+00  0.48702128E+00
  0.14188713E+00  0.82230774E+00  0.58962972E+00
  0.28306211E+00  0.84401777E+00  0.57491836E+00
  0.66531004E+00  0.60203272E+00  0.42083696E+00
  0.68378110E+00  0.47849104E+00  0.38919641E+00
  0.31082924E+00  0.26081519E+00  0.42308208E+00
  0.35769531E+00  0.28427877E+00  0.38087779E+00
  0.42865350E+00  0.27886989E+00  0.30464657E+00
  0.29946535E+00  0.28212473E+00  0.30724719E+00
  0.49727934E+00  0.29113625E+00  0.33884813E+00
  0.00000000E+00  0.00000000E+00  0.00000000E+00
  0.00000000E+00  0.00000000E+00  0.00000000E+00
  0.00000000E+00  0.00000000E+00  0.00000000E+00
  0.00000000E+00  0.00000000E+00  0.00000000E+00
  0.00000000E+00  0.00000000E+00  0.00000000E+00
  0.00000000E+00  0.00000000E+00  0.00000000E+00
  0.00000000E+00  0.00000000E+00  0.00000000E+00
  0.00000000E+00  0.00000000E+00  0.00000000E+00
  0.00000000E+00  0.00000000E+00  0.00000000E+00
  0.00000000E+00  0.00000000E+00  0.00000000E+00
  0.00000000E+00  0.00000000E+00  0.00000000E+00
  0.00000000E+00  0.00000000E+00  0.00000000E+00
  0.00000000E+00  0.00000000E+00  0.00000000E+00
  0.00000000E+00  0.00000000E+00  0.00000000E+00
  0.00000000E+00  0.00000000E+00  0.00000000E+00
  0.00000000E+00  0.00000000E+00  0.00000000E+00
  0.00000000E+00  0.00000000E+00  0.00000000E+00
  0.00000000E+00  0.00000000E+00  0.00000000E+00
  0.00000000E+00  0.00000000E+00  0.00000000E+00
  0.00000000E+00  0.00000000E+00  0.00000000E+00
  0.00000000E+00  0.00000000E+00  0.00000000E+00
  0.00000000E+00  0.00000000E+00  0.00000000E+00
  0.00000000E+00  0.00000000E+00  0.00000000E+00
  0.00000000E+00  0.00000000E+00  0.00000000E+00
  0.00000000E+00  0.00000000E+00  0.00000000E+00
  0.00000000E+00  0.00000000E+00  0.00000000E+00
  0.00000000E+00  0.00000000E+00  0.00000000E+00
  0.00000000E+00  0.00000000E+00  0.00000000E+00
  0.00000000E+00  0.00000000E+00  0.00000000E+00
  0.00000000E+00  0.00000000E+00  0.00000000E+00
  0.00000000E+00  0.00000000E+00  0.00000000E+00
  0.00000000E+00  0.00000000E+00  0.00000000E+00
  0.00000000E+00  0.00000000E+00  0.00000000E+00
  0.00000000E+00  0.00000000E+00  0.00000000E+00
  0.00000000E+00  0.00000000E+00  0.00000000E+00
  0.00000000E+00  0.00000000E+00  0.00000000E+00
  0.00000000E+00  0.00000000E+00  0.00000000E+00
  0.00000000E+00  0.00000000E+00  0.00000000E+00
  0.00000000E+00  0.00000000E+00  0.00000000E+00
  0.00000000E+00  0.00000000E+00  0.00000000E+00
  0.00000000E+00  0.00000000E+00  0.00000000E+00
  0.00000000E+00  0.00000000E+00  0.00000000E+00
  0.00000000E+00  0.00000000E+00  0.00000000E+00
  0.00000000E+00  0.00000000E+00  0.00000000E+00
  0.00000000E+00  0.00000000E+00  0.00000000E+00
  0.00000000E+00  0.00000000E+00  0.00000000E+00
  0.00000000E+00  0.00000000E+00  0.00000000E+00
  0.00000000E+00  0.00000000E+00  0.00000000E+00
  0.00000000E+00  0.00000000E+00  0.00000000E+00
  0.00000000E+00  0.00000000E+00  0.00000000E+00
  0.00000000E+00  0.00000000E+00  0.00000000E+00
  0.00000000E+00  0.00000000E+00  0.00000000E+00
  0.00000000E+00  0.00000000E+00  0.00000000E+00
  0.00000000E+00  0.00000000E+00  0.00000000E+00
  0.00000000E+00  0.00000000E+00  0.00000000E+00
  0.00000000E+00  0.00000000E+00  0.00000000E+00
  0.00000000E+00  0.00000000E+00  0.00000000E+00
  0.00000000E+00  0.00000000E+00  0.00000000E+00
  0.00000000E+00  0.00000000E+00  0.00000000E+00
  0.00000000E+00  0.00000000E+00  0.00000000E+00
  0.00000000E+00  0.00000000E+00  0.00000000E+00
  0.00000000E+00  0.00000000E+00  0.00000000E+00
  0.00000000E+00  0.00000000E+00  0.00000000E+00
  0.00000000E+00  0.00000000E+00  0.00000000E+00
  0.00000000E+00  0.00000000E+00  0.00000000E+00
  0.00000000E+00  0.00000000E+00  0.00000000E+00
  0.00000000E+00  0.00000000E+00  0.00000000E+00
  0.00000000E+00  0.00000000E+00  0.00000000E+00
  0.00000000E+00  0.00000000E+00  0.00000000E+00
  0.00000000E+00  0.00000000E+00  0.00000000E+00
  0.00000000E+00  0.00000000E+00  0.00000000E+00
  0.00000000E+00  0.00000000E+00  0.00000000E+00
  0.00000000E+00  0.00000000E+00  0.00000000E+00
  0.00000000E+00  0.00000000E+00  0.00000000E+00
  0.00000000E+00  0.00000000E+00  0.00000000E+00
  0.00000000E+00  0.00000000E+00  0.00000000E+00
  0.00000000E+00  0.00000000E+00  0.00000000E+00
  0.00000000E+00  0.00000000E+00  0.00000000E+00
  0.00000000E+00  0.00000000E+00  0.00000000E+00
  0.00000000E+00  0.00000000E+00  0.00000000E+00
  0.00000000E+00  0.00000000E+00  0.00000000E+00
  0.00000000E+00  0.00000000E+00  0.00000000E+00
  0.00000000E+00  0.00000000E+00  0.00000000E+00