 Ni_CH2_CH3(ER)
   1.000
    9.8292000000000002    0.0000000000000000    0.0000000000000000
    4.9146000000000001    8.5123370000000005    0.0000000000000000
    0.0000000000000000    0.0000000000000000   30.7148000000000003
   Ni   O    H    C    H 
   64   30   60    1    2
Selective Dynamics
Direct
    0.0843092300000000    0.0814041000000000    0.1215575800000000    T  T  T
    0.3321608200000000    0.0891819600000000    0.1180898800000000    T  T  T
    0.3387353700000000    0.8328565800000000    0.1182786500000000    T  T  T
    0.5850614600000000    0.3412564000000000    0.1197530400000000    T  T  T
    0.3435268500000000    0.5875655100000000    0.1189823800000000    T  T  T
    0.3303944800000000    0.3396843100000000    0.1221928200000000    T  T  T
    0.8409989100000000    0.0862665700000000    0.1216095600000000    T  T  T
    0.5849600400000000    0.0889302100000000    0.1183198900000000    T  T  T
    0.8308986400000000    0.3446966700000000    0.1189631700000000    T  T  T
    0.5814520800000000    0.5825933500000000    0.1204718900000000    T  T  T
    0.0788873400000000    0.8265530000000000    0.1196268600000000    T  T  T
    0.5834370200000000    0.8480043500000000    0.1211834200000000    T  T  T
    0.0800716600000000    0.3372747600000000    0.1223497200000000    T  T  T
    0.8357580100000001    0.5833365300000000    0.1195116400000000    T  T  T
    0.0902314600000000    0.5785983600000000    0.1201545200000000    T  T  T
    0.8346749500000000    0.8397723600000000    0.1189354300000000    T  T  T
    0.1633687000000000    0.1680126500000000    0.1874654200000000    T  T  T
    0.1756044000000000    0.9196081400000000    0.1882360700000000    T  T  T
    0.4144646800000000    0.1632994000000000    0.1839400400000000    T  T  T
    0.4113985600000000    0.9191628200000000    0.1861577600000000    T  T  T
    0.4241787100000000    0.4130999400000000    0.1848315700000000    T  T  T
    0.4092331500000000    0.6758989800000000    0.1863010400000000    T  T  T
    0.9043622800000000    0.1795183100000000    0.1858491100000000    T  T  T
    0.6561176300000000    0.1706158800000000    0.1861342500000000    T  T  T
    0.6640166100000000    0.4155707600000000    0.1849245600000000    T  T  T
    0.1641084100000000    0.6755544400000000    0.1866971200000000    T  T  T
    0.9092186700000000    0.4191253200000000    0.1859852000000000    T  T  T
    0.6585659800000000    0.6598445300000000    0.1837768300000000    T  T  T
    0.9082950000000000    0.9303576900000000    0.1847014800000000    T  T  T
    0.6682416100000000    0.9193195900000000    0.1870238500000000    T  T  T
    0.1635331800000000    0.4225241100000000    0.1888665600000000    T  T  T
    0.9166361600000000    0.6739410100000000    0.1849517500000000    T  T  T
    0.2325512800000000    0.0009888000000000    0.2583577100000000    T  T  T
    0.4712525100000000    0.2623498300000000    0.2495142900000000    T  T  T
    0.4724944600000000    0.5057808600000000    0.2563701800000000    T  T  T
    0.2400724900000000    0.2445018700000000    0.2549672000000000    T  T  T
   -0.0131698300000000    0.2552781400000000    0.2507011700000000    T  T  T
    0.7296093100000000    0.2597958300000000    0.2528073800000000    T  T  T
    0.4693036300000000    0.7443649900000000    0.2524450400000000    T  T  T
    0.2232047200000000    0.7593269400000000    0.2538698400000000    T  T  T
    0.4830529100000000    0.9946564900000000    0.2519336100000000    T  T  T
    0.9781484100000000    0.0086925600000000    0.2487555500000000    T  T  T
    0.2336863600000000    0.5132874600000000    0.2575414900000000    T  T  T
    0.7249393300000000    0.5063837500000000    0.2524476500000000    T  T  T
    0.7261873800000000    0.0259483100000000    0.2548375300000000    T  T  T
    0.9797591700000000    0.7541602700000000    0.2527329900000000    T  T  T
    0.7289894000000000    0.7520625000000000    0.2554237400000000    T  T  T
   -0.0089700900000000    0.4996285300000000    0.2525512100000000    T  T  T
    0.2488099900000000    0.0018900000000000    0.0530725900000000    F  F  F
    0.4986599900000000    0.2520299800000000    0.0530725900000000    F  F  F
    0.4987100700000000    0.5019500099999999    0.0530725900000000    F  F  F
    0.2486699900000000    0.2519600100000000    0.0530725900000000    F  F  F
    0.9988300200000000    0.2520000100000000    0.0530725900000000    F  F  F
    0.7487000500000000    0.2521200000000000    0.0530725900000000    F  F  F
    0.4986899700000000    0.7520999700000000    0.0530725900000000    F  F  F
    0.2487699600000000    0.7521200300000001    0.0530725900000000    F  F  F
    0.4985999800000000    0.0021100000000000    0.0530725900000000    F  F  F
    0.9987700300000000    0.0022100000000000    0.0530725900000000    F  F  F
    0.2487500100000000    0.5021200300000001    0.0530725900000000    F  F  F
    0.7486699900000000    0.5022699800000000    0.0530725900000000    F  F  F
    0.7485900000000000    0.0024500000000000    0.0530725900000000    F  F  F
    0.9987000500000000    0.7524499700000000    0.0530725900000000    F  F  F
    0.7486699300000000    0.7524300300000000    0.0530725900000000    F  F  F
    0.9986899600000000    0.5022000200000000    0.0530725900000000    F  F  F
    0.8047292400000000    0.0293080900000000    0.5224840400000000    T  T  T
    0.3294125600000000    0.2436044400000000    0.5925139900000000    T  T  T
    0.7208458200000000    0.0297093800000000    0.3268517700000000    T  T  T
    0.9906068300000000    0.5801553600000000    0.4323181700000000    T  T  T
    0.4544149000000000    0.2906805100000000    0.3694260300000000    T  T  T
    0.7855206300000001    0.7810229900000000    0.5524038200000000    T  T  T
    0.5297076600000000    0.7523554500000000    0.3594195300000000    T  T  T
    0.7317707700000000    0.8229150300000000    0.4184141600000000    T  T  T
    0.7718950100000000    0.7305806900000000    0.3167078000000000    T  T  T
    0.1731317400000000    0.9368363500000000    0.4236220000000000    T  T  T
    0.9222342100000001    0.2623004800000000    0.4000917600000000    T  T  T
    0.0845423100000000    0.5231307600000000    0.5624359500000000    T  T  T
    0.0935916400000000    0.3369015100000000    0.4926151500000000    T  T  T
    0.4547765700000000    0.5611451000000000    0.4062148600000000    T  T  T
    0.3379349100000000    0.8204418900000000    0.5564187600000000    T  T  T
    0.2037794200000000    0.6668361700000000    0.4573688500000000    T  T  T
    0.4335242200000000    0.9384153400000000    0.4543842700000000    T  T  T
    0.6077242400000000    0.7105628000000000    0.5108132600000000    T  T  T
    0.6890857000000000    0.9109252300000000    0.6325860900000000    T  T  T
    0.3264687200000000    0.5723907900000000    0.5342888200000000    T  T  T
    0.3690317900000000    0.9746434400000000    0.6238784000000001    T  T  T
    0.0734422300000000    0.0932214400000000    0.5280856100000000    T  T  T
    0.0961463500000000    0.8259168700000000    0.3506606900000000    T  T  T
    0.5250608300000000    0.2557981800000000    0.5394827700000000    T  T  T
    0.3951503700000000    0.2304817600000000    0.4686512900000000    T  T  T
    0.7758780600000000    0.0597306900000000    0.4249312600000000    T  T  T
    0.2932994700000000    0.1260046600000000    0.3724114900000000    T  T  T
    0.7341105800000000    0.4423886600000000    0.4708090800000000    T  T  T
    0.2348097900000000    0.5179146500000000    0.3289137100000000    T  T  T
   -0.0070317100000000    0.4799622700000000    0.3554149800000000    T  T  T
    0.8960407600000000    0.0492306900000000    0.5297339500000000    T  T  T
    0.8142444500000000    0.9320943000000000    0.5351781600000000    T  T  T
    0.3538206400000000    0.1330087600000000    0.6003634799999999    T  T  T
    0.2375329900000000    0.3133086400000000    0.5746468600000000    T  T  T
    0.6397369899999999    0.1034227900000000    0.3468074500000000    T  T  T
    0.8326114400000000    0.9867437000000000    0.3374068300000000    T  T  T
    0.9989015700000000    0.4999856500000000    0.4526833900000000    T  T  T
    0.8850825100000000    0.6831646900000000    0.4324592100000000    T  T  T
    0.4052186400000000    0.2272184400000000    0.3737509300000000    T  T  T
    0.3775449400000000    0.3801810800000000    0.3497117600000000    T  T  T
    0.7561430400000000    0.8073000100000000    0.5846427800000000    T  T  T
    0.6917001800000000    0.7741398700000000    0.5407102400000000    T  T  T
    0.5258158000000001    0.4441623500000000    0.3186908800000000    T  T  T
    0.5289126200000001    0.7478153600000000    0.3277007300000000    T  T  T
    0.7489509400000000    0.9160087500000000    0.4142470100000000    T  T  T
    0.6356225599999999    0.8625657700000000    0.4361317800000000    T  T  T
    0.7788012500000000    0.8180307200000000    0.3309047900000000    T  T  T
    0.6104354600000000    0.7763018300000000    0.3589605500000000    T  T  T
    0.2814664400000000    0.9272575300000000    0.4312956800000000    T  T  T
    0.1744497500000000    0.8519583600000000    0.4421724100000000    T  T  T
    0.9375348900000000    0.3357878200000000    0.3823122600000000    T  T  T
    1.0351205400000001    0.1738096400000000    0.4033931600000000    T  T  T
    0.1442086700000000    0.5815679300000000    0.5554495900000000    T  T  T
    0.9656297200000000    0.6083336100000000    0.5645256900000000    T  T  T
    1.0709433799999999    0.3984006600000000    0.5198368200000000    T  T  T
    0.2090406100000000    0.3056369900000000    0.4846432400000000    T  T  T
    0.5151739600000000    0.6059316500000000    0.3915587700000000    T  T  T
    0.5086413300000000    0.4421349100000000    0.4032623900000000    T  T  T
    0.2346152600000000    0.9171170800000000    0.5515170900000000    T  T  T
    0.3265214700000000    0.7224528500000000    0.5531852900000001    T  T  T
    0.2866277700000000    0.6364260900000001    0.4336866100000000    T  T  T
    0.1130429400000000    0.6431883900000001    0.4501606800000000    T  T  T
    0.3870285700000000    0.0500804100000000    0.4644663900000000    T  T  T
    0.4721130600000000    0.8803976300000000    0.4814345500000000    T  T  T
    0.6686605100000000    0.6057327700000000    0.4951834600000000    T  T  T
    0.5101742300000000    0.7271187200000000    0.5247451600000000    T  T  T
    0.5790593300000000   -0.0714933000000000    0.6291009400000001    T  T  T
    0.7286056200000000    0.8464491800000000    0.6561696600000000    T  T  T
    0.2862596400000000    0.6059365100000000    0.5048936900000000    T  T  T
    0.4208158200000000    0.4679206600000000    0.5342909500000000    T  T  T
    0.3558076000000000    0.9183979600000000    0.6473358600000000    T  T  T
    0.3692990600000000    0.9002463600000000    0.5989263700000000    T  T  T
    0.0643376300000000    0.1992117100000000    0.5206818700000000    T  T  T
    0.0677917900000000    0.0659011800000000    0.4970901300000000    T  T  T
    0.0986692200000000    0.8746414800000000    0.3219819200000000    T  T  T
    0.1715661900000000    0.8371736100000000    0.3709441900000000    T  T  T
    0.6331810400000000    0.1742747700000000    0.5380177600000000    T  T  T
    0.4649504600000000    0.2480218000000000    0.5649446700000000    T  T  T
    0.4415213700000000    0.2190646900000000    0.4394718100000000    T  T  T
    0.4395769100000000    0.2637611700000000    0.4926031400000000    T  T  T
    0.8405379400000000    0.1001867300000000    0.4095146600000000    T  T  T
    0.8246860900000000    0.0324891900000000    0.4544647300000000    T  T  T
    0.2603351600000000    0.1507211400000000    0.3423136600000000    T  T  T
    0.3504523500000000    0.0119380200000000    0.3719693700000000    T  T  T
    0.8205699100000000    0.3670338100000000    0.4502868400000000    T  T  T
    0.6330578700000000    0.4739918000000000    0.4542108600000000    T  T  T
    0.1272735000000000    0.5129783900000000    0.3401475700000000    T  T  T
    0.1993293700000000    0.6337441900000000    0.3386957800000000    T  T  T
   -0.1025314100000000    0.5786723400000000    0.3392265100000000    T  T  T
    1.0061497100000001    0.5163467000000000    0.3844860400000000    T  T  T
    0.6455495600000000    0.4014463100000000    0.3042807100000000    T  T  T
    0.6919813100000000    0.4748130900000000    0.3187902500000000    T  T  T
    0.7283245600000000    0.2776261800000000    0.3115945300000000    T  T  T

   0.001134830286000   -0.001966775463850    0.000397756660000
   0.004447663854000    0.000549811846830    0.003796963576000
   0.001569330072002    0.001205006425721   -0.001852716736000
  -0.001561663296000    0.002076839981260   -0.002375482632000
   0.003934235592000   -0.000553812645220   -0.001464481664000
   0.001306300680000   -0.000941634718940   -0.000090301512000
  -0.000912641220001   -0.001667396571560    0.002669116120000
  -0.003811518030000   -0.001317624644230   -0.000160638404000
   0.001129768248001   -0.000497971714500   -0.000874143208000
  -0.000889493453998    0.000230258715850   -0.001217841820000
  -0.001026365064000    0.001596063187500    0.000919293964000
  -0.000685095240001   -0.000382374178040   -0.001495810760000
  -0.000455141106000   -0.001631559632790    0.002952613724000
  -0.000085464894001    0.000417870623331   -0.004291164708000
  -0.001819139190000    0.000697586017150   -0.000297319264000
   0.000747608952000   -0.000208041516280   -0.003413335724000
  -0.000895931580000   -0.000845275064100   -0.000021807507999
  -0.000965178294001    0.000435916777770   -0.001430081088000
   0.000886593840001   -0.000151179105120   -0.001567069096001
  -0.000268140576001    0.000568453864860    0.000773398663999
  -0.001463813610000    0.001113669049710   -0.000393149440000
  -0.000273743220000    0.000941464472199   -0.000480993768000
  -0.000913230971998    0.000852084933700   -0.001296164560001
   0.000596681586001   -0.000768068167510   -0.002126692751999
  -0.001887501275998   -0.001654457819320   -0.001775622587999
  -0.000292418700001    0.001156826598299   -0.001318279216000
   0.002062411890000   -0.003509040681510   -0.001196341459999
  -0.001295341121999   -0.005874619133809   -0.004663120936001
  -0.000731833085998   -0.000401186442811   -0.000538737592001
  -0.001459783638001    0.001597169791309    0.002639015616001
  -0.000396755658000   -0.000245240428970    0.002291938376000
   0.000744463607999   -0.000035581568659   -0.000199031904000
   0.000663520146000   -0.000139517203430   -0.000949087320000
  -0.004310153346000   -0.003623786984270   -0.003351291828000
   0.001541316852000    0.000461368665400    0.004258607020001
  -0.000451012842000   -0.002147747748470    0.004089675620000
  -0.001226340138000    0.003599782193930    0.003741369788000
  -0.000997762092000    0.000654768962040   -0.001233199220001
  -0.000425948382002    0.003364671445990   -0.000417721280000
  -0.001110453870000    0.004364530550010   -0.001350529756000
  -0.002649854028000    0.000486735429661   -0.000792134691999
   0.001902539952001    0.002962633769480   -0.002277195272000
   0.002759744483999   -0.004744436150321   -0.000179681579999
   0.000814447512001   -0.000688477816561   -0.003260990316001
  -0.000040643742001   -0.000137814736030    0.000692004444001
   0.003393039840001   -0.001872033153039   -0.000274590312000
   0.002410267278002   -0.001877055431870   -0.000637332100001
  -0.001675387140000    0.000251794928460    0.004420474015999
   0.000000000000000    0.000000000000000    0.000000000000000
   0.000000000000000    0.000000000000000    0.000000000000000
   0.000000000000000    0.000000000000000    0.000000000000000
   0.000000000000000    0.000000000000000    0.000000000000000
   0.000000000000000    0.000000000000000    0.000000000000000
   0.000000000000000    0.000000000000000    0.000000000000000
   0.000000000000000    0.000000000000000    0.000000000000000
   0.000000000000000    0.000000000000000    0.000000000000000
   0.000000000000000    0.000000000000000    0.000000000000000
   0.000000000000000    0.000000000000000    0.000000000000000
   0.000000000000000    0.000000000000000    0.000000000000000
   0.000000000000000    0.000000000000000    0.000000000000000
   0.000000000000000    0.000000000000000    0.000000000000000
   0.000000000000000    0.000000000000000    0.000000000000000
   0.000000000000000    0.000000000000000    0.000000000000000
   0.000000000000000    0.000000000000000    0.000000000000000
  -0.001856293566000    0.000935250466190    0.004123154751998
   0.001601471556000    0.000018386647920    0.002715802616002
   0.001478213388000    0.004869227010740    0.002972885491999
   0.002080251888001    0.002331018364080    0.000022114656000
  -0.001600586928000    0.000202423373860   -0.003240411400000
   0.009664216877997    0.002577110026750    0.001974347344003
  -0.001687133034000    0.001173936395670    0.007530654664000
   0.003500276412000    0.007175900091001   -0.001037238796000
   0.010044164603999    0.000928866213440   -0.000885814831999
   0.003068872824000    0.003186167739101    0.001770093924000
  -0.003169032372002    0.000094827434180    0.005043370159999
   0.001409212404000   -0.004513411324140    0.003793277800000
   0.001307185308000    0.000046477360020   -0.000160945552000
  -0.001100084064000    0.005264710187761    0.001680713856000
  -0.001811177538000    0.001580826104270   -0.002421247683998
  -0.000676691274000    0.003084445311950    0.001759650892000
  -0.003333081720001    0.001382914269020   -0.004358737267999
   0.000140803289998   -0.004039870016830    0.005516070932000
   0.005113002401998    0.001663906513389   -0.002776310771999
  -0.002486197848000    0.003056439723220    0.002049598604000
   0.000678902843999   -0.004122354562361    0.006251997540001
  -0.000264208896000   -0.001304600768620   -0.001005909699998
  -0.003322761060000    0.006970412275820   -0.004813930604000
  -0.003263589276001    0.002263089914820    0.004103497279999
   0.003031571010000    0.002108420751530   -0.003674718672000
   0.001163334965998    0.006221411743190   -0.002376711223999
   0.003671648514000    0.000849446109230   -0.000308376591999
   0.001816976766001   -0.001467101281950   -0.003392142512000
  -0.008077931436001   -0.004846584194321    0.003492579908000
   0.002822602218000    0.006577738170011   -0.006539795216000
  -0.023825784215999   -0.030187641196580    0.002096592248002
   0.005998269299999    0.007606283849720    0.009353270896000
   0.019831787088001   -0.017252293891380   -0.010997126991999
  -0.010548894024000   -0.024267821553300    0.015863272756000
  -0.008079307524000   -0.008027985024700   -0.002067413188001
  -0.031615277777998   -0.009162253929949   -0.004839116739999
   0.010249300008001   -0.014985458548280   -0.000738076644000
  -0.013425360258003    0.002625289854169    0.000806263499999
  -0.024516924414000    0.023570746276370   -0.007475675172000
   0.029669587638000    0.026597392820090    0.028897712432000
   0.014692540722001    0.007066005820330    0.004829288004000
   0.034241885748001   -0.014590656358219    0.001557547508000
  -0.000066494538000   -0.029218000888910    0.027127925656000
  -0.001356822768001   -0.013426509150101   -0.012687362436001
   0.025231458107999   -0.021984131782941    0.003816621048001
  -0.017562667122002   -0.007011697110270    0.006512459044000
   0.027731318543999   -0.015270281344300    0.000637639248000
   0.020296167642002    0.003500017604290    0.006713948132001
  -0.009864044514000    0.008071312820030    0.010029917939999
  -0.022811066754000   -0.003800332853650    0.006520444891999
  -0.022694345004000    0.007491026806740   -0.019167570940001
  -0.006394730081999   -0.007403094365530    0.002807025572000
   0.010121078094000    0.006835661981110   -0.000654839536004
   0.003061992384000    0.010312355782021   -0.012562660347999
   0.025032711684000   -0.006306620236560    0.021895966624001
  -0.010674658638000   -0.007449401478810   -0.000791213248000
  -0.017034544206000   -0.017892506757150   -0.006213604039999
   0.019632205182000    0.022084321989430   -0.007104333240003
   0.007669724760000   -0.021540639025240   -0.005212301560000
   0.005021590841999   -0.014708381978931    0.001296778855998
  -0.018687324186001   -0.001741198533351    0.009125059932000
  -0.007998560646000    0.013558535496970    0.021477631048000
  -0.017028056934000    0.024090850067070    0.010585241524002
   0.007808955378000   -0.022217625186850    0.020176244971999
   0.006570525324001    0.015609412850379    0.010201306523999
   0.003643684440002    0.018218273894140   -0.008719931719998
   0.003292585416001    0.013943718746220   -0.006072315960001
   0.020017264091999   -0.022893419621281    0.009716012683999
  -0.006157797216001    0.027479015563179    0.014704403352001
   0.012558670548001    0.007501922598100    0.019359845587999
  -0.000599433762000   -0.005250494584970    0.037489563436001
   0.016753674815998   -0.000858894803301   -0.010779359060002
   0.010830697188000    0.007514520856860    0.016597356475996
   0.022652030298000   -0.029799563752750    0.026653996292000
   0.009405020874000   -0.009826556709430    0.007318415396002
  -0.005703835614001    0.011085871845211   -0.003250854432000
   0.017959914240000    0.008224109269180   -0.007166684284002
   0.008563002456000   -0.002579748851220    0.019106755635995
   0.006842548434000   -0.006341265448150    0.005598693743998
   0.009989710836000    0.005649297573420    0.023476857380000
  -0.004446287765999    0.007886765353870    0.007956361792001
  -0.006852377633999    0.011723786379990   -0.011003269952001
  -0.015597711750000    0.012897297158810    0.002383161331998
  -0.024449594394001   -0.005383797782390    0.000343084315999
   0.007977673595999    0.004274384901180    0.003759798667998
   0.015964242617999   -0.012978504853790    0.007420081384000
  -0.015033663108000    0.009583018747860    0.019025668564000
   0.018958413521999   -0.007002674033051    0.009434357967999
   0.029470202316000   -0.023076434866780   -0.002258459243999
   0.028003194215998    0.011480078171679   -0.008520285520000
  -0.002521632113998   -0.003014303655069    0.003671647192000
  -0.034204927956001   -0.005873001789780    0.002752046080001
   0.013668534665999   -0.045191571516150   -0.024925060199998