Au                                      
   1.00000000000000     
    11.5838999999999999    0.0000000000000000    0.0000000000000007
    -5.7919499999999990   10.0319516748985595    0.0000000000000007
     0.0000000000000000    0.0000000000000000   17.0936999999999983
   Au   H 
    64     1
Selective dynamics
Direct
  0.0000000000000000  0.0000000000000000  0.0000000000000000   F   F   F
  0.3333332999999996  0.1666700000000034  0.1383300000000034   F   F   F
  0.1672982763113505  0.3344517340413203  0.2773745182263446   T   T   T
 -0.0001948833805428 -0.0008562385759390  0.4242422339314375   T   T   T
  0.2500000000000000  0.0000000000000000  0.0000000000000000   F   F   F
  0.0833299999999966  0.1666700000000034  0.1383300000000034   F   F   F
  0.4160618469636927  0.3320638693083113  0.2762968621975128   T   T   T
  0.2492515267168682  0.0003702718888888  0.4220602271739278   T   T   T
  0.2500000000000000  0.2500000000000000  0.0000000000000000   F   F   F
  0.0833299999999966  0.4166700000000034  0.1383300000000034   F   F   F
  0.4161907193559362  0.0835414330013811  0.2761610854005590   T   T   T
  0.2492172366860753  0.2473949607123908  0.4222315033234646   T   T   T
  0.0000000000000000  0.2500000000000000  0.0000000000000000   F   F   F
  0.3333332999999996  0.4166700000000034  0.1383300000000034   F   F   F
  0.1655256922247965  0.0822318761110753  0.2759106374097255   T   T   T
 -0.0015617980464526  0.2471456145412743  0.4221852613610283   T   T   T
  0.5000000000000000  0.0000000000000000  0.0000000000000000   F   F   F
  0.8333299999999966  0.1666700000000034  0.1383300000000034   F   F   F
  0.6665436235321106  0.3331137514546482  0.2767883217762926   T   T   T
  0.5014380656581181  0.0023541610073407  0.4196362919497272   T   T   T
  0.7500000000000000  0.0000000000000000  0.0000000000000000   F   F   F
  0.5833299999999966  0.1666700000000034  0.1383300000000034   F   F   F
  0.9160421240358438  0.3320195889499355  0.2762540654609881   T   T   T
  0.7514609240475437  0.0002880027358874  0.4221137869776406   T   T   T
  0.7500000000000000  0.2500000000000000  0.0000000000000000   F   F   F
  0.5833299999999966  0.4166700000000034  0.1383300000000034   F   F   F
  0.9169713954838714  0.0822905960038896  0.2759134058039364   T   T   T
  0.7497429103631624  0.2491924893544584  0.4234446494616222   T   T   T
  0.5000000000000000  0.2500000000000000  0.0000000000000000   F   F   F
  0.8333299999999966  0.4166700000000034  0.1383300000000034   F   F   F
  0.6675592602129143  0.0835892415979318  0.2761384978480720   T   T   T
  0.4999382760665381  0.2491509808284187  0.4234108318262891   T   T   T
  0.0000000000000000  0.5000000000000000  0.0000000000000000   F   F   F
  0.3333332999999996  0.6666667000000004  0.1383300000000034   F   F   F
  0.1675312314507077  0.8319339118873682  0.2774991628411571   T   T   T
 -0.0034096214642547  0.4975921509297703  0.4196420479759997   T   T   T
  0.2500000000000000  0.5000000000000000  0.0000000000000000   F   F   F
  0.0833299999999966  0.6666667000000004  0.1383300000000034   F   F   F
  0.4168667587916520  0.8335312230516430  0.2752691779906161   T   T   T
  0.2463202824390530  0.4923384490137040  0.4242818947674584   T   T   T
  0.2500000000000000  0.7500000000000000  0.0000000000000000   F   F   F
  0.0833299999999966  0.9166700000000034  0.1383300000000034   F   F   F
  0.4166824136522612  0.5825740567322955  0.2757124909903402   T   T   T
  0.2465723918270814  0.7526016222532699  0.4240089210120217   T   T   T
  0.0000000000000000  0.7500000000000000  0.0000000000000000   F   F   F
  0.3333332999999996  0.9166700000000034  0.1383300000000034   F   F   F
  0.1659825176522819  0.5824642737795194  0.2757178326346054   T   T   T
 -0.0017006943286225  0.7495476195093331  0.4221073284261479   T   T   T
  0.5000000000000000  0.5000000000000000  0.0000000000000000   F   F   F
  0.8333299999999966  0.6666667000000004  0.1383300000000034   F   F   F
  0.6647282852600479  0.8320882847791017  0.2775119119186633   T   T   T
  0.5014697976013579  0.4976156141052009  0.4196580616876475   T   T   T
  0.7500000000000000  0.5000000000000000  0.0000000000000000   F   F   F
  0.5833299999999966  0.6666667000000004  0.1383300000000034   F   F   F
  0.9171100722133356  0.8339008211800321  0.2758279952128032   T   T   T
  0.7496598907620886  0.4989111160845218  0.4233655032444438   T   T   T
  0.7500000000000000  0.7500000000000000  0.0000000000000000   F   F   F
  0.5833299999999966  0.9166700000000034  0.1383300000000034   F   F   F
  0.9161230014222395  0.5834110434189630  0.2761770081753265   T   T   T
  0.7513737759746896  0.7496553889273373  0.4221578464710942   T   T   T
  0.5000000000000000  0.7500000000000000  0.0000000000000000   F   F   F
  0.8333299999999966  0.9166700000000034  0.1383300000000034   F   F   F
  0.6673926251516498  0.5834697486854720  0.2761795748322232   T   T   T
  0.5063620122560902  0.7526977765879332  0.4241000549293258   T   T   T
  0.3332724779407072  0.6656580469783657  0.4670816077235846   T   T   T
 
  0.00000000E+00  0.00000000E+00  0.00000000E+00
  0.00000000E+00  0.00000000E+00  0.00000000E+00
  0.00000000E+00  0.00000000E+00  0.00000000E+00
  0.00000000E+00  0.00000000E+00  0.00000000E+00
  0.00000000E+00  0.00000000E+00  0.00000000E+00
  0.00000000E+00  0.00000000E+00  0.00000000E+00
  0.00000000E+00  0.00000000E+00  0.00000000E+00
  0.00000000E+00  0.00000000E+00  0.00000000E+00
  0.00000000E+00  0.00000000E+00  0.00000000E+00
  0.00000000E+00  0.00000000E+00  0.00000000E+00
  0.00000000E+00  0.00000000E+00  0.00000000E+00
  0.00000000E+00  0.00000000E+00  0.00000000E+00
  0.00000000E+00  0.00000000E+00  0.00000000E+00
  0.00000000E+00  0.00000000E+00  0.00000000E+00
  0.00000000E+00  0.00000000E+00  0.00000000E+00
  0.00000000E+00  0.00000000E+00  0.00000000E+00
  0.00000000E+00  0.00000000E+00  0.00000000E+00
  0.00000000E+00  0.00000000E+00  0.00000000E+00
  0.00000000E+00  0.00000000E+00  0.00000000E+00
  0.00000000E+00  0.00000000E+00  0.00000000E+00
  0.00000000E+00  0.00000000E+00  0.00000000E+00
  0.00000000E+00  0.00000000E+00  0.00000000E+00
  0.00000000E+00  0.00000000E+00  0.00000000E+00
  0.00000000E+00  0.00000000E+00  0.00000000E+00
  0.00000000E+00  0.00000000E+00  0.00000000E+00
  0.00000000E+00  0.00000000E+00  0.00000000E+00
  0.00000000E+00  0.00000000E+00  0.00000000E+00
  0.00000000E+00  0.00000000E+00  0.00000000E+00
  0.00000000E+00  0.00000000E+00  0.00000000E+00
  0.00000000E+00  0.00000000E+00  0.00000000E+00
  0.00000000E+00  0.00000000E+00  0.00000000E+00
  0.00000000E+00  0.00000000E+00  0.00000000E+00
  0.00000000E+00  0.00000000E+00  0.00000000E+00
  0.00000000E+00  0.00000000E+00  0.00000000E+00
  0.00000000E+00  0.00000000E+00  0.00000000E+00
  0.00000000E+00  0.00000000E+00  0.00000000E+00
  0.00000000E+00  0.00000000E+00  0.00000000E+00
  0.00000000E+00  0.00000000E+00  0.00000000E+00
  0.00000000E+00  0.00000000E+00  0.00000000E+00
  0.00000000E+00  0.00000000E+00  0.00000000E+00
  0.00000000E+00  0.00000000E+00  0.00000000E+00
  0.00000000E+00  0.00000000E+00  0.00000000E+00
  0.00000000E+00  0.00000000E+00  0.00000000E+00
  0.00000000E+00  0.00000000E+00  0.00000000E+00
  0.00000000E+00  0.00000000E+00  0.00000000E+00
  0.00000000E+00  0.00000000E+00  0.00000000E+00
  0.00000000E+00  0.00000000E+00  0.00000000E+00
  0.00000000E+00  0.00000000E+00  0.00000000E+00
  0.00000000E+00  0.00000000E+00  0.00000000E+00
  0.00000000E+00  0.00000000E+00  0.00000000E+00
  0.00000000E+00  0.00000000E+00  0.00000000E+00
  0.00000000E+00  0.00000000E+00  0.00000000E+00
  0.00000000E+00  0.00000000E+00  0.00000000E+00
  0.00000000E+00  0.00000000E+00  0.00000000E+00
  0.00000000E+00  0.00000000E+00  0.00000000E+00
  0.00000000E+00  0.00000000E+00  0.00000000E+00
  0.00000000E+00  0.00000000E+00  0.00000000E+00
  0.00000000E+00  0.00000000E+00  0.00000000E+00
  0.00000000E+00  0.00000000E+00  0.00000000E+00
  0.00000000E+00  0.00000000E+00  0.00000000E+00
  0.00000000E+00  0.00000000E+00  0.00000000E+00
  0.00000000E+00  0.00000000E+00  0.00000000E+00
  0.00000000E+00  0.00000000E+00  0.00000000E+00
  0.00000000E+00  0.00000000E+00  0.00000000E+00
  0.00000000E+00  0.00000000E+00  0.00000000E+00
