Ni_COCO
   1.00000000000000     
     9.8291997910000006    0.0000000000000000    0.0000000000000000
     4.9145998955000003    8.5123367178000002    0.0000000000000000
     0.0000000000000000    0.0000000000000000   30.7147998810000011
   Ni   O    C 
    64     2     2
Selective dynamics
Direct
      0.0903100069999994      0.0841000030000032      0.1164200030000018   F F F
      0.3377600040000033      0.0856800030000002      0.1173600070000020   F F F
      0.3268600079999970      0.8365799970000012      0.1170099949999965   F F F
      0.5890499960000000      0.3387700170000016      0.1189600029999980   F F F
      0.3312399690000021      0.5868600270000002      0.1188299989999990   F F F
      0.3437700220000011      0.3395599990000022      0.1207500049999979   F F F
      0.8462600630000026      0.0847100029999979      0.1209700049999967   F F F
      0.5845999570000018      0.0806700010000014      0.1206300070000026   F F F
      0.8329500039999971      0.3421800070000032      0.1190100000000029   F F F
      0.5758799529999976      0.5968599910000023      0.1218700009999978   F F F
      0.0825500130000023      0.8402799890000026      0.1201800010000014   F F F
      0.5864300120000010      0.8291800149999986      0.1193700010000001   F F F
      0.0885399980000017      0.3468300219999989      0.1194100009999985   F F F
      0.8320999470000032      0.5868600270000002      0.1211199970000010   F F F
      0.0931200209999972      0.5897199839999985      0.1198100020000012   F F F
      0.8425800449999983      0.8298599519999996      0.1218399999999988   F F F
      0.1689362732245659      0.1701248895673569      0.1828520039883460   F F F
      0.1671330899064035      0.9211608534569531      0.1842368332187780   F F F
      0.4189431569424334      0.1683452140690626      0.1849456299030568   F F F
      0.4171803878138151      0.9185282843036637      0.1831713155672756   F F F
      0.4214292023399763      0.4176763264204427      0.1853668999894122   F F F
      0.4145952660592279      0.6713600287708860      0.1849137602471225   F F F
      0.9203372620014428      0.1705729523414712      0.1840465897220506   F F F
      0.6676327318421348      0.1683306886078352      0.1841185250882831   F F F
      0.6684908563855764      0.4195234398895926      0.1846589889411580   F F F
      0.1688437020700720      0.6700107297750112      0.1855802054134524   F F F
      0.9179629970996764      0.4186973669304344      0.1857928327812552   F F F
      0.6690518002763890      0.6658560058158020      0.1872249785220795   F F F
      0.9174906979131068      0.9199120533743513      0.1858344579830767   F F F
      0.6680773352395697      0.9159259296227220      0.1850137396193642   F F F
      0.1710411044973939      0.4189537239893622      0.1850655263729712   F F F
      0.9204832196536759      0.6662706622261489      0.1857277374416863   F F F
      0.2503580495577599      0.0017935732778060      0.2491976002854733   T T T
      0.5005496193886162      0.2503090454567287      0.2546979534197251   T T T
      0.4968725011244527      0.5036636885734355      0.2507585398591085   T T T
      0.2512072834563107      0.2504959209865081      0.2496408511443192   T T T
      1.0039338893243162      0.2483300856475878      0.2494376570619866   T T T
      0.7523015075186810      0.2470215293215293      0.2497932102410308   T T T
      0.4969453878841654      0.7546278757373216      0.2499513710518712   T T T
      0.2490296260909377      0.7526552339148016      0.2505508495013972   T T T
      0.4997375823923499      0.0010552384868120      0.2496677502430148   T T T
      1.0009026594496337      0.0011717125726934      0.2500905662042828   T T T
      0.2477841521588988      0.5022893970001185      0.2504905343098042   T T T
      0.7510644356140822      0.5009036046844805      0.2560834121035186   T T T
      0.7507214198121138     -0.0023390649152639      0.2501371276811217   T T T
      1.0002427819402027      0.7513343630882041      0.2510597623718193   T T T
      0.7507826019120527      0.7505327947701254      0.2511834570555108   T T T
      1.0013847317483155      0.5002621395082349      0.2507493019554916   T T T
      0.2488099890000015      0.0018900000000031      0.0530700010000018   F F F
      0.4986599900000002      0.2520299789999996      0.0530700010000018   F F F
      0.4987100259999977      0.5019500149999985      0.0530700010000018   F F F
      0.2486699889999997      0.2519600139999980      0.0530700010000018   F F F
      0.9988300199999998      0.2520000100000033      0.0530700010000018   F F F
      0.7487000469999998      0.2521199990000014      0.0530700010000018   F F F
      0.4986899749999978      0.7520999730000000      0.0530700010000018   F F F
      0.2487699630000009      0.7521200280000002      0.0530700010000018   F F F
      0.4985999800000016      0.0021100000000018      0.0530700010000018   F F F
      0.9987700320000030      0.0022099999999980      0.0530700010000018   F F F
      0.2487500120000021      0.5021200269999966      0.0530700010000018   F F F
      0.7486699880000032      0.5022699849999981      0.0530700010000018   F F F
      0.7485899979999999      0.0024500000000032      0.0530700010000018   F F F
      0.9987000519999967      0.7524499689999971      0.0530700010000018   F F F
      0.7486699279999982      0.7524300270000026      0.0530700010000018   F F F
      0.9986899559999998      0.5022000199999965      0.0530700010000018   F F F
      0.5311026012108597      0.2630398605001712      0.3452219601738308   T T T
      0.7035294331812483      0.4482709155594206      0.3198453248030277   T T T
      0.5569854047598937      0.2968560347706294      0.3094916957839977   T T T
      0.6402552753140390      0.3877000436365812      0.2970956388633624   T T T
 
  0.00000000E+00  0.00000000E+00  0.00000000E+00
  0.00000000E+00  0.00000000E+00  0.00000000E+00
  0.00000000E+00  0.00000000E+00  0.00000000E+00
  0.00000000E+00  0.00000000E+00  0.00000000E+00
  0.00000000E+00  0.00000000E+00  0.00000000E+00
  0.00000000E+00  0.00000000E+00  0.00000000E+00
  0.00000000E+00  0.00000000E+00  0.00000000E+00
  0.00000000E+00  0.00000000E+00  0.00000000E+00
  0.00000000E+00  0.00000000E+00  0.00000000E+00
  0.00000000E+00  0.00000000E+00  0.00000000E+00
  0.00000000E+00  0.00000000E+00  0.00000000E+00
  0.00000000E+00  0.00000000E+00  0.00000000E+00
  0.00000000E+00  0.00000000E+00  0.00000000E+00
  0.00000000E+00  0.00000000E+00  0.00000000E+00
  0.00000000E+00  0.00000000E+00  0.00000000E+00
  0.00000000E+00  0.00000000E+00  0.00000000E+00
  0.00000000E+00  0.00000000E+00  0.00000000E+00
  0.00000000E+00  0.00000000E+00  0.00000000E+00
  0.00000000E+00  0.00000000E+00  0.00000000E+00
  0.00000000E+00  0.00000000E+00  0.00000000E+00
  0.00000000E+00  0.00000000E+00  0.00000000E+00
  0.00000000E+00  0.00000000E+00  0.00000000E+00
  0.00000000E+00  0.00000000E+00  0.00000000E+00
  0.00000000E+00  0.00000000E+00  0.00000000E+00
  0.00000000E+00  0.00000000E+00  0.00000000E+00
  0.00000000E+00  0.00000000E+00  0.00000000E+00
  0.00000000E+00  0.00000000E+00  0.00000000E+00
  0.00000000E+00  0.00000000E+00  0.00000000E+00
  0.00000000E+00  0.00000000E+00  0.00000000E+00
  0.00000000E+00  0.00000000E+00  0.00000000E+00
  0.00000000E+00  0.00000000E+00  0.00000000E+00
  0.00000000E+00  0.00000000E+00  0.00000000E+00
  0.00000000E+00  0.00000000E+00  0.00000000E+00
  0.00000000E+00  0.00000000E+00  0.00000000E+00
  0.00000000E+00  0.00000000E+00  0.00000000E+00
  0.00000000E+00  0.00000000E+00  0.00000000E+00
  0.00000000E+00  0.00000000E+00  0.00000000E+00
  0.00000000E+00  0.00000000E+00  0.00000000E+00
  0.00000000E+00  0.00000000E+00  0.00000000E+00
  0.00000000E+00  0.00000000E+00  0.00000000E+00
  0.00000000E+00  0.00000000E+00  0.00000000E+00
  0.00000000E+00  0.00000000E+00  0.00000000E+00
  0.00000000E+00  0.00000000E+00  0.00000000E+00
  0.00000000E+00  0.00000000E+00  0.00000000E+00
  0.00000000E+00  0.00000000E+00  0.00000000E+00
  0.00000000E+00  0.00000000E+00  0.00000000E+00
  0.00000000E+00  0.00000000E+00  0.00000000E+00
  0.00000000E+00  0.00000000E+00  0.00000000E+00
  0.00000000E+00  0.00000000E+00  0.00000000E+00
  0.00000000E+00  0.00000000E+00  0.00000000E+00
  0.00000000E+00  0.00000000E+00  0.00000000E+00
  0.00000000E+00  0.00000000E+00  0.00000000E+00
  0.00000000E+00  0.00000000E+00  0.00000000E+00
  0.00000000E+00  0.00000000E+00  0.00000000E+00
  0.00000000E+00  0.00000000E+00  0.00000000E+00
  0.00000000E+00  0.00000000E+00  0.00000000E+00
  0.00000000E+00  0.00000000E+00  0.00000000E+00
  0.00000000E+00  0.00000000E+00  0.00000000E+00
  0.00000000E+00  0.00000000E+00  0.00000000E+00
  0.00000000E+00  0.00000000E+00  0.00000000E+00
  0.00000000E+00  0.00000000E+00  0.00000000E+00
  0.00000000E+00  0.00000000E+00  0.00000000E+00
  0.00000000E+00  0.00000000E+00  0.00000000E+00
  0.00000000E+00  0.00000000E+00  0.00000000E+00
  0.00000000E+00  0.00000000E+00  0.00000000E+00
  0.00000000E+00  0.00000000E+00  0.00000000E+00
  0.00000000E+00  0.00000000E+00  0.00000000E+00
  0.00000000E+00  0.00000000E+00  0.00000000E+00
