 Ni\(1\1\1)                             
   1.00000000000000     
     9.8291997910000006    0.0000000000000000    0.0000000000000000
     4.9145998955000003    8.5123367178000002    0.0000000000000000
     0.0000000000000000    0.0000000000000000   19.0128002167000005
   Ni   O    C    O    C    H 
    64     3     1     1     1     2
Selective dynamics
Direct
  0.8326451880854352  0.5822967582520857  0.2715627463165082   T   T   T
  0.3330450276752751  0.0818140136430709  0.2705207099529554   T   T   T
  0.8334129566380601  0.0818767608063738  0.2703773400550496   T   T   T
  0.3328816302282360  0.5825180098057913  0.2705965292884114   T   T   T
  0.5831002007521600  0.8320388527319383  0.2708827261935419   T   T   T
  0.8328561433922053  0.8321684812204876  0.2707431347356571   T   T   T
  0.0828404317108980  0.3321767612315671  0.2706323014970295   T   T   T
  0.8328826147250190  0.3322107103767605  0.2715418075066562   T   T   T
  0.5833452160051076  0.5818678282190313  0.2716994812922593   T   T   T
  0.0826786507400583  0.5821852196427760  0.2708501071372446   T   T   T
  0.0828331082521200  0.0826038524433336  0.2704916738780232   T   T   T
  0.5828965227487833  0.0822170858150744  0.2714620194909800   T   T   T
  0.3333592008660308  0.8320452775028009  0.2708480962097948   T   T   T
  0.0826694182069544  0.8321135249478216  0.2705500809522502   T   T   T
  0.3328171823337107  0.3323897318454002  0.2713289579356716   T   T   T
  0.5831612245928278  0.3320655807504554  0.2711705434275015   T   T   T
  0.9168801685950582  0.6644167531024923  0.3755713497048597   T   T   T
  0.9158105166968489  0.4155313587687018  0.3762935214383591   T   T   T
  0.6673610351791861  0.6633925762979734  0.3765572079948077   T   T   T
  0.1660133583253885  0.1648990145013415  0.3758661664552433   T   T   T
  0.9173820368651233  0.1647160245834128  0.3761754459459299   T   T   T
  0.9165193347480143  0.9153645626677636  0.3757332111577322   T   T   T
  0.4164156578588237  0.9151384313222852  0.3759507867074379   T   T   T
  0.4157813038244056  0.1649786885885360  0.3756502715094137   T   T   T
  0.6678733868991276  0.1648104195703994  0.3757221934001529   T   T   T
  0.1672267627695353  0.6647406342735166  0.3756796669006013   T   T   T
  0.4161789230023643  0.6650628561552799  0.3761088506909616   T   T   T
  0.4166860085205769  0.4152812617954106  0.3758648835708195   T   T   T
  0.6659450734237280  0.9161854802385480  0.3774565883431981   T   T   T
  0.1660273228531300  0.4152896933080137  0.3776308484235259   T   T   T
  0.6670150752369383  0.4153979101858666  0.3788816265930127   T   T   T
  0.1665521623742579  0.9149938974254660  0.3778340539992547   T   T   T
  0.9987549304260028  0.2528688773075591  0.4817280366315294   T   T   T
  0.5009963101070567  0.2476370202285140  0.4791651889590494   T   T   T
  0.9979797658294763  0.7455797771204226  0.4792936494097319   T   T   T
  0.5041360578521190  0.7470440592439676  0.4799185486291713   T   T   T
  0.7492219539652056  0.7513723400715514  0.4799020183942607   T   T   T
  0.0002151100630727  0.4984693185018758  0.4832058695580871   T   T   T
  0.7470110902920201  0.5009621741621807  0.4901671203574605   T   T   T
  0.2484946126927304  0.9963727190992192  0.4848396240611598   T   T   T
  0.0039703696535203  0.9962737765900269  0.4850968506591236   T   T   T
  0.5038630969108354  0.9962144805096087  0.4860567330038441   T   T   T
  0.2481364737917176  0.7520091397534621  0.4854625734748413   T   T   T
  0.7497481434012518  0.9955686363014792  0.4859621309718744   T   T   T
  0.2520344532843010  0.2501913488750062  0.4839607781019947   T   T   T
  0.7479852529595903  0.2492138768916071  0.4846301728906426   T   T   T
  0.2478100636091785  0.4970679626904948  0.4851555937336796   T   T   T
  0.5021008489635599  0.4971278078474362  0.4853883331114199   T   T   T
  0.9970724670000024  0.2558556729999992  0.1637003960000030   F   F   F
  0.4999617989999976  0.2500875830000027  0.1643123180000003   F   F   F
  0.9968841629999972  0.7476992069999966  0.1643590660000029   F   F   F
  0.5054474789999972  0.7476858750000019  0.1651548480000002   F   F   F
  0.7507219769999978  0.7486395119999969  0.1651830500000031   F   F   F
  0.9979410790000003  0.5014025589999989  0.1651978470000017   F   F   F
  0.7507272960000009  0.5014379059999996  0.1654730480000026   F   F   F
  0.2484077359999972  0.9989653640000000  0.1655050250000016   F   F   F
  0.0026835399999996  0.9989392600000002  0.1655775309999967   F   F   F
  0.5037179199999997  0.9979203070000011  0.1655856309999990   F   F   F
  0.2483221529999966  0.7533767729999994  0.1658259459999982   F   F   F
  0.7484137009999969  0.9978805350000002  0.1658943890000018   F   F   F
  0.2473094730000014  0.2543786680000011  0.1660089160000027   F   F   F
  0.7483561820000020  0.2543461500000035  0.1660180820000008   F   F   F
  0.2472921950000000  0.4989472700000022  0.1662971330000005   F   F   F
  0.5037960519999984  0.4989156760000029  0.1664085250000014   F   F   F
  0.3323084139972528  0.0819026144504350  0.5448318415041307   T   T   T
  0.8354974021367622  0.0803763425626495  0.5453575066154158   T   T   T
  0.3318470248343887  0.5820628786353553  0.5449183238274503   T   T   T
  0.7555987690612579  0.4971677020037376  0.5875318681912716   T   T   T
  0.6692023204715438  0.5398749453214631  0.6369411455115835   T   T   T
  0.9236773320668573  0.4155371220519841  0.5686564174032642   T   T   T
  0.9818570514309640  0.4792008370242450  0.5902950599905017   T   T   T
  0.9862158641148832  0.2917205487355093  0.5879835952508838   T   T   T
 
  0.00000000E+00  0.00000000E+00  0.00000000E+00
  0.00000000E+00  0.00000000E+00  0.00000000E+00
  0.00000000E+00  0.00000000E+00  0.00000000E+00
  0.00000000E+00  0.00000000E+00  0.00000000E+00
  0.00000000E+00  0.00000000E+00  0.00000000E+00
  0.00000000E+00  0.00000000E+00  0.00000000E+00
  0.00000000E+00  0.00000000E+00  0.00000000E+00
  0.00000000E+00  0.00000000E+00  0.00000000E+00
  0.00000000E+00  0.00000000E+00  0.00000000E+00
  0.00000000E+00  0.00000000E+00  0.00000000E+00
  0.00000000E+00  0.00000000E+00  0.00000000E+00
  0.00000000E+00  0.00000000E+00  0.00000000E+00
  0.00000000E+00  0.00000000E+00  0.00000000E+00
  0.00000000E+00  0.00000000E+00  0.00000000E+00
  0.00000000E+00  0.00000000E+00  0.00000000E+00
  0.00000000E+00  0.00000000E+00  0.00000000E+00
  0.00000000E+00  0.00000000E+00  0.00000000E+00
  0.00000000E+00  0.00000000E+00  0.00000000E+00
  0.00000000E+00  0.00000000E+00  0.00000000E+00
  0.00000000E+00  0.00000000E+00  0.00000000E+00
  0.00000000E+00  0.00000000E+00  0.00000000E+00
  0.00000000E+00  0.00000000E+00  0.00000000E+00
  0.00000000E+00  0.00000000E+00  0.00000000E+00
  0.00000000E+00  0.00000000E+00  0.00000000E+00
  0.00000000E+00  0.00000000E+00  0.00000000E+00
  0.00000000E+00  0.00000000E+00  0.00000000E+00
  0.00000000E+00  0.00000000E+00  0.00000000E+00
  0.00000000E+00  0.00000000E+00  0.00000000E+00
  0.00000000E+00  0.00000000E+00  0.00000000E+00
  0.00000000E+00  0.00000000E+00  0.00000000E+00
  0.00000000E+00  0.00000000E+00  0.00000000E+00
  0.00000000E+00  0.00000000E+00  0.00000000E+00
  0.00000000E+00  0.00000000E+00  0.00000000E+00
  0.00000000E+00  0.00000000E+00  0.00000000E+00
  0.00000000E+00  0.00000000E+00  0.00000000E+00
  0.00000000E+00  0.00000000E+00  0.00000000E+00
  0.00000000E+00  0.00000000E+00  0.00000000E+00
  0.00000000E+00  0.00000000E+00  0.00000000E+00
  0.00000000E+00  0.00000000E+00  0.00000000E+00
  0.00000000E+00  0.00000000E+00  0.00000000E+00
  0.00000000E+00  0.00000000E+00  0.00000000E+00
  0.00000000E+00  0.00000000E+00  0.00000000E+00
  0.00000000E+00  0.00000000E+00  0.00000000E+00
  0.00000000E+00  0.00000000E+00  0.00000000E+00
  0.00000000E+00  0.00000000E+00  0.00000000E+00
  0.00000000E+00  0.00000000E+00  0.00000000E+00
  0.00000000E+00  0.00000000E+00  0.00000000E+00
  0.00000000E+00  0.00000000E+00  0.00000000E+00
  0.00000000E+00  0.00000000E+00  0.00000000E+00
  0.00000000E+00  0.00000000E+00  0.00000000E+00
  0.00000000E+00  0.00000000E+00  0.00000000E+00
  0.00000000E+00  0.00000000E+00  0.00000000E+00
  0.00000000E+00  0.00000000E+00  0.00000000E+00
  0.00000000E+00  0.00000000E+00  0.00000000E+00
  0.00000000E+00  0.00000000E+00  0.00000000E+00
  0.00000000E+00  0.00000000E+00  0.00000000E+00
  0.00000000E+00  0.00000000E+00  0.00000000E+00
  0.00000000E+00  0.00000000E+00  0.00000000E+00
  0.00000000E+00  0.00000000E+00  0.00000000E+00
  0.00000000E+00  0.00000000E+00  0.00000000E+00
  0.00000000E+00  0.00000000E+00  0.00000000E+00
  0.00000000E+00  0.00000000E+00  0.00000000E+00
  0.00000000E+00  0.00000000E+00  0.00000000E+00
  0.00000000E+00  0.00000000E+00  0.00000000E+00
  0.00000000E+00  0.00000000E+00  0.00000000E+00
  0.00000000E+00  0.00000000E+00  0.00000000E+00
  0.00000000E+00  0.00000000E+00  0.00000000E+00
  0.00000000E+00  0.00000000E+00  0.00000000E+00
  0.00000000E+00  0.00000000E+00  0.00000000E+00
  0.00000000E+00  0.00000000E+00  0.00000000E+00
  0.00000000E+00  0.00000000E+00  0.00000000E+00
  0.00000000E+00  0.00000000E+00  0.00000000E+00
