 Cu(111)_pristine               
   1.00000000000000     
    10.1184997559000003    0.0000000000000000    0.0000000000000000
    -5.0592498779000001    8.7628778367999995    0.0000000000000000
     0.0000000000000000    0.0000000000000000   30.4843997954999999
   Cu
    64
Selective dynamics
Direct
  0.4197907009276012  0.0877271601959128  0.1135206939173695   T   T   T
  0.9198244995308733  0.5878397692939086  0.1135687034063328   T   T   T
  0.6697662438740610  0.3378653705965385  0.1135657741715072   T   T   T
  0.1697732765726385  0.8375998984280800  0.1135291604259865   T   T   T
  0.1696286038775418  0.5875171084053444  0.1135917111355027   T   T   T
  0.4195939043661833  0.3377141339933276  0.1135350130908403   T   T   T
  0.1695691771223702  0.0875331749084203  0.1134989333235722   T   T   T
  0.4196959868243003  0.8375319160857119  0.1135606073353295   T   T   T
  0.9196254653216519  0.3376685915549137  0.1135905844686698   T   T   T
  0.1696050447424743  0.3375592152404819  0.1135662208669179   T   T   T
  0.6696403437250089  0.0877141753250832  0.1135696194429439   T   T   T
  0.6696123333500459  0.8377445509227114  0.1135792698948173   T   T   T
  0.6696757729079427  0.5877724974752304  0.1135547834297005   T   T   T
  0.4196472125950195  0.5876999391943544  0.1135925878221760   T   T   T
  0.9196291697110704  0.8377508588719941  0.1135460613129460   T   T   T
  0.9196179551143288  0.0877284390098572  0.1135589429389508   T   T   T
  0.3353355855971272  0.1711700573196447  0.1803254181089735   T   T   T
  0.8352788575204219  0.4211961580152475  0.1804690012535402   T   T   T
  0.0853422541410977  0.6711800923638491  0.1804673839847262   T   T   T
  0.3353397301920614  0.9210319456485712  0.1803643870680010   T   T   T
  0.5852621442616750  0.1711810047167544  0.1803936912467431   T   T   T
  0.5852927278060602  0.4212425903124148  0.1803921781388542   T   T   T
  0.0853957821145246  0.4211574842718228  0.1804939071373806   T   T   T
  0.8352231364941888  0.6712004981225772  0.1804376140584517   T   T   T
  0.0851167101119692  0.9209733319475433  0.1803557435823420   T   T   T
  0.3353823830650260  0.4211285586166034  0.1804644085723717   T   T   T
  0.3353225031573726  0.6710753481379907  0.1805352926419947   T   T   T
  0.0853405385052965  0.1711012909754617  0.1804351374552989   T   T   T
  0.5852780654218765  0.9211524969280894  0.1804860153065159   T   T   T
  0.8352186787922575  0.1711322393748765  0.1804625603497214   T   T   T
  0.5853572433122810  0.6713016363152022  0.1804906277421640   T   T   T
  0.8352959881298873  0.9212524887784982  0.1804405810924599   T   T   T
  0.5015953844899470  0.2551529992926134  0.2479844367112415   T   T   T
  0.2516374793655531  0.0052609026577936  0.2479045733509099   T   T   T
  0.0015169117803523  0.7552175107014569  0.2480550796427948   T   T   T
  0.5014981353349341  0.0050730348401895  0.2480999892963588   T   T   T
  0.0016298484580262  0.5051796366463488  0.2481562205844632   T   T   T
  0.7515701697385061  0.5051399479166916  0.2480766648081087   T   T   T
  0.2515811884295419  0.7551970999242237  0.2481511706017149   T   T   T
  0.7513963586400861  0.2550697301537075  0.2481413965169028   T   T   T
  0.2515478898178025  0.2551400879643025  0.2481448302251784   T   T   T
  0.2516487218372750  0.5050809689845913  0.2482693475808315   T   T   T
  0.0014345584472206  0.2551299232508570  0.2481358306889294   T   T   T
  0.5015257341720855  0.5050590742870691  0.2481369098108843   T   T   T
  0.5016151947588935  0.7550697161188196  0.2482392854202715   T   T   T
  0.0015984369697177  0.0052331734996488  0.2480612231223381   T   T   T
  0.7515574061318174  0.0050196818450528  0.2481598102556765   T   T   T
  0.7515464419986352  0.7550244848241430  0.2481941252535574   T   T   T
  0.5051699879999987  0.2552199960000010  0.0459221600000035   F   F   F
  0.2551900449999991  0.0052499999999966  0.0459221600000035   F   F   F
  0.0052099999999982  0.7552400229999989  0.0459221600000035   F   F   F
  0.5051599740000015  0.0052700000000030  0.0459221600000035   F   F   F
  0.0051299799999995  0.5051999690000031  0.0459221600000035   F   F   F
  0.7552300099999982  0.5052699450000020  0.0459221600000035   F   F   F
  0.2551200090000023  0.7552599910000026  0.0459221600000035   F   F   F
  0.7551000119999998  0.2552900020000024  0.0459221600000035   F   F   F
  0.2552500070000008  0.2551600039999968  0.0459221600000035   F   F   F
  0.2551399769999989  0.5051699280000008  0.0459221600000035   F   F   F
  0.0052599999999998  0.2552700040000033  0.0459221600000035   F   F   F
  0.5051800009999994  0.5051699280000008  0.0459221600000035   F   F   F
  0.5051100250000005  0.7552000279999973  0.0459221600000035   F   F   F
  0.0051800000000028  0.0052200000000013  0.0459221600000035   F   F   F
  0.7551699879999987  0.0052400000000006  0.0459221600000035   F   F   F
  0.7551900149999966  0.7551800009999994  0.0459221600000035   F   F   F
 
  0.00000000E+00  0.00000000E+00  0.00000000E+00
  0.00000000E+00  0.00000000E+00  0.00000000E+00
  0.00000000E+00  0.00000000E+00  0.00000000E+00
  0.00000000E+00  0.00000000E+00  0.00000000E+00
  0.00000000E+00  0.00000000E+00  0.00000000E+00
  0.00000000E+00  0.00000000E+00  0.00000000E+00
  0.00000000E+00  0.00000000E+00  0.00000000E+00
  0.00000000E+00  0.00000000E+00  0.00000000E+00
  0.00000000E+00  0.00000000E+00  0.00000000E+00
  0.00000000E+00  0.00000000E+00  0.00000000E+00
  0.00000000E+00  0.00000000E+00  0.00000000E+00
  0.00000000E+00  0.00000000E+00  0.00000000E+00
  0.00000000E+00  0.00000000E+00  0.00000000E+00
  0.00000000E+00  0.00000000E+00  0.00000000E+00
  0.00000000E+00  0.00000000E+00  0.00000000E+00
  0.00000000E+00  0.00000000E+00  0.00000000E+00
  0.00000000E+00  0.00000000E+00  0.00000000E+00
  0.00000000E+00  0.00000000E+00  0.00000000E+00
  0.00000000E+00  0.00000000E+00  0.00000000E+00
  0.00000000E+00  0.00000000E+00  0.00000000E+00
  0.00000000E+00  0.00000000E+00  0.00000000E+00
  0.00000000E+00  0.00000000E+00  0.00000000E+00
  0.00000000E+00  0.00000000E+00  0.00000000E+00
  0.00000000E+00  0.00000000E+00  0.00000000E+00
  0.00000000E+00  0.00000000E+00  0.00000000E+00
  0.00000000E+00  0.00000000E+00  0.00000000E+00
  0.00000000E+00  0.00000000E+00  0.00000000E+00
  0.00000000E+00  0.00000000E+00  0.00000000E+00
  0.00000000E+00  0.00000000E+00  0.00000000E+00
  0.00000000E+00  0.00000000E+00  0.00000000E+00
  0.00000000E+00  0.00000000E+00  0.00000000E+00
  0.00000000E+00  0.00000000E+00  0.00000000E+00
  0.00000000E+00  0.00000000E+00  0.00000000E+00
  0.00000000E+00  0.00000000E+00  0.00000000E+00
  0.00000000E+00  0.00000000E+00  0.00000000E+00
  0.00000000E+00  0.00000000E+00  0.00000000E+00
  0.00000000E+00  0.00000000E+00  0.00000000E+00
  0.00000000E+00  0.00000000E+00  0.00000000E+00
  0.00000000E+00  0.00000000E+00  0.00000000E+00
  0.00000000E+00  0.00000000E+00  0.00000000E+00
  0.00000000E+00  0.00000000E+00  0.00000000E+00
  0.00000000E+00  0.00000000E+00  0.00000000E+00
  0.00000000E+00  0.00000000E+00  0.00000000E+00
  0.00000000E+00  0.00000000E+00  0.00000000E+00
  0.00000000E+00  0.00000000E+00  0.00000000E+00
  0.00000000E+00  0.00000000E+00  0.00000000E+00
  0.00000000E+00  0.00000000E+00  0.00000000E+00
  0.00000000E+00  0.00000000E+00  0.00000000E+00
  0.00000000E+00  0.00000000E+00  0.00000000E+00
  0.00000000E+00  0.00000000E+00  0.00000000E+00
  0.00000000E+00  0.00000000E+00  0.00000000E+00
  0.00000000E+00  0.00000000E+00  0.00000000E+00
  0.00000000E+00  0.00000000E+00  0.00000000E+00
  0.00000000E+00  0.00000000E+00  0.00000000E+00
  0.00000000E+00  0.00000000E+00  0.00000000E+00
  0.00000000E+00  0.00000000E+00  0.00000000E+00
  0.00000000E+00  0.00000000E+00  0.00000000E+00
  0.00000000E+00  0.00000000E+00  0.00000000E+00
  0.00000000E+00  0.00000000E+00  0.00000000E+00
  0.00000000E+00  0.00000000E+00  0.00000000E+00
  0.00000000E+00  0.00000000E+00  0.00000000E+00
  0.00000000E+00  0.00000000E+00  0.00000000E+00
  0.00000000E+00  0.00000000E+00  0.00000000E+00
  0.00000000E+00  0.00000000E+00  0.00000000E+00
