 Ni_CO_CHO(ER)
   1.000
    9.8292000000000002    0.0000000000000000    0.0000000000000000
    4.9146000000000001    8.5123370000000005    0.0000000000000000
    0.0000000000000000    0.0000000000000000   30.7148000000000003
   Ni   O    H    C    O 
   64   30   60    1    1
Selective Dynamics
Direct
    0.0558131700000000    0.0950765600000000    0.1204512500000000    T  T  T
    0.3210705100000000    0.1013010300000000    0.1179189200000000    T  T  T
    0.3090868300000000    0.8347038000000000    0.1200381000000000    T  T  T
    0.5672354100000000    0.3311148100000000    0.1196232100000000    T  T  T
    0.3131470500000000    0.5930707000000000    0.1220260700000000    T  T  T
    0.3198747500000000    0.3238650800000000    0.1184861800000000    T  T  T
    0.8227638300000000    0.0767202800000000    0.1153042800000000    T  T  T
    0.5789328100000000    0.0709690400000000    0.1176891300000000    T  T  T
    0.8166171000000000    0.3294929700000000    0.1222494700000000    T  T  T
    0.5576862000000000    0.5893794900000000    0.1192561100000000    T  T  T
    0.0714577000000000    0.8366212500000000    0.1219507700000000    T  T  T
    0.5663290700000000    0.8331216600000000    0.1208792100000000    T  T  T
    0.0750494200000000    0.3270972600000000    0.1184209700000000    T  T  T
    0.8079592600000000    0.5816956200000000    0.1222343200000000    T  T  T
    0.0661704000000000    0.5812959400000000    0.1181646700000000    T  T  T
    0.8250970700000000    0.8266925100000000    0.1201303600000000    T  T  T
    0.1513010000000000    0.1676185100000000    0.1866227400000000    T  T  T
    0.1510422300000000    0.9125213000000000    0.1875045700000000    T  T  T
    0.4059752000000000    0.1587099100000000    0.1875408300000000    T  T  T
    0.3851006300000000    0.9276430200000000    0.1842089400000000    T  T  T
    0.3993407900000000    0.4187788500000000    0.1854719400000000    T  T  T
    0.3971087500000000    0.6760796700000000    0.1867591600000000    T  T  T
    0.9115526600000000    0.1459370000000000    0.1847823400000000    T  T  T
    0.6431082000000000    0.1731661200000000    0.1855584600000000    T  T  T
    0.6491685100000000    0.4224526100000000    0.1870698200000000    T  T  T
    0.1425795400000000    0.6673989100000000    0.1845790900000000    T  T  T
    0.8975119499999999    0.4110366300000000    0.1869784900000000    T  T  T
    0.6345779400000000    0.6753760599999999    0.1834936300000000    T  T  T
    0.8909984100000000    0.9194259800000000    0.1845906300000000    T  T  T
    0.6514283000000000    0.9116072300000000    0.1854967000000000    T  T  T
    0.1567912000000000    0.4132446000000000    0.1842347800000000    T  T  T
    0.8950624500000000    0.6657741400000000    0.1878361600000000    T  T  T
    0.2293182000000000    0.0212197600000000    0.2530110300000000    T  T  T
    0.4841087800000000    0.2612464100000000    0.2526050700000000    T  T  T
    0.4923912300000000    0.5101436900000000    0.2504133500000000    T  T  T
    0.2381056200000000    0.2581521800000000    0.2531881000000000    T  T  T
    0.9927357800000000    0.2563273300000000    0.2575047100000000    T  T  T
    0.7367110100000001    0.2507185100000000    0.2548425100000000    T  T  T
    0.4901384400000000    0.7582065600000000    0.2473487300000000    T  T  T
    0.2264141300000000    0.7604141000000000    0.2544842500000000    T  T  T
    0.4914005200000000    0.0072740400000000    0.2541055700000000    T  T  T
    0.9745766700000000    0.0141952600000000    0.2540798100000000    T  T  T
    0.2240497600000000    0.5146368300000000    0.2515913700000000    T  T  T
    0.7498285800000000    0.4994079100000000    0.2521089700000000    T  T  T
    0.7327591800000000    0.0112212100000000    0.2516706100000000    T  T  T
    0.9778378100000000    0.7639708800000000    0.2492393100000000    T  T  T
    0.7449645400000000    0.7428797000000000    0.2588303400000000    T  T  T
    0.0011091900000000    0.4953085900000000    0.2515324500000000    T  T  T
    0.2284520900000000    0.0167885100000000    0.0553293000000000    F  F  F
    0.4915011000000000    0.2608765100000000    0.0527560400000000    F  F  F
    0.4878295700000000    0.5049255800000000    0.0510094300000000    F  F  F
    0.2324805300000000    0.2586385400000000    0.0503367400000000    F  F  F
    0.9779276300000000    0.2555186000000000    0.0504343000000000    F  F  F
    0.7296889600000001    0.2591629400000000    0.0523306700000000    F  F  F
    0.4753469100000000    0.7630925100000000    0.0554857900000000    F  F  F
    0.2327301700000000    0.7511085700000000    0.0509729500000000    F  F  F
    0.4867456300000000    0.0256520100000000    0.0504660800000000    F  F  F
    0.9867359999999999    0.0026044900000000    0.0495516500000000    F  F  F
    0.2406789900000000    0.4996013700000000    0.0570729800000000    F  F  F
    0.7247541600000000    0.5055116100000000    0.0535559500000000    F  F  F
    0.7438629300000000    0.9983083300000000    0.0536161900000000    F  F  F
    0.9837565300000000    0.7603723400000000    0.0544109100000000    F  F  F
    0.7180438500000000    0.7638965300000000    0.0556092800000000    F  F  F
    0.9819149900000000    0.5062074500000000    0.0539466800000000    F  F  F
    0.1899816700000000    0.7612364600000000    0.5653448200000000    T  T  T
    0.6919833900000000    0.9588802300000000    0.6267870900000000    T  T  T
    0.4710553300000000    0.8186875100000000    0.3586355500000000    T  T  T
    0.0355763200000000    0.1899758200000000    0.3975290300000000    T  T  T
    0.4170621200000000    0.0963395600000000    0.3620657800000000    T  T  T
    0.1503049300000000    0.5138561500000000    0.5759897300000000    T  T  T
    0.8561621500000000    0.4419329700000000    0.4559524800000000    T  T  T
    0.1199036900000000    0.6135459000000000    0.3706631800000000    T  T  T
    0.7430167700000000    0.7040244700000000    0.3220966600000000    T  T  T
    0.5737559200000000    0.7571201400000001    0.4457573100000000    T  T  T
    0.0597989700000000    0.9613887800000001    0.3331991800000000    T  T  T
    0.4008267800000000    0.2883167100000000    0.5274164099999999    T  T  T
    0.4428820100000000    0.0340356200000000    0.5751127900000000    T  T  T
    0.5679677700000000    0.4204253100000000    0.4334509000000000    T  T  T
    0.6200048200000000    0.5047356900000000    0.5944839400000000    T  T  T
    0.2671063000000000    0.5527351100000000    0.4529096800000000    T  T  T
    0.7398704000000000    0.0322878700000000    0.4434324500000000    T  T  T
    0.0151400000000000    0.3648201900000000    0.5317555500000000    T  T  T
    0.1944990300000000    0.2486283600000000    0.6314655200000000    T  T  T
    0.6730451100000000    0.2970347900000000    0.5262813900000000    T  T  T
    0.9226478600000000    0.2920074000000000    0.6134764100000000    T  T  T
    0.4716456400000000    0.7602688600000000    0.5420121700000000    T  T  T
    0.8664293300000000    0.8708557300000001    0.3633534700000000    T  T  T
    0.9195318900000000    0.0429511500000000    0.5796004100000000    T  T  T
    0.3936084300000000    0.0790404900000000    0.4484814000000000    T  T  T
    0.0529102900000000    0.8440646800000000    0.4788308000000000    T  T  T
    0.5576497300000000    0.2689840100000000    0.3621444300000000    T  T  T
    0.1120573500000000    0.1019696800000000    0.4794902500000000    T  T  T
    0.3275984900000000    0.6860426200000000    0.3099069300000000    T  T  T
    0.1293037700000000    0.3443030900000000    0.3459482700000000    T  T  T
    0.2987096700000000    0.7381621600000000    0.5595911099999999    T  T  T
    0.1862336100000000    0.6622772400000000    0.5706543300000000    T  T  T
    0.7314812100000000    0.8523680700000000    0.6352869500000000    T  T  T
    0.6019274500000000    0.9810554900000000    0.6053213600000000    T  T  T
    0.4268378400000000    0.9334492100000000    0.3530996600000000    T  T  T
    0.4080885900000000    0.7727574800000000    0.3424308800000000    T  T  T
    0.9430888800000000    0.2903692800000000    0.4073995300000000    T  T  T
    0.0897003100000000    0.2318077800000000    0.3788300000000000    T  T  T
    0.3924164900000000    0.1020733100000000    0.3948357000000000    T  T  T
    0.3153088800000000    0.1731198800000000    0.3466092600000000    T  T  T
    0.1823196300000000    0.4452922400000000    0.6014651300000000    T  T  T
    0.1069511100000000    0.4726816800000000    0.5540068800000000    T  T  T
    0.9075142400000000    0.4380303900000000    0.4833680600000000    T  T  T
    0.7866004500000000    0.5631205600000000    0.4534974000000000    T  T  T
    0.0231525200000000    0.7072340200000000    0.3766367900000000    T  T  T
    0.1753139300000000    0.5852062000000000    0.3980512400000000    T  T  T
    0.6430126200000000    0.7173001200000000    0.3348619000000000    T  T  T
    0.7672407000000000    0.7822846000000000    0.3364893400000000    T  T  T
    0.5786914399999999    0.8539630900000000    0.4533475400000000    T  T  T
    0.5422768000000000    0.7610711700000000    0.4141504200000000    T  T  T
    0.9067574600000000    0.2564391300000000    0.3014855100000000    T  T  T
    0.0732924100000000    0.0395753400000000    0.3555650200000000    T  T  T
    0.5002364700000000    0.2887890900000000    0.5248495500000000    T  T  T
    0.3317465200000000    0.3769666600000000    0.5480314800000000    T  T  T
    0.3497919200000000    0.1041687700000000    0.5949071700000000    T  T  T
    0.4304740400000000    0.1180688200000000    0.5554067300000000    T  T  T
    0.6464051700000000    0.4521879800000000    0.4378616600000000    T  T  T
    0.5598887400000000    0.3838446600000000    0.4024536600000000    T  T  T
    0.5932391200000000    0.6148739300000000    0.5928474200000000    T  T  T
    0.6512274700000000    0.4506981700000000    0.5663709099999999    T  T  T
    0.3841213900000000    0.5076084300000000    0.4456991100000000    T  T  T
    0.2538196000000000    0.4716466200000000    0.4665750200000000    T  T  T
    0.7056869900000000    0.1453404300000000    0.4470207900000000    T  T  T
    0.8371471200000000    0.9620453200000000    0.4609564700000000    T  T  T
    0.0675561800000000    0.2606761900000000    0.5179199200000000    T  T  T
    0.9407495500000000    0.3659998800000000    0.5536562200000000    T  T  T
    0.2157322500000000    0.2358962400000000    0.6626414000000000    T  T  T
    0.0858048000000000    0.2746860300000000    0.6290447700000000    T  T  T
    0.7212017800000000    0.2995071900000000    0.4984500900000000    T  T  T
    0.7628118200000000    0.1990861000000000    0.5410237800000000    T  T  T
    0.8122165000000000    0.3896466500000000    0.6133826600000000    T  T  T
    0.9081545200000000    0.1960127600000000    0.6109336700000000    T  T  T
    0.4372108500000000    0.8752953500000000    0.5514189400000000    T  T  T
    0.5076360900000000    0.7562744300000001    0.5113985400000000    T  T  T
    0.9162916700000000    0.9287180900000001    0.3510998900000000    T  T  T
    0.8005792100000000    0.9470836500000001    0.3876742000000000    T  T  T
    0.0283405800000000    0.9622933100000000    0.5781812000000000    T  T  T
    0.8698920600000000    0.9889587600000000    0.5961905600000000    T  T  T
    0.3152239500000000    0.0617982100000000    0.4637119500000000    T  T  T
    0.4203942800000000    0.1450836300000000    0.4647417200000000    T  T  T
    0.1174573800000000    0.7493764700000000    0.4618924200000000    T  T  T
    0.0990764000000000    0.8059785800000000    0.5112063500000000    T  T  T
    0.5428418900000000    0.2975660200000000    0.3322380800000000    T  T  T
    0.5196997799999999    0.1979756300000000    0.3661833400000000    T  T  T
    0.1099343800000000    0.9998161600000000    0.4853623200000000    T  T  T
    0.0712776500000000    0.1282277300000000    0.4483123200000000    T  T  T
    0.2879327900000000    0.6245378100000000    0.3258406600000000    T  T  T
    0.1670117600000000    0.8615478900000000    0.3273786600000000    T  T  T
    0.1118269700000000    0.3602176200000000    0.3143687600000000    T  T  T
    0.1133759400000000    0.4502264200000000    0.3577675300000000    T  T  T
    0.7932953600000000    0.3688588600000000    0.2997650100000000    T  T  T
    0.7438792000000000    0.4161397100000000    0.3365454900000000    T  T  T

  -0.001040175090000   -0.002208015094430    0.000789677508000
  -0.003250663877999   -0.000567517507790   -0.000755276932000
   0.001075068750001   -0.000924354674830   -0.003147652704000
  -0.000356259353999    0.000870897198470    0.000436150160000
  -0.000308489441999   -0.002322250656969    0.001102354172000
   0.000406634004000   -0.004715834698001    0.000559930804000
   0.002322639959999   -0.001290981029420    0.001090682548000
   0.005212916220000   -0.000180972284620    0.002444898080000
  -0.001376038853998   -0.002728799872090   -0.000960451796000
  -0.000113478113999   -0.001020544082930    0.001576897832000
  -0.002889735654001   -0.000101381933669    0.000509865680000
   0.001234400082001    0.000103424894550   -0.000505258460000
   0.000842853900000    0.002196353192740   -0.003058579784000
  -0.000688879481999    0.001881141353630   -0.000779541624000
   0.000763630548000   -0.000536447477740   -0.002452883928000
   0.000978300276000   -0.005222999736461   -0.002383468480001
   0.001142054748000    0.002162474091480    0.000619210368000
   0.002188471379999    0.003375311867240   -0.002602772152000
  -0.002522762471999   -0.000422041668460   -0.002224058668000
  -0.000133431390001   -0.002485857774110    0.001043688904000
  -0.002159573532000   -0.000324149792960   -0.001943018248000
  -0.002323819464001    0.001110859978501    0.001019117064000
   0.000025064460001    0.000624465042320   -0.001411037912000
  -0.001701827688001   -0.001421219785520    0.001373258708001
  -0.004186256279999   -0.002907644072460    0.000837592596000
  -0.003224862227999    0.003823741780400   -0.002638094172000
  -0.000060941039999    0.002377665970840   -0.001330872284000
  -0.002685091709999   -0.000390801391670   -0.001087611067999
  -0.000283080960003    0.002678662207160   -0.001814016088001
   0.000865952519998    0.002785917653361    0.002955685204000
  -0.000725591544000   -0.000949125575501   -0.000289640564000
   0.000303525695999    0.002959058587940    0.000077708444000
   0.000845114616000    0.001437393225820   -0.001137061896000
  -0.003401443806000    0.001019522602490    0.000021807508000
  -0.001483668594000    0.001841814356689    0.002654373016001
  -0.001471283802000    0.002097014219950    0.002064956003999
  -0.000109497288001   -0.001478082196680   -0.001743679196001
   0.002395228601999    0.002694069537130    0.003637553764000
   0.002740872420000   -0.000143177508341    0.002629186880001
  -0.001902785682000   -0.003545643730610    0.001331793727999
   0.000940212126000    0.002454702620690   -0.002294395559999
  -0.000048654540000    0.000369094932320    0.001043996051999
   0.000936870198000   -0.002491816410011   -0.000417721280001
   0.001687427909999   -0.001708511159270    0.006531195071999
  -0.000607002245999    0.001370230886890    0.004086911287999
   0.004269755333999   -0.002844227161811   -0.001479224768000
   0.000767463936000    0.000880005399060   -0.000901479380000
  -0.002814640566000    0.004347846369490   -0.000099515952001
  -0.000813120570000   -0.002306928450370    0.001235349256000
  -0.000568570074000    0.001895271833050   -0.002671266156000
   0.002021030958002    0.000957382542390    0.001049831864000
  -0.003146326920000    0.001581592214600   -0.000185517392000
   0.002060200320001   -0.001055019047780   -0.000526758820000
   0.000008305673999    0.001629176178430   -0.001858245400000
   0.000616929737999   -0.000207105159211    0.004237106660000
   0.002928905016001   -0.000134494924600    0.001129383196000
   0.001748123220001   -0.001944728511020   -0.002397904436000
   0.001028429196001   -0.000603354446560   -0.002193958164000
  -0.002856660396001    0.002089097746540   -0.000430314348000
   0.000845409492001    0.002734162644400    0.003267747572000
  -0.002414051520001    0.000630764171701    0.001011131216000
   0.001549475088002    0.000974322093020    0.000885814832000
   0.001358248002001   -0.004687658862530   -0.002272895200000
  -0.000545766329999   -0.001080470935410    0.000352298756000
  -0.002106151830000    0.004635733606830    0.001002223924001
   0.005353129758001   -0.002282923660029   -0.000430007200002
  -0.002800683102000   -0.000946146257550   -0.001076246592001
   0.003024936300000   -0.005189631375420   -0.005796804204000
  -0.002227542449999    0.002416056610710   -0.002076320479999
   0.002487819666000    0.000763471505531   -0.002701673807998
   0.008536709346002    0.001867181120950    0.000702447476000
  -0.004494450846000   -0.004111373647630   -0.005536956996000
  -0.007505822850002   -0.001582698818410    0.006644225536002
   0.005031321750002   -0.001982608410670    0.003671032895999
  -0.001267180464001    0.007330824624399   -0.005997064699999
   0.004588123122000    0.002238829754370    0.009633082724001
   0.002858478797999    0.003968366386030    0.001694842663998
  -0.004397731518001   -0.004896551612510   -0.001138904784000
  -0.004107720972000   -0.001871692659559   -0.000567609503999
  -0.001449168102001    0.000361518952390   -0.002468241328000
  -0.002350112574000   -0.000381778314450    0.006311277104000
   0.002171860032000    0.003071761929820   -0.001759650891998
   0.000659539320000   -0.000267968368760   -0.000636103508000
   0.008099653968001    0.002980339430440   -0.000178760135999
   0.000025211898000   -0.006472355437950    0.004555311988000
   0.002497501428000    0.000212297684780    0.001848109516001
   0.002121927695999    0.001996483519980    0.001348379720000
   0.001096643844001   -0.006216048970880   -0.000461643443998
   0.003067889904000    0.003129986314900   -0.003952994760001
   0.004251571314000   -0.004239399196111    0.005735374604001
  -0.008022543894000   -0.000901541611670    0.001104811356001
   0.002952101928000    0.004460805081480   -0.004618891624000
   0.002524630020000   -0.001699743452161    0.003643082427999
   0.001521216137999   -0.004445567998250    0.000738383792001
   0.014213711244000    0.011902971073839   -0.024923831608000
  -0.012698097750000   -0.014373336394611   -0.018531774580001
   0.003102292104000   -0.018010913364821   -0.015037044636003
  -0.009898446713999    0.004866077446049   -0.001855481068002
   0.015792329909999    0.041147360207449    0.000377177744001
   0.011825019060000    0.002240447098400    0.001008981180000
   0.001525786716000   -0.019866092090600   -0.012258276679999
   0.007622790330000    0.007339422084770   -0.000515394344001
  -0.000918587886000    0.030087791483570   -0.009776213692000
  -0.017190435318000    0.005264284570910    0.002027176800000
  -0.028066248534000   -0.012953308336270   -0.003788056283998
   0.012159752465999    0.008251263624210    0.009354499488001
   0.009366588701999   -0.027580737990330    0.013052561408001
  -0.002073715469999   -0.021068800185330   -0.017417441636001
  -0.019091500890000   -0.014847133072030    0.010025925016000
   0.014971296834000   -0.015005803033710    0.000415878392001
   0.013360143515998   -0.031412566490880   -0.008751567964000
  -0.009384232116000    0.017922385060020   -0.024585968807999
  -0.019450217544000   -0.008620103186420    0.008381147475999
   0.019161583085999    0.002322931643929    0.010192092083999
  -0.013285736472000   -0.006275805576621    0.034525278087999
  -0.004621296672000   -0.019650048977540   -0.007883260568001
   0.015619778304000    0.024707398635980   -0.000501265535998
  -0.012023912921999   -0.012131186828810   -0.000712583359999
   0.020754601530000    0.014054634497330   -0.008908520591998
   0.000131760426001    0.018066839418910    0.016092712312002
  -0.005672873633999   -0.001122351633450   -0.009359106708001
   0.005211441839999   -0.003074826371140   -0.013658871559999
   0.011639099742000   -0.025256699742590   -0.000191353203999
   0.000743923001998   -0.007491963163810   -0.010536404991999
  -0.008576861628001    0.010965933016880   -0.014528100400000
  -0.009481344612000   -0.009928108889841   -0.015193997264001
   0.003050787096000    0.014322687989460   -0.001520075452000
  -0.002217614957999    0.037105191859631   -0.001662592123999
  -0.009517614360000    0.015291562186800   -0.015255734011999
   0.005387777687998   -0.001058083489101   -0.006100266428000
   0.021794825766000    0.017954817063990    0.003878972092000
  -0.023754375078000   -0.028152426543250   -0.015091102684003
  -0.020008663541999    0.001860541498090    0.005152407699999
   0.003199158870000    0.010384625523150   -0.011055792260002
   0.007303980228000   -0.000570156332260    0.039580627020001
  -0.002115931884001    0.030317709705940   -0.015729970523999
   0.024612021924000   -0.005057349658440    0.006910215703996
   0.024401775335999   -0.014130479420001   -0.016043261483997
   0.025043474658000    0.016079378976150   -0.028652608328002
  -0.018698382036002   -0.019807867705520   -0.007936704320000
   0.028677035022000    0.000689243926891   -0.006328170243997
  -0.004298653182001    0.006882820328089   -0.030045524508004
  -0.026153387922000   -0.003040181159550    0.002974114083999
   0.020783597670001   -0.004532564082390   -0.045171334916001
   0.011097117654000   -0.033260339483469   -0.042730736908002
   0.012640940952001   -0.005713821087880   -0.020227845836001
  -0.011578404432000   -0.001306813976240   -0.015131646220000
  -0.014648800781999   -0.021066076237490   -0.008861219800000
   0.103457075882000    0.494938239063790   -0.020146144468001
   0.005538459324000    0.015488367418240    0.011969250412001
  -0.007578755514000    0.003330962591471   -0.025528298872000
  -0.020634095537999    0.007921836182311   -0.012081052283998
   0.027525101928000   -0.014457012667320   -0.010670935816002
  -0.013360290954000   -0.014330263969390   -0.031460862491999
  -0.000437153670001   -0.001915871688590    0.004019031580000
  -0.003749888945999    0.001678036992810    0.001401516324000