 Ni_Pol_COOHCH2
   1.000
    9.8292000000000002    0.0000000000000000    0.0000000000000000
    4.9146000000000001    8.5123370000000005    0.0000000000000000
    0.0000000000000000    0.0000000000000000   33.0128020000000006
   Ni   O    H    C 
   64   35   63    2
Selective Dynamics
Direct
    0.8161304600000000    0.5889720300000000    0.1200248400000000    T  T  T
    0.3267620200000000    0.0893950100000000    0.1211907300000000    T  T  T
    0.8281435400000000    0.0930463300000000    0.1197676300000000    T  T  T
    0.3295063100000000    0.5878229699999999    0.1215391800000000    T  T  T
    0.5760458100000000    0.8344788000000000    0.1202235300000000    T  T  T
    0.8191150400000000    0.8479825300000000    0.1227014700000000    T  T  T
    0.0724901800000000    0.3403221100000000    0.1244834100000000    T  T  T
    0.8360157000000000    0.3349392400000000    0.1203170300000000    T  T  T
    0.5719467400000000    0.5928171900000000    0.1215288300000000    T  T  T
    0.0639449900000000    0.5965508800000000    0.1207646700000000    T  T  T
    0.0879175800000000    0.0802031900000000    0.1190218400000000    T  T  T
    0.5738104600000000    0.0977474800000000    0.1218458600000000    T  T  T
    0.3280706100000000    0.8348992500000000    0.1225252200000000    T  T  T
    0.0801046300000000    0.8404303200000000    0.1228029800000000    T  T  T
    0.3222068800000000    0.3505104500000000    0.1209987600000000    T  T  T
    0.5919944600000000    0.3370575900000000    0.1200636500000000    T  T  T
    0.9027577300000000    0.6755592000000000    0.1801070900000000    T  T  T
    0.9091169900000000    0.4163760100000000    0.1846521800000000    T  T  T
    0.6575941300000000    0.6625301300000001    0.1839264600000000    T  T  T
    0.1609415800000000    0.1699753800000000    0.1824700600000000    T  T  T
    0.9123237000000000    0.1680955700000000    0.1818578300000000    T  T  T
    0.9001498900000000    0.9310558400000000    0.1838089500000000    T  T  T
    0.3999714700000000    0.9174234300000000    0.1811284900000000    T  T  T
    0.4073945200000000    0.1633951400000000    0.1839598900000000    T  T  T
    0.6569618800000000    0.1702797100000000    0.1802636900000000    T  T  T
    0.1572538500000000    0.6764534000000000    0.1817402100000000    T  T  T
    0.4113469500000000    0.6702796700000000    0.1815242800000000    T  T  T
    0.4119996000000000    0.4224517000000000    0.1833386400000000    T  T  T
    0.6487928500000000    0.9262575600000000    0.1820988300000000    T  T  T
    0.1498871700000000    0.4269275600000000    0.1838753800000000    T  T  T
    0.6698207800000000    0.4155115900000000    0.1824294700000000    T  T  T
    0.1496954000000000    0.9144384500000000    0.1814778700000000    T  T  T
   -0.0151515400000000    0.2441323400000000    0.2425988600000000    T  T  T
    0.4925267400000000    0.2432750700000000    0.2535877500000000    T  T  T
    0.9922509600000000    0.7433537000000000    0.2467538300000000    T  T  T
    0.4914184300000000    0.7417669500000000    0.2427834300000000    T  T  T
    0.7453016300000000    0.7512614100000000    0.2409150700000000    T  T  T
    0.9910610300000000    0.5037165200000000    0.2452934600000000    T  T  T
    0.7641990700000000    0.4878715800000000    0.2525409000000000    T  T  T
    0.2266621000000000    0.0110356800000000    0.2433559200000000    T  T  T
   -0.0142423700000000   -0.0038364600000000    0.2459693100000000    T  T  T
    0.4847534600000000   -0.0008574100000000    0.2416793300000000    T  T  T
    0.2348865100000000    0.7579304700000000    0.2434887800000000    T  T  T
    0.7322943700000000    0.9994346900000000    0.2462057800000000    T  T  T
    0.2389723600000000    0.2609415200000000    0.2484794400000000    T  T  T
    0.7366461600000000    0.2480039400000000    0.2423416100000000    T  T  T
    0.2531382400000000    0.4920382600000000    0.2442708700000000    T  T  T
    0.5084830000000000    0.4886028700000000    0.2435951700000000    T  T  T
    0.9970724600000000    0.2558556800000000    0.0591330300000000    F  F  F
    0.4999617900000000    0.2500875900000000    0.0594854500000000    F  F  F
    0.9968841700000000    0.7476992000000000    0.0595123700000000    F  F  F
    0.5054474500000000    0.7476859100000000    0.0599706800000000    F  F  F
    0.7507219900000000    0.7486395200000000    0.0599869200000000    F  F  F
    0.9979410800000000    0.5014025600000001    0.0599954500000000    F  F  F
    0.7507273000000000    0.5014379000000000    0.0601539400000000    F  F  F
    0.2484077800000000    0.9989653800000000    0.0601723600000000    F  F  F
    0.0026835400000000    0.9989392800000000    0.0602141100000000    F  F  F
    0.5037179000000001    0.9979203300000000    0.0602187800000000    F  F  F
    0.2483221600000000    0.7533767800000000    0.0603571800000000    F  F  F
    0.7484136200000000    0.9978805200000000    0.0603966000000000    F  F  F
    0.2473094800000000    0.2543786800000000    0.0604625600000000    F  F  F
    0.7483561600000000    0.2543461600000000    0.0604678400000000    F  F  F
    0.2472921900000000    0.4989472600000000    0.0606285500000000    F  F  F
    0.5037960400000000    0.4989156700000000    0.0606927000000000    F  F  F
    0.3934476700000000    0.9175920500000000    0.2796194600000000    T  T  T
    0.8236301700000001    0.0797102900000000    0.2823846200000000    T  T  T
    0.3306676600000000    0.5912662200000000    0.2790031500000000    T  T  T
    0.2557735000000000    0.5757778600000000    0.5756542200000000    T  T  T
    0.6064960400000000    0.2221142100000000    0.5026546100000000    T  T  T
    0.4792265600000000    0.8668178700000000    0.5227441700000000    T  T  T
    0.3034948900000000    1.0600063900000001    0.4442414600000000    T  T  T
   -0.2097444600000000    0.9637929600000000    0.4575157900000000    T  T  T
    0.2945165400000000    1.1507984200000001    0.5669466500000000    T  T  T
    0.9696884900000000    0.6847629500000000    0.3223499400000000    T  T  T
    0.3043284900000000    0.6708520800000000    0.3646614300000000    T  T  T
    0.5465442500000000    0.7727179600000000    0.3438035800000000    T  T  T
    1.0330010599999999    0.0042426400000000    0.4789056600000000    T  T  T
    0.1909454900000000    0.6860012400000000    0.4980987100000000    T  T  T
    0.8210256600000000    0.9514102500000000    0.5801723700000000    T  T  T
    0.5230483200000000    0.5749126900000000    0.5522313800000000    T  T  T
    0.8686956500000000    0.9797233600000000    0.3523011300000000    T  T  T
    0.8085831999999999    0.7586735000000000    0.5171855900000000    T  T  T
    0.4041025700000000    0.6725533200000000    0.4390814700000000    T  T  T
    0.8396527900000000    0.4936147600000000    0.4261213800000000    T  T  T
    0.7638564000000000    0.5612139800000000    0.3069388400000000    T  T  T
    0.1402820500000000    0.3709879500000000    0.4603109400000000    T  T  T
    0.6255125900000000    0.8249633300000000    0.4202310400000000    T  T  T
    0.0862475500000000    0.7858921200000000    0.6310986500000000    T  T  T
   -0.0809694400000000    1.1387660500000001    0.5524816700000000    T  T  T
    0.4069422000000000    0.3927306400000000    0.4425187400000000    T  T  T
    0.1957779200000000    0.0007641500000000    0.3751802900000000    T  T  T
    0.8704194400000000    0.3259834900000000    0.3614346700000000    T  T  T
    0.5044002200000000    0.2421877900000000    0.5770115700000000    T  T  T
    0.0974375500000000    0.4353764600000000    0.5413565000000000    T  T  T
    0.1469329900000000    1.0225699600000000    0.6160198700000000    T  T  T
    0.7407324800000000    0.4320858200000000    0.4977902100000000    T  T  T
    0.6316178400000000    0.2353624200000000    0.3765226200000000    T  T  T
    0.2449284600000000    0.4468795500000000    0.3531633300000000    T  T  T
    0.4497564000000000    0.2920701100000000    0.3156299000000000    T  T  T
    0.1887018500000000    0.6610809900000000    0.5963012200000000    T  T  T
    0.2388700000000000    0.6313080599999999    0.5505101000000000    T  T  T
    0.5804395300000000    1.2402166500000000    0.5322689500000000    T  T  T
    0.6712827300000000    1.2676702600000000    0.4993472800000000    T  T  T
    0.4480206300000000    0.8600512100000000    0.4943230800000000    T  T  T
    0.5973296600000000    0.8274666899999999    0.5243196900000000    T  T  T
    0.2483880400000000    1.1766983000000000    0.4496120400000000    T  T  T
    0.2746350200000000    1.0399244200000000    0.4180191500000000    T  T  T
   -0.1184687900000000    0.9919947099999999    0.4572981800000000    T  T  T
   -0.3013725900000000    1.0648282600000001    0.4690072400000000    T  T  T
    0.2115206600000000    1.2553892200000001    0.5567588000000000    T  T  T
    0.3390993900000000    1.0842455499999999    0.5421021900000000    T  T  T
    0.0678028000000000    0.5940408000000000    0.3362459400000000    T  T  T
    0.8793490500000000    0.8742769000000000    0.3473425500000000    T  T  T
    0.2807403300000000    0.5820860900000000    0.3615176700000000    T  T  T
    0.3327580400000000    0.6720715900000001    0.3362052100000000    T  T  T
    0.4673608800000000    0.8510607400000000    0.3240185400000000    T  T  T
    0.5825558700000000    0.8264099600000000    0.3629592600000000    T  T  T
    1.1159219899999999    0.0242859000000000    0.4693562000000000    T  T  T
    0.9912259600000000    1.0605819400000001    0.5055508200000000    T  T  T
    0.1180289000000000    0.8001093900000000    0.4933433500000000    T  T  T
    0.2762602100000000    0.6683193800000000    0.4788906000000000    T  T  T
    0.7136791200000000    1.0423342499999999    0.5820522700000000    T  T  T
    0.8217107800000000    0.8718492600000000    0.5628175500000000    T  T  T
    0.4759963100000000    0.6884369400000000    0.5452668300000000    T  T  T
    0.4487415100000000    0.5641787700000001    0.5703984000000000    T  T  T
    0.7749874800000000    1.0522103000000000    0.3689765300000000    T  T  T
    0.8428174300000000    1.0273272200000001    0.3198983700000000    T  T  T
   -0.1031495700000000    0.6529190400000000    0.5161355200000000    T  T  T
   -0.1900706700000000    0.8241736300000000    0.4934664000000000    T  T  T
    0.4800256400000000    0.7077475100000000    0.4402149600000000    T  T  T
    0.3819083500000000    0.6669144500000000    0.4088966300000000    T  T  T
    0.7848577400000000    0.4937437900000000    0.4506271500000000    T  T  T
    0.7811814400000000    0.5967577300000000    0.4136547500000000    T  T  T
    0.6751949300000000    0.6564296300000000    0.3233886300000000    T  T  T
    0.7915508400000000    0.4683119000000000    0.3263031700000000    T  T  T
    0.0450877400000000    0.4114146400000000    0.4439673200000000    T  T  T
    0.1919183500000000    0.4323913700000000    0.4535179600000000    T  T  T
    0.7003819600000000    0.8562430000000000    0.4265925700000000    T  T  T
    0.5279298800000000    0.9023890200000000    0.4338522800000000    T  T  T
    0.1498688300000000    0.8379368500000000    0.6354243500000000    T  T  T
    0.9789339000000000    0.8570902900000000    0.6215082400000000    T  T  T
    0.0246729000000000    1.0673807099999999    0.5640570200000000    T  T  T
    0.8602572500000000    1.0809653500000000    0.5569581200000000    T  T  T
    0.4772811400000000    0.3277535700000000    0.4656657000000000    T  T  T
    0.4157281600000000    0.4891020700000000    0.4416842800000000    T  T  T
    0.1870258400000000   -0.0911354900000000    0.3708835700000000    T  T  T
    1.0978433700000001    0.0947434400000000    0.3634671300000000    T  T  T
    0.7974930700000000    0.2891138100000000    0.3660764600000000    T  T  T
    0.8874231100000000    0.3637479800000000    0.3865797200000000    T  T  T
    0.4236125200000000    0.2117025300000000    0.5730707000000000    T  T  T
    0.4513667000000000    0.3421952800000000    0.5910671100000000    T  T  T
    0.1731535200000000    0.4645164300000000    0.5540294300000000    T  T  T
    0.1357677800000000    0.4110872400000000    0.5134685400000000    T  T  T
    0.2157072100000000    1.0394963900000000    0.5975060500000000    T  T  T
    0.1429460100000000    1.0844744500000001    0.6389739600000000    T  T  T
    0.6556769400000000    0.4852977400000000    0.5194971200000000    T  T  T
    0.8317516300000000    0.3818289000000000    0.5144379700000000    T  T  T
    0.5671449700000000    0.2834062900000000    0.4017079900000000    T  T  T
    0.5520396400000001    0.2734572400000000    0.3516632300000000    T  T  T
    0.8948162300000000    0.6467926600000000    0.3185867500000000    T  T  T
    0.0975126200000000    0.3248305300000000    0.3217501500000000    T  T  T
    0.2894248800000000    0.1371838600000000    0.3110057000000000    T  T  T
    0.3027194500000000    0.3477865400000000    0.3249778400000000    T  T  T
    0.2158208400000000    0.2739680600000000    0.3084171200000000    T  T  T

   0.000000000000000    0.000000000000000    0.000000000000000
   0.000000000000000    0.000000000000000    0.000000000000000
   0.000000000000000    0.000000000000000    0.000000000000000
   0.000000000000000    0.000000000000000    0.000000000000000
   0.000000000000000    0.000000000000000    0.000000000000000
   0.000000000000000    0.000000000000000    0.000000000000000
   0.000000000000000    0.000000000000000    0.000000000000000
   0.000000000000000    0.000000000000000    0.000000000000000
   0.000000000000000    0.000000000000000    0.000000000000000
   0.000000000000000    0.000000000000000    0.000000000000000
   0.000000000000000    0.000000000000000    0.000000000000000
   0.000000000000000    0.000000000000000    0.000000000000000
   0.000000000000000    0.000000000000000    0.000000000000000
   0.000000000000000    0.000000000000000    0.000000000000000
   0.000000000000000    0.000000000000000    0.000000000000000
   0.000000000000000    0.000000000000000    0.000000000000000
   0.001934533998000   -0.002327528305910   -0.000234721022220
  -0.000159921084000    0.001091451850140    0.001976476455740
   0.000280328783999    0.001683399765119   -0.003018360486861
  -0.000864576432000   -0.000594331369340   -0.001230717258561
   0.001182108738002   -0.000810800099250    0.001627531138601
   0.004417488209999   -0.001599212752190    0.000935252680660
   0.000808992306000    0.002565873741910    0.003044110472421
  -0.001820023818000    0.000132877580570   -0.000521272143580
   0.003566869241999   -0.002239680988070    0.000934262296600
   0.000791840352000   -0.002363194997940    0.004383769977579
  -0.000506498676001    0.004092731629600    0.000404406824500
  -0.000241700028001   -0.000401441812920   -0.000138323640379
   0.000789432198001   -0.003209236172371    0.000865595668441
   0.000656148246000   -0.000206594418990    0.003146120030600
  -0.002686172921999   -0.000171353343810   -0.001405685109161
   0.004016800872000    0.001579038513499   -0.001142573077220
   0.000119228196000   -0.001640667833380    0.000808483520981
   0.003273811643999    0.000473796677420    0.000701852170520
  -0.001432655045999   -0.001373125081470   -0.003636360140300
  -0.000292467846000   -0.001933236856071    0.002288777562660
  -0.001820072964000   -0.001036291906380   -0.000968925738700
  -0.000283818150001   -0.001996057903130    0.002817312522680
   0.001480965563999    0.000201231646680    0.001209589065279
   0.003119689788000   -0.000012257765280    0.002889940687080
  -0.001813978860000   -0.000424765616300   -0.000561547762018
   0.000600416682000    0.001197600692530   -0.001569098479060
  -0.000932103036000    0.000890049956720    0.000669499624561
   0.000510774378002    0.001650286774192   -0.002407953777880
  -0.001279466964000    0.004919109305560   -0.001275284541260
  -0.002695019202001   -0.000153136942630    0.004219696351640
  -0.000205872594000   -0.003092446908730   -0.000640118230780
  -0.001598375357999   -0.001432370946990    0.001846075887840
   0.000000000000000    0.000000000000000    0.000000000000000
   0.000000000000000    0.000000000000000    0.000000000000000
   0.000000000000000    0.000000000000000    0.000000000000000
   0.000000000000000    0.000000000000000    0.000000000000000
   0.000000000000000    0.000000000000000    0.000000000000000
   0.000000000000000    0.000000000000000    0.000000000000000
   0.000000000000000    0.000000000000000    0.000000000000000
   0.000000000000000    0.000000000000000    0.000000000000000
   0.000000000000000    0.000000000000000    0.000000000000000
   0.000000000000000    0.000000000000000    0.000000000000000
   0.000000000000000    0.000000000000000    0.000000000000000
   0.000000000000000    0.000000000000000    0.000000000000000
   0.000000000000000    0.000000000000000    0.000000000000000
   0.000000000000000    0.000000000000000    0.000000000000000
   0.000000000000000    0.000000000000000    0.000000000000000
   0.000000000000000    0.000000000000000    0.000000000000000
   0.001522199058000   -0.005456493140369   -0.011267269322600
   0.004486636631999    0.001674376687900   -0.000828951458221
  -0.000802161011999   -0.001426327187720    0.000174307594561
  -0.002887671521999    0.010914603624770    0.001366069746762
  -0.000520505286000   -0.004637436074230    0.003069860457977
  -0.000700330500001   -0.000639106261960   -0.003021991895078
   0.006638789118000    0.002628694788969   -0.003855565145580
   0.000874749654000   -0.000369009808949    0.000304047906422
  -0.001937138736002    0.003449879939360   -0.002843062508241
   0.004217758866000   -0.000241154507211    0.004902731225020
   0.000306425310000    0.003942999621771    0.003478558946741
   0.002497845450000   -0.000654683838670    0.001067634016680
   0.003691405206000   -0.003244817741030   -0.008857004648579
   0.000042658728001   -0.007260342474039    0.001841784223579
  -0.001274159195999    0.000985558377860    0.002051085388260
   0.000719988899999    0.004537075620999    0.002112489199977
   0.001218280193998    0.002656615254331   -0.011286086619739
  -0.003437713554000    0.003277845608590   -0.000349605573177
  -0.002917355706000   -0.001779674296590   -0.001463787640679
  -0.006164481072000    0.008838870247320   -0.003453799345241
   0.002679292482000    0.000056607041049    0.006939951236440
  -0.000144096072000    0.000416423526040    0.000038294850320
   0.002650247196000    0.003580459188940   -0.002171251987541
   0.008116412754000    0.004811938982731    0.004077741303043
   0.003875112953999   -0.001133077178071    0.004660747386357
   0.000314681838000   -0.000356581796931   -0.001022406477942
  -0.000517458234000    0.004073749118090    0.002345889710119
   0.002957606280001    0.002425164811300   -0.001024387246060
   0.003488333934000    0.005053689353530   -0.001744726585699
   0.008902159002000    0.001839260655590   -0.001879088689840
   0.002738759141999    0.002957441243909   -0.006569877726019
   0.001265755229999    0.009040527510850   -0.007628598286161
  -0.006403625508000    0.000784496977920   -0.002798165097518
  -0.002337088884000    0.005572175800200   -0.006161179237260
   0.002306569218001   -0.003633491048450   -0.004666359562702
  -0.003751559910000   -0.012767739389669   -0.000707134218839
   0.002787020514001    0.019688609864151   -0.006152595908738
  -0.001753922447998   -0.005273733264980    0.009223116622760
   0.021899113578000   -0.022767011416830    0.023048217844320
   0.001591937232000   -0.009805701483780    0.033509314542076
   0.009488028467999   -0.017644542380340    0.008541732389482
  -0.027962452181999   -0.000260392388828    0.003607969130579
  -0.008464857893999    0.036042000968330   -0.007709479651060
  -0.020707421370000    0.000399483975411   -0.032141594155222
  -0.012383907372000   -0.006548370607360   -0.010015423870758
   0.003040269852001   -0.001044463749901   -0.002480581942280
  -0.008496999377998    0.010382412315531    0.012351409740276
   0.009603472422000   -0.006037034523770    0.005358638020640
   0.001465386282000    0.000774878037110   -0.036348415514080
   0.010943487258000   -0.006863241952990    0.021291606649900
   0.005286684366000    0.047686537490850    0.010552542159299
   0.013167048882000    0.002964591606990    0.002312546780100
  -0.009666428448000   -0.035923934854140   -0.017156092943361
  -0.001163334965998    0.020184368371030    0.010162660967682
   0.007755287946001   -0.020036083460491    0.010445580680820
   0.004019700486000   -0.013806244503670    0.012232563653079
   0.000426439841999   -0.019593441936490    0.008135014668841
  -0.002762300076000   -0.022744453723780   -0.005208759899560
  -0.026242833642002   -0.017495661606209   -0.007362184974021
   0.005890049808000    0.006260313123280    0.011498689064620
   0.001284381563999    0.010960825614680    0.019899456789563
  -0.009006250230000   -0.007795002361011   -0.006188579862922
   0.006419155644000   -0.010462343159961    0.004348446279440
   0.003049558446000   -0.032276483573010    0.015023135806139
   0.004087030506000   -0.005744891117930   -0.010233308363961
   0.002389036206001   -0.003616636621190    0.007399489440278
  -0.025968598962000    0.005591498805189    0.000362810693982
  -0.007828908653998    0.010030171810470   -0.023014214658261
   0.011661756047999    0.007346317077740    0.000480666397120
  -0.022642889141999    0.013224341146350   -0.012039108633362
   0.005589620309999   -0.012961139686310    0.009279238386162
   0.005713664813999    0.024899862575550   -0.014974937115220
  -0.012593957375999   -0.009983268833600   -0.010522170381458
   0.024331840578000    0.016182888994070    0.004197247646280
   0.004278749052000    0.000966490742980    0.005062183058680
  -0.011343486552001    0.003082998214660    0.012136826527279
  -0.026644798775999    0.014299023692599   -0.004523744258062
  -0.002902611905999    0.023190925799430    0.009025700066800
  -0.006552046427998    0.017623772278059    0.040471054227840
   0.022128723690000    0.023390114485230    0.001449592135819
  -0.025024111134000   -0.033443184482230    0.000492551005841
  -0.001025677020000   -0.018176903936320    0.028481134669459
   0.012214845132000    0.030017564703320   -0.009696520203441
  -0.019829428080000    0.004719069386060    0.023334768965681
  -0.019420828235997    0.008939145577180    0.015449000951939
  -0.007730321778000   -0.009593659169110    0.039053154381939
   0.008879895863999   -0.004641777366100    0.014827039762263
  -0.013512741846000    0.018287819687430   -0.007402130464438
  -0.014102592138000   -0.003645238073510   -0.004626083944263
  -0.007988190840000   -0.006532026920320   -0.033409615880039
   0.027579309966000   -0.000011151161470   -0.004916926729880
  -0.027259566090001   -0.002464747178350    0.015990080776721
   0.014949918324000   -0.000010044557660   -0.002881027230536
   0.004868746781999   -0.003761516596930    0.014668248184639
  -0.002229262560001   -0.001316177546940    0.040114515966239
  -0.013189557750001    0.007884211652769    0.022619051418321
  -0.008925847374000    0.004858075849270    0.003108155308301
  -0.040321933992000    0.020176962637840    0.015692305302681
   0.005770870758001   -0.006992288981909    0.003250440484919
   0.001825282440000    0.003712911152660    0.002003546953381