 Ni\(1\1\1)                             
   1.00000000000000     
     9.8291997910000006    0.0000000000000000    0.0000000000000000
     4.9145998955000003    8.5123367178000002    0.0000000000000000
     0.0000000000000000    0.0000000000000000   19.0128002167000005
   Ni   O    C    O    C    H 
    64     3     1     1     1     3
Selective dynamics
Direct
  0.8313598790813368  0.5854674614633151  0.2710602543634196   T   T   T
  0.3320657937952796  0.0848877888528343  0.2701534577439224   T   T   T
  0.8320432303238020  0.0852138369957729  0.2700784672774903   T   T   T
  0.3319304039508946  0.5855209534691742  0.2706557024883145   T   T   T
  0.5819635095768444  0.8349989512593335  0.2711684032341892   T   T   T
  0.8318153364852426  0.8353915366355107  0.2708211110137627   T   T   T
  0.0815818587377924  0.3350660807994761  0.2711074981227693   T   T   T
  0.8318314018590782  0.3352840854350091  0.2715387059128034   T   T   T
  0.5821241058807402  0.5852203106877037  0.2717736412995944   T   T   T
  0.0817544065502133  0.5850445737396192  0.2709012330697788   T   T   T
  0.0816844441412708  0.0857292958802679  0.2709593883418804   T   T   T
  0.5818502010485397  0.0850595554605446  0.2713017327730497   T   T   T
  0.3321337803284461  0.8352971643561804  0.2708813337517080   T   T   T
  0.0816378466916029  0.8349363062537017  0.2706701371564041   T   T   T
  0.3319009409781127  0.3352423954629511  0.2714614111941605   T   T   T
  0.5823014660404072  0.3354430907922345  0.2714768836599851   T   T   T
  0.9146164194926389  0.6688171593780345  0.3749329740618680   T   T   T
  0.9142702103749307  0.4192131770697715  0.3759808753891398   T   T   T
  0.6652223259638069  0.6675430055275097  0.3768389664758226   T   T   T
  0.1637371006987277  0.1691043196689636  0.3767847687916228   T   T   T
  0.9150090933380364  0.1692759945682482  0.3766176597248542   T   T   T
  0.9147320216740709  0.9196048082237692  0.3756361665743864   T   T   T
  0.4137450383937802  0.9195140692091351  0.3757622440617762   T   T   T
  0.4139760431038473  0.1683282217093437  0.3758337959508544   T   T   T
  0.6654821212036601  0.1686801674042947  0.3756807299067753   T   T   T
  0.1653117952206623  0.6688203085737242  0.3759417823266387   T   T   T
  0.4138772649789006  0.6693199647666550  0.3762026253156522   T   T   T
  0.4149035163752446  0.4194379431276470  0.3760044885183117   T   T   T
  0.6639259583005689  0.9200228348269128  0.3774795573085161   T   T   T
  0.1662741173059079  0.4173372464930655  0.3776784457836945   T   T   T
  0.6653559625149809  0.4187154463712925  0.3789900044977315   T   T   T
  0.1639962151581850  0.9195925702312632  0.3782248362416900   T   T   T
  0.9925336206590611  0.2591368599039287  0.4865156369270004   T   T   T
  0.4970201218615097  0.2514953470627981  0.4792797385492653   T   T   T
  0.9952647624047105  0.7493197926574717  0.4795884711385519   T   T   T
  0.5016096773324527  0.7505697948081309  0.4798438955467774   T   T   T
  0.7480084370967647  0.7525265594647486  0.4801408282646701   T   T   T
  0.9991151199562710  0.5037254354335726  0.4795946529611576   T   T   T
  0.7460387999828076  0.5053229287175570  0.4862000384193203   T   T   T
  0.2454871233013220  0.0005707059696126  0.4849716916761315   T   T   T
  0.0003800486519047  0.9993264703046806  0.4851007667405700   T   T   T
  0.5011051153866231  0.9993284357354056  0.4856213488661120   T   T   T
  0.2457837344966438  0.7554919082869654  0.4855800796359248   T   T   T
  0.7457251074961043  0.9981951061382187  0.4855273121179283   T   T   T
  0.2459347098413935  0.2545414613604782  0.4858684344163332   T   T   T
  0.7451310657971533  0.2511092155242892  0.4845764880705057   T   T   T
  0.2455375032669548  0.5003244767263402  0.4863330200621481   T   T   T
  0.4993192578114648  0.5005926060420416  0.4854269372741877   T   T   T
  0.9970724670000024  0.2558556729999992  0.1637003960000030   F   F   F
  0.4999617989999976  0.2500875830000027  0.1643123180000003   F   F   F
  0.9968841629999972  0.7476992069999966  0.1643590660000029   F   F   F
  0.5054474789999972  0.7476858750000019  0.1651548480000002   F   F   F
  0.7507219769999978  0.7486395119999969  0.1651830500000031   F   F   F
  0.9979410790000003  0.5014025589999989  0.1651978470000017   F   F   F
  0.7507272960000009  0.5014379059999996  0.1654730480000026   F   F   F
  0.2484077359999972  0.9989653640000000  0.1655050250000016   F   F   F
  0.0026835399999996  0.9989392600000002  0.1655775309999967   F   F   F
  0.5037179199999997  0.9979203070000011  0.1655856309999990   F   F   F
  0.2483221529999966  0.7533767729999994  0.1658259459999982   F   F   F
  0.7484137009999969  0.9978805350000002  0.1658943890000018   F   F   F
  0.2473094730000014  0.2543786680000011  0.1660089160000027   F   F   F
  0.7483561820000020  0.2543461500000035  0.1660180820000008   F   F   F
  0.2472921950000000  0.4989472700000022  0.1662971330000005   F   F   F
  0.5037960519999984  0.4989156760000029  0.1664085250000014   F   F   F
  0.3320276811093719  0.0833900323924153  0.5452295664304435   T   T   T
  0.8311340953459251  0.0808967944516423  0.5453044688812283   T   T   T
  0.3305287699154523  0.5860084585677263  0.5453929215393029   T   T   T
  0.9259545625178583  0.3233951026969812  0.5774377991892877   T   T   T
  0.8051492342185081  0.4542002457520635  0.5878105891502509   T   T   T
  0.0136541350994865  0.2189556720161984  0.6382342402819139   T   T   T
  0.0865604573438567  0.2635313764699094  0.6614375392816103   T   T   T
  0.0909970775965013  0.0977389770498175  0.6211070299870695   T   T   T
  0.9282591077987882  0.2254588293158156  0.6774727389223842   T   T   T
 
  0.00000000E+00  0.00000000E+00  0.00000000E+00
  0.00000000E+00  0.00000000E+00  0.00000000E+00
  0.00000000E+00  0.00000000E+00  0.00000000E+00
  0.00000000E+00  0.00000000E+00  0.00000000E+00
  0.00000000E+00  0.00000000E+00  0.00000000E+00
  0.00000000E+00  0.00000000E+00  0.00000000E+00
  0.00000000E+00  0.00000000E+00  0.00000000E+00
  0.00000000E+00  0.00000000E+00  0.00000000E+00
  0.00000000E+00  0.00000000E+00  0.00000000E+00
  0.00000000E+00  0.00000000E+00  0.00000000E+00
  0.00000000E+00  0.00000000E+00  0.00000000E+00
  0.00000000E+00  0.00000000E+00  0.00000000E+00
  0.00000000E+00  0.00000000E+00  0.00000000E+00
  0.00000000E+00  0.00000000E+00  0.00000000E+00
  0.00000000E+00  0.00000000E+00  0.00000000E+00
  0.00000000E+00  0.00000000E+00  0.00000000E+00
  0.00000000E+00  0.00000000E+00  0.00000000E+00
  0.00000000E+00  0.00000000E+00  0.00000000E+00
  0.00000000E+00  0.00000000E+00  0.00000000E+00
  0.00000000E+00  0.00000000E+00  0.00000000E+00
  0.00000000E+00  0.00000000E+00  0.00000000E+00
  0.00000000E+00  0.00000000E+00  0.00000000E+00
  0.00000000E+00  0.00000000E+00  0.00000000E+00
  0.00000000E+00  0.00000000E+00  0.00000000E+00
  0.00000000E+00  0.00000000E+00  0.00000000E+00
  0.00000000E+00  0.00000000E+00  0.00000000E+00
  0.00000000E+00  0.00000000E+00  0.00000000E+00
  0.00000000E+00  0.00000000E+00  0.00000000E+00
  0.00000000E+00  0.00000000E+00  0.00000000E+00
  0.00000000E+00  0.00000000E+00  0.00000000E+00
  0.00000000E+00  0.00000000E+00  0.00000000E+00
  0.00000000E+00  0.00000000E+00  0.00000000E+00
  0.00000000E+00  0.00000000E+00  0.00000000E+00
  0.00000000E+00  0.00000000E+00  0.00000000E+00
  0.00000000E+00  0.00000000E+00  0.00000000E+00
  0.00000000E+00  0.00000000E+00  0.00000000E+00
  0.00000000E+00  0.00000000E+00  0.00000000E+00
  0.00000000E+00  0.00000000E+00  0.00000000E+00
  0.00000000E+00  0.00000000E+00  0.00000000E+00
  0.00000000E+00  0.00000000E+00  0.00000000E+00
  0.00000000E+00  0.00000000E+00  0.00000000E+00
  0.00000000E+00  0.00000000E+00  0.00000000E+00
  0.00000000E+00  0.00000000E+00  0.00000000E+00
  0.00000000E+00  0.00000000E+00  0.00000000E+00
  0.00000000E+00  0.00000000E+00  0.00000000E+00
  0.00000000E+00  0.00000000E+00  0.00000000E+00
  0.00000000E+00  0.00000000E+00  0.00000000E+00
  0.00000000E+00  0.00000000E+00  0.00000000E+00
  0.00000000E+00  0.00000000E+00  0.00000000E+00
  0.00000000E+00  0.00000000E+00  0.00000000E+00
  0.00000000E+00  0.00000000E+00  0.00000000E+00
  0.00000000E+00  0.00000000E+00  0.00000000E+00
  0.00000000E+00  0.00000000E+00  0.00000000E+00
  0.00000000E+00  0.00000000E+00  0.00000000E+00
  0.00000000E+00  0.00000000E+00  0.00000000E+00
  0.00000000E+00  0.00000000E+00  0.00000000E+00
  0.00000000E+00  0.00000000E+00  0.00000000E+00
  0.00000000E+00  0.00000000E+00  0.00000000E+00
  0.00000000E+00  0.00000000E+00  0.00000000E+00
  0.00000000E+00  0.00000000E+00  0.00000000E+00
  0.00000000E+00  0.00000000E+00  0.00000000E+00
  0.00000000E+00  0.00000000E+00  0.00000000E+00
  0.00000000E+00  0.00000000E+00  0.00000000E+00
  0.00000000E+00  0.00000000E+00  0.00000000E+00
  0.00000000E+00  0.00000000E+00  0.00000000E+00
  0.00000000E+00  0.00000000E+00  0.00000000E+00
  0.00000000E+00  0.00000000E+00  0.00000000E+00
  0.00000000E+00  0.00000000E+00  0.00000000E+00
  0.00000000E+00  0.00000000E+00  0.00000000E+00
  0.00000000E+00  0.00000000E+00  0.00000000E+00
  0.00000000E+00  0.00000000E+00  0.00000000E+00
  0.00000000E+00  0.00000000E+00  0.00000000E+00
  0.00000000E+00  0.00000000E+00  0.00000000E+00
