 Ni_CO2CH2
   1.000
    9.8292000000000002    0.0000000000000000    0.0000000000000000
    4.9146000000000001    8.5123370000000005    0.0000000000000000
    0.0000000000000000    0.0000000000000000   30.7148000000000003
   Ni   O    H    C 
   64   32   62    2
Selective Dynamics
Direct
    0.0697114600000000    0.0941390400000000    0.1160858500000000    T  T  T
    0.3248008600000000    0.0932837600000000    0.1187252800000000    T  T  T
    0.3173473500000000    0.8433585900000000    0.1184887300000000    T  T  T
    0.5749913800000001    0.3499611300000000    0.1168848000000000    T  T  T
    0.3273592900000000    0.5926862700000000    0.1201343100000000    T  T  T
    0.3124827100000000    0.3494819200000000    0.1164163000000000    T  T  T
    0.8233533900000000    0.0927493400000000    0.1177024400000000    T  T  T
    0.5744132600000000    0.0928756100000000    0.1183035600000000    T  T  T
    0.8162663500000000    0.3483317100000000    0.1180519500000000    T  T  T
    0.5591140700000000    0.6126593500000000    0.1232624700000000    T  T  T
    0.0747108900000000    0.8404481600000000    0.1213796400000000    T  T  T
    0.5639445600000000    0.8611508300000000    0.1198441200000000    T  T  T
    0.0745484900000000    0.3443093000000000    0.1184030300000000    T  T  T
    0.8273325900000000    0.5830623700000001    0.1206063600000000    T  T  T
    0.0694744100000000    0.5977171000000000    0.1199368200000000    T  T  T
    0.8181404600000000    0.8450615000000000    0.1217902500000000    T  T  T
    0.1511241200000000    0.1757196700000000    0.1805910800000000    T  T  T
    0.1560671000000000    0.9318732600000000    0.1857467600000000    T  T  T
    0.3966004300000000    0.1814669600000000    0.1826883200000000    T  T  T
    0.4155182200000000    0.9196712900000000    0.1846111800000000    T  T  T
    0.4143874500000000    0.4305498200000000    0.1844355200000000    T  T  T
    0.4037803300000000    0.6688192200000000    0.1911444600000000    T  T  T
    0.8962138900000000    0.1890119900000000    0.1861998700000000    T  T  T
    0.6608332200000000    0.1898134400000000    0.1836858900000000    T  T  T
    0.6577190200000000    0.4430442300000000    0.1874038100000000    T  T  T
    0.1560408300000000    0.6839039099999999    0.1856178500000000    T  T  T
    0.9048161900000000    0.4330663400000000    0.1842265500000000    T  T  T
    0.6610394500000000    0.6859220400000000    0.1888411700000000    T  T  T
    0.9052901700000000    0.9342821000000000    0.1889505500000000    T  T  T
    0.6568001700000000    0.9362444300000000    0.1898796100000000    T  T  T
    0.1631559200000000    0.4267302400000000    0.1844511200000000    T  T  T
    0.9075789600000000    0.6878491600000000    0.1872287000000000    T  T  T
    0.2383743600000000    0.0224830500000000    0.2491099700000000    T  T  T
    0.4900103500000000    0.2595688700000000    0.2504292400000000    T  T  T
    0.4983947900000000    0.5017962600000000    0.2519448400000000    T  T  T
    0.2385174200000000    0.2706541100000000    0.2494166700000000    T  T  T
   -0.0095525800000000    0.2714306400000000    0.2491903200000000    T  T  T
    0.7350615700000001    0.2784883700000000    0.2526738300000000    T  T  T
    0.5011379500000001    0.7585607000000000    0.2527006800000000    T  T  T
    0.2492664600000000    0.7554707200000000    0.2641740700000000    T  T  T
    0.4865961800000000    0.0184281700000000    0.2540972400000000    T  T  T
    1.0028336400000000    0.0136881800000000    0.2510714400000000    T  T  T
    0.2452622500000000    0.5146883300000000    0.2496666600000000    T  T  T
    0.7520198800000000    0.5134007900000001    0.2550751700000000    T  T  T
    0.7453021700000000    0.0259984800000000    0.2500276100000000    T  T  T
   -0.0022710800000000    0.7745128200000000    0.2498919800000000    T  T  T
    0.7306609100000000    0.7834759400000000    0.2585101800000000    T  T  T
   -0.0124677300000000    0.5255791900000000    0.2497696100000000    T  T  T
    0.2430102500000000    0.0039240000000000    0.0515594800000000    F  F  F
    0.4891285700000000    0.2605141400000000    0.0515221500000000    F  F  F
    0.4926225800000000    0.5130292700000000    0.0513839000000000    F  F  F
    0.2381737500000000    0.2746478600000000    0.0484684500000000    F  F  F
   -0.0110991000000000    0.2644517800000000    0.0520750300000000    F  F  F
    0.7430887400000000    0.2484337300000000    0.0501197100000000    F  F  F
    0.4938229500000000    0.7699683300000000    0.0539925500000000    F  F  F
    0.2541596100000000    0.7610014899999999    0.0503766800000000    F  F  F
    0.4983835600000000    0.0109508100000000    0.0485247600000000    F  F  F
    0.9945356100000000    0.0090831600000000    0.0504122500000000    F  F  F
    0.2374014200000000    0.5154023000000000    0.0504189900000000    F  F  F
    0.7438021200000000    0.5089338400000000    0.0511011500000000    F  F  F
    0.7436357700000000   -0.0029567800000000    0.0515536800000000    F  F  F
   -0.0083559800000000    0.7699588300000000    0.0530758700000000    F  F  F
    0.7465744700000000    0.7620181000000000    0.0541049200000000    F  F  F
    0.9804067700000000    0.5205444299999999    0.0490406700000000    F  F  F
    0.2012746900000000    0.6037823100000000    0.5473598700000000    T  T  T
    0.7149984300000000    0.9087174800000000    0.6292864900000000    T  T  T
    0.4530877300000000    0.9456915700000000    0.3471700500000000    T  T  T
    1.0643959999999999    0.2778922900000000    0.3986079900000000    T  T  T
    0.5356315000000000    0.0787939900000000    0.4144103000000000    T  T  T
    0.1547243600000000    0.4190952900000000    0.5965267800000000    T  T  T
    0.6994135700000000    0.5793840200000000    0.4406315100000000    T  T  T
    0.2546623600000000    0.5814006300000000    0.3807536100000000    T  T  T
    0.7516971500000000    0.8097971899999999    0.3210431400000000    T  T  T
    0.3735173800000000    0.8357520800000000    0.4580330800000000    T  T  T
    1.0241571400000000    0.0742251300000000    0.3535886200000000    T  T  T
    0.4739985300000000    0.1613350800000000    0.5665245400000000    T  T  T
    0.0987339400000000    1.0677167500000000    0.5988390500000000    T  T  T
    0.6533256400000000    0.3444446700000000    0.4701042400000000    T  T  T
    0.6641600000000000    0.5358985800000000    0.5740558300000000    T  T  T
    0.3225011500000000    0.4927317100000000    0.4573028900000000    T  T  T
    0.8968407900000001    0.6722427600000001    0.4738319400000000    T  T  T
    0.9368719700000000    0.4755126200000000    0.5366829300000000    T  T  T
   -0.0498848500000000    0.2584326800000000    0.6728445700000000    T  T  T
    0.7079741899999999    0.2365337000000000    0.5509794700000000    T  T  T
    0.8435321600000000    0.5793354300000000    0.6377006600000000    T  T  T
    0.3413815300000000    0.7798446500000000    0.5589250500000000    T  T  T
    0.9408225700000000    0.7007007000000000    0.3918881100000000    T  T  T
    0.9131649700000000    0.9025809400000000    0.5360982300000000    T  T  T
    0.3978199300000000    0.0897614300000000    0.4879115100000000    T  T  T
    0.0615390700000000    0.9595535100000000    0.4706743500000000    T  T  T
    0.8500829900000000    0.0164006600000000    0.4098822600000000    T  T  T
    1.0667760200000000    0.2330090600000000    0.4818744700000000    T  T  T
    0.2634042700000000    0.7821410400000000    0.3277914400000000    T  T  T
    0.3088707100000000    0.2996119900000000    0.3681059200000000    T  T  T
    0.7482879400000000    0.3930675300000000    0.3764403300000000    T  T  T
    0.8249008799999999    0.4607801300000000    0.3155367900000000    T  T  T
    0.2581056900000000    0.6591550100000000    0.5576634800000000    T  T  T
    0.1940464700000000    0.5394007800000000    0.5709219800000001    T  T  T
    0.7853566000000000    0.9554886600000000    0.6270148000000000    T  T  T
    0.6363705600000000    0.9550534500000000    0.6049530300000000    T  T  T
    0.4624528500000000    1.0016534200000000    0.3742469200000000    T  T  T
    0.3719437300000000    0.9191476500000000    0.3461260900000000    T  T  T
    0.9564167099999999    0.3571316000000000    0.3919507100000000    T  T  T
    0.1340462800000000    0.3089426200000000    0.3846273800000000    T  T  T
    0.5060194099999999    0.0711839600000000    0.4438741800000000    T  T  T
    0.4490999000000000    0.1795860400000000    0.4028420400000000    T  T  T
    0.1036873800000000    0.4500750300000000    0.6254553500000000    T  T  T
    0.0642621900000000    0.4511749700000000    0.5748894500000000    T  T  T
    0.7534546000000000    0.6302945400000000    0.4506469600000000    T  T  T
    0.7329657600000000    0.5284438000000000    0.4121097400000000    T  T  T
    0.1349681400000000    0.6333253800000000    0.3819762700000000    T  T  T
    0.2856227500000000    0.5628933100000000    0.4137933000000000    T  T  T
    0.6497393100000000    0.8319480100000000    0.3362270700000000    T  T  T
    0.8369796600000000    0.7457184500000000    0.3403032700000000    T  T  T
    0.3827010100000000    0.9183769500000000    0.4726088000000000    T  T  T
    0.4752136200000000    0.7559628400000000    0.4470487800000000    T  T  T
    1.0282891500000000    0.1083467600000000    0.3220965100000000    T  T  T
    1.0495563299999999    0.1490799200000000    0.3712121100000000    T  T  T
    0.5592904100000000    0.1858735900000000    0.5613499500000000    T  T  T
    0.3740657400000000    0.2566801500000000    0.5730614900000000    T  T  T
    0.0873709500000000    1.1190517900000001    0.6268132000000000    T  T  T
    0.1021728700000000    0.1453314800000000    0.5798176200000000    T  T  T
    0.6900135500000000    0.4153561100000000    0.4595547500000000    T  T  T
    0.7011776199999999    0.2558817600000000    0.4507768200000000    T  T  T
    0.5541871400000000    0.6111188100000000    0.5683748700000000    T  T  T
    0.6575628300000000    0.4429909000000000    0.5778774600000000    T  T  T
    0.4349019700000000    0.4239564400000000    0.4607665700000000    T  T  T
    0.2715673900000000    0.5386987400000000    0.4851544300000000    T  T  T
    0.9199329800000000    0.5934026700000000    0.4983343600000000    T  T  T
    0.8709787600000000    0.7749116900000000    0.4872889600000000    T  T  T
    0.9802035300000000    0.3846930000000000    0.5160613200000000    T  T  T
    0.8341233400000000    0.4920703400000000    0.5446464200000000    T  T  T
   -0.1188573700000000    0.2490606200000000    0.6948054100000000    T  T  T
   -0.0903664600000000    0.3740184400000000    0.6688220200000000    T  T  T
    0.6782203000000000    0.2741184500000000    0.5204818200000000    T  T  T
    0.8155449100000000    0.1468501600000000    0.5537142900000001    T  T  T
    0.8070143600000000    0.6874255200000000    0.6471655600000000    T  T  T
    0.7490215800000000    0.5891093900000000    0.6225754100000001    T  T  T
    0.2697649700000000    0.8850810800000000    0.5674279000000000    T  T  T
    0.3503708600000000    0.7802958400000000    0.5288593300000000    T  T  T
    0.9048860700000000    0.8186595400000000    0.3999555800000000    T  T  T
    0.9453296100000000    0.6590901700000000    0.4219589700000000    T  T  T
    0.9964424000000000    0.9133970000000000    0.5189551500000000    T  T  T
    0.9702998500000000    0.8022315100000000    0.5506477000000000    T  T  T
    0.2837522400000000    0.1562117500000000    0.4858030200000000    T  T  T
    0.4352327500000000    0.1074981300000000    0.5189706200000000    T  T  T
   -0.0117884500000000    0.9769016800000000    0.4475676400000000    T  T  T
    0.1545586900000000    0.9403379200000000    0.4566666700000000    T  T  T
    0.8665748300000000    0.0776583100000000    0.3869846800000000    T  T  T
    0.7368881900000001    0.0405485800000000    0.4143605200000000    T  T  T
    1.0777919800000000    0.2558863300000000    0.4518476500000000    T  T  T
    1.0480000700000001    0.1407017100000000    0.4862853500000000    T  T  T
    0.2872650900000000    0.6948287200000000    0.3512313500000000    T  T  T
    0.1690227500000000    0.8764391400000000    0.3420287400000000    T  T  T
    0.3407626800000000    0.2597189800000000    0.3390786400000000    T  T  T
    0.2915289000000000    0.4096463200000000    0.3717806400000000    T  T  T
    0.5864579500000000    1.3132197400000001    0.3277570600000000    T  T  T
    0.5068800800000000    0.5064854900000000    0.3167147700000000    T  T  T
    0.7421083400000000    0.4146978400000000    0.3363143200000000    T  T  T
    0.6149771100000000    0.3981046000000000    0.3120158300000000    T  T  T

  -0.000467771628000    0.000011747025060   -0.001302000372000
   0.001319619245999   -0.002256705662070   -0.002075706184000
  -0.001935615210000   -0.000736742767351   -0.001938103880000
  -0.003238868838000   -0.000829016500430    0.004518761376000
   0.002852040672000   -0.003308064404940   -0.001401209176000
  -0.001348271364001    0.000643192183720   -0.004479446432000
  -0.001591838939998   -0.001404024864780    0.000281654716000
   0.001418992457999    0.001276084439670   -0.003041072348000
  -0.004988024124000    0.001579549253720    0.002030555428000
  -0.001283447790001   -0.001571462533571    0.000029486208000
   0.000449882484000   -0.001644413261660   -0.001588876604000
  -0.001993263468002   -0.000699714101401   -0.000269983092000
   0.002914652676000    0.002135575106560   -0.001708664324000
   0.001889368824001    0.002305821846559    0.005248237876000
  -0.002855087724000    0.000644554157640    0.001271899868000
  -0.000880401443998    0.002725480060660    0.002875519576000
  -0.000741121680000   -0.001108817017620   -0.002142357299999
   0.002105119764001    0.004295155003460    0.001481067655999
  -0.001794467898000    0.000278268296530    0.003031550760000
  -0.001395942984001   -0.002109867848820    0.002438755119999
   0.002601838386000   -0.001975968787810   -0.000292712044000
   0.000418478189999    0.000903414325809   -0.000778313032000
   0.001814175444002   -0.001623472912640   -0.000868000248000
   0.002457103416000   -0.001915786565220   -0.002073863295999
  -0.002717822946002    0.001972734099750    0.001008059735999
   0.000784861620001    0.001669099038961   -0.002136214340000
   0.000356062770003   -0.001193344524030    0.001240263624000
   0.001337016929998    0.000121981789210   -0.001546797328000
  -0.003111728136000    0.000006639622860    0.001533282816000
  -0.000864035826002    0.000526317796710    0.003431457456000
   0.001644326868000   -0.003445964264340    0.000428778608001
  -0.001370485355999   -0.003203532906579    0.000963830424000
  -0.002226166362000    0.000405612858050   -0.002423397720000
   0.000480008982000    0.000728911417310   -0.000536587556001
   0.004805201004000    0.001285192640260   -0.000970894828000
   0.000437153670000    0.000616208075430    0.000067572559999
   0.000655067034000    0.002422866480310   -0.000226675224000
  -0.002080006158000   -0.004063023573470   -0.001896024603999
   0.005092164497999    0.000297165684670   -0.002829754524001
  -0.001938269094000   -0.000038220393130    0.000102280284000
  -0.001429313117999   -0.002688451394710   -0.002760646223999
  -0.001200440196000   -0.001251654032480    0.001627884400000
  -0.001724090826000   -0.000317254799990    0.000157259776000
   0.001391863866001    0.001769799985670   -0.000280733272001
   0.002283618036000   -0.001639646352940   -0.000871993172001
  -0.001436439288000    0.000432767213080   -0.000152959704001
  -0.002908706010000   -0.004015013992790   -0.000073101223999
   0.000446491410000    0.000216638976650    0.000011671624000
   0.003881403642000    0.003122750828450    0.002374561188000
  -0.001871971140000    0.000231024826180   -0.000163709884000
  -0.001590708582000    0.000208296886390   -0.001395680512000
   0.000332325252000   -0.003495506065680    0.000283497604000
   0.003344876760000   -0.002837332168840    0.001333022320000
   0.000738762672000   -0.000783305250740    0.001188969908000
  -0.001159649016000    0.003373268906360    0.001420866648000
  -0.004525363679999   -0.002453596016879    0.001863774064000
   0.002012577846001   -0.000770792115350    0.000772784368000
  -0.002011938948000    0.000846807284760   -0.001790058544000
   0.000458483034000    0.000967427100050   -0.000431542940000
  -0.001069220375998    0.002682918375660    0.002822690120000
   0.001028576633999    0.003776498310050    0.002787060952000
  -0.003207464544000    0.003192977608699    0.002574821684000
   0.000600121806000    0.001283064556010   -0.001058739156000
  -0.001268458259998   -0.002666063948399   -0.000172924324000
  -0.003404343420001    0.003377865568340   -0.004136054967997
   0.009980667972002    0.001107114550220   -0.000046072200000
   0.008614360026000    0.004270384102790   -0.000807492091999
  -0.002040345336001   -0.001073235448960    0.000381784963999
  -0.001335198528000    0.000039156750200    0.007506389971999
  -0.003001297074000    0.002258237882729   -0.002842654740004
  -0.004180457052000    0.003972196937680    0.002960906720000
  -0.000737976336000   -0.003086913889680    0.003846107256001
  -0.000550779221999    0.001730132495251    0.007909675296002
  -0.000171322956001   -0.003863579517560    0.000598324304001
   0.003478357296002    0.003229410411060    0.001212620303999
   0.003428818128000   -0.001703488880440   -0.003265904684000
   0.005563278054000   -0.003779562751371   -0.005182508204005
   0.003479094486000    0.003228814547469    0.000082008515999
   0.007143223662000    0.003537982627311    0.000920215407998
   0.002633488410000   -0.000071759000910   -0.006309741363999
   0.002292857484001   -0.000154243546440    0.002430769271999
   0.002905855542002   -0.000117385127231    0.000466557812000
  -0.002048896740000    0.008525275752240    0.000149581076002
   0.007335482814000    0.005118893854950   -0.004309900736001
   0.002103252216001    0.000934654602600    0.004494803831999
   0.000672956178001   -0.000996709539331    0.003280954935999
  -0.006891202974000   -0.002781576361490    0.002199486827999
  -0.001718045868000    0.002618735354680   -0.000654839535997
   0.004336151580000   -0.002028660153840    0.005738753232000
  -0.000690108132001    0.001652414858439   -0.008075535216001
  -0.006210334290000   -0.005710671523190   -0.000599245748001
  -0.006472380762002    0.003587013688430    0.002216379967999
   0.000747363222001   -0.001722982132169   -0.004518147079999
  -0.003531828143999   -0.002951397484639    0.001684092484000
  -0.000764564322001    0.008864151888210   -0.002488205948000
   0.005160330000001   -0.006176381480460   -0.010032067975999
  -0.022488423263999   -0.036457317890560    0.011038899120003
   0.011679006294000   -0.004577509221750   -0.023224996020005
   0.025451877918000   -0.006638346009451    0.001848416663996
  -0.001992772008000   -0.007596069045320    0.005212608708000
   0.015434645321999    0.009309517360050    0.009597146408002
  -0.029356232742000    0.004753884844390    0.003808635200000
  -0.027886423320000   -0.006392765087000   -0.007075154180001
   0.001911091356000   -0.003054907502560   -0.025598635764002
  -0.011625879467999    0.005792985821980    0.019409910712000
   0.012499891932000   -0.019868816038440   -0.025801967740001
  -0.004817684088000    0.002228700073340   -0.023063436171999
  -0.029903473452000    0.007432121434700    0.028049062508000
   0.001761687516002    0.011995074560180    0.002793818208001
   0.016333181640000    0.020675445092559    0.008282552968000
  -0.007458937566001    0.029670857217309    0.014117443524000
  -0.005185640189999    0.021144219491150    0.010180113312002
   0.023718105330001   -0.012413115430250   -0.014106693344001
   0.013322006220001    0.012717090984521    0.012277627004000
   0.017574314724001    0.016770836110661    0.001146583483999
   0.013438531385999    0.005118383114730    0.003585645751999
   0.014475511986001    0.011966558231230    0.001236270700002
   0.022480510757999   -0.026897197329230   -0.006784592171998
   0.013011698376000   -0.015271813564960   -0.002793203911999
  -0.004287251310000    0.017847731864530    0.019599421028001
   0.018926173745999   -0.022846005904190   -0.021944803155996
   0.011210300892000    0.015720583971600    0.025823160952001
   0.015706422701999   -0.000489714747610   -0.002279959604001
   0.008029129458000   -0.017561887588070   -0.005408261984000
   0.013884236459999    0.020790702135540    0.018328749751998
  -0.001619360700001    0.002997364104440   -0.018273463111999
   0.002092685826000   -0.020915407872590   -0.003046908159998
   0.015123305412001    0.014026118168380    0.024246263120000
  -0.012594153959999    0.001020629206299    0.005165922211999
   0.009331154436003   -0.005115063303300    0.014305725247999
   0.027582897623999   -0.026201484026220   -0.010813145340002
  -0.002695952976000    0.011602826071220    0.006611667848002
  -0.006567281688000    0.007937754252500    0.008588779524004
   0.001848381060000   -0.002443721705960    0.008847398140002
   0.008913020267999   -0.023823647808640    0.000116101944000
   0.023438317151999   -0.006501042013640   -0.008311424880002
  -0.000140016954001    0.012266873480590   -0.005172986616003
  -0.004167482507999   -0.006360928946619   -0.014026220567999
   0.023367104597999   -0.016379353732030    0.005389525956002
   0.016989821346000   -0.000282524465030   -0.022870854375999
   0.006964135638000    0.008571667988891   -0.035544702300001
   0.005701869773999    0.011722594652809    0.019342952448001
   0.007513637064001   -0.028921005450980   -0.034291538460002
   0.001884601662001   -0.035032778293610   -0.032167610039998
  -0.009534864606000   -0.000647022735370    0.011956350196002
   0.000120260261999   -0.004859267576450   -0.027692770828001
  -0.003242112474000   -0.010881065016990   -0.007028467684002
   0.021966296160000   -0.018576302788361   -0.003095437544001
   0.015482513526001   -0.005753233208190   -0.018187154524002
   0.009399369083999   -0.006526238531160   -0.010678000220000
  -0.015427470005998    0.019139053387430    0.006292233928001
  -0.005972565942002    0.023294265570610   -0.037200537167999
  -0.003839875271999    0.013451024680661   -0.016843382024001
  -0.013318172831999    0.018597753877599    0.004454260295999
   0.014685168822000    0.035020009788110    0.010701957764001
  -0.001082489796000    0.006620895718600   -0.015465516096000
  -0.035885721156003    0.021289184590261   -0.026903707616000
   0.005083514802001   -0.030590700353530    0.002845111924001
   0.000391791912000    0.002707093412740   -0.000142516672000
   0.003905681766000    0.003555007301310   -0.004903310672001