 Ni\(1\1\1)                             
   1.00000000000000     
     9.8291997910000006    0.0000000000000000    0.0000000000000000
     4.9145998955000003    8.5123367178000002    0.0000000000000000
     0.0000000000000000    0.0000000000000000   19.0128002167000005
   Ni   O    C    H 
    64     2     2     2
Direct
  0.8358955239275440  0.5830185552497272  0.2695214201819957
  0.3359838389916426  0.0824836346339094  0.2691292184825075
  0.8364414842174815  0.0826700808528431  0.2694199070157784
  0.3360999098857359  0.5831413946544136  0.2694239188894333
  0.5859756483470069  0.8329890163156949  0.2692723084840768
  0.8363306149177133  0.8329199344820235  0.2690149892551052
  0.0864101022044556  0.3324803694290541  0.2694950919326213
  0.8356293166441564  0.3324501659864117  0.2700378713412089
  0.5857312995493571  0.5826499153549320  0.2701883656097517
  0.0861608144695138  0.5829272023317090  0.2691605809306169
  0.0857118112789282  0.0829875190465183  0.2695338311860974
  0.5862889387607479  0.0828966653879356  0.2690700172324572
  0.3359985225843065  0.8328377432757409  0.2691382185963727
  0.0861545576931821  0.8332140428902575  0.2691502590403738
  0.3361229171429914  0.3327805274974925  0.2682961418726830
  0.5858083913394022  0.3326831176526379  0.2697729513772587
  0.9194465369218425  0.6655691152909275  0.3748737673409781
  0.9195365178368832  0.4158196708890839  0.3743021535897115
  0.6694006599936158  0.6659375882824181  0.3747042258869115
  0.1683246036257349  0.1665864311274315  0.3749976091287193
  0.9175496332789623  0.1679355154534666  0.3764453133871239
  0.9193664507083505  0.9165495628603560  0.3746568434179524
  0.4188917719936884  0.9155664883265864  0.3746072709508232
  0.4187627018774873  0.1661644580204933  0.3735639126712398
  0.6701994072544792  0.1664564113420351  0.3745152275249801
  0.1694465871414513  0.6662117782923952  0.3743764071230703
  0.4202616096991467  0.6645631073995997  0.3758632780202493
  0.4194819775995996  0.4171558875254174  0.3744914710673524
  0.6693865134127361  0.9163524052715250  0.3743983664327843
  0.1695487313363185  0.4159121459978649  0.3743702256944767
  0.6696993136095398  0.4153382889127284  0.3764354468927180
  0.1686219164891465  0.9165334711088726  0.3748668728525825
  0.0021565477949340  0.2492862752016415  0.4836291232384167
  0.5006213392391904  0.2460804609848425  0.4769134078243660
  0.0032985205757675  0.7499278400209437  0.4802415094469083
  0.5022896434295535  0.7494687247218508  0.4803467693919400
  0.7511154059551555  0.7530280563818447  0.4798592245150364
  0.0045539260877993  0.4998333089996125  0.4836050296137146
  0.7542754246426059  0.5023628803823867  0.4822282272849852
  0.2519338825412451 -0.0010811716753178  0.4803175432728937
  0.0008270763385485  0.0012918626441216  0.4808020305098770
  0.5019973333006111  0.9987048647351104  0.4800302729461776
  0.2533681093504337  0.7484465671614590  0.4805435741330015
  0.7534735013607491  0.9980186624133054  0.4801786818433587
  0.2548376959537526  0.2477454572600301  0.4797909409641572
  0.7439499272699537  0.2498880987878643  0.4887872448635060
  0.2513324686723539  0.5005390039166762  0.4794889463676483
  0.5045355104100239  0.4982581788124610  0.4879217009864669
  0.0016839594701539  0.2497378485609563  0.1641918979359354
  0.5020392988702458  0.2497218415838865  0.1633749973749574
  0.0022932142629623  0.7496500591571121  0.1631470350695165
  0.5022782635875063  0.7489429047478134  0.1638998585764445
  0.7523400600719871  0.7491094485992627  0.1637859505206317
  0.0021517762857363  0.4996789236809829  0.1637533215620843
  0.7521325849482111  0.4994353700079193  0.1643187213324043
  0.2517880659528962 -0.0002456987480950  0.1635423974925264
  0.0020362603307346 -0.0003896544670802  0.1635624631135942
  0.5022724480744144 -0.0007919107950623  0.1637041277200699
  0.2520325331042430  0.7495007386107662  0.1633892337162443
  0.7520048303432385 -0.0002592551086413  0.1633920868416315
  0.2516857046009315  0.2498169129924596  0.1635119346129266
  0.7520982323121668  0.2497560746937394  0.1643371836505462
  0.2519823956479509  0.4999503915416865  0.1631832149191522
  0.5020904797939865  0.4996651092286765  0.1640525176662024
  0.9170519852071987  0.4180679375869656  0.6154362856187712
  0.5218497572966980  0.3371641069995804  0.6145139405214429
  0.9232658048292448  0.4174274532040742  0.5525085095729545
  0.6063993372238088  0.3701137829640776  0.5681152191932869
  0.6876679162481067  0.3904792732236456  0.6005782232053272
  0.4387739598817453  0.3265028478439277  0.5893912631708840
 
  0.00000000E+00  0.00000000E+00  0.00000000E+00
  0.00000000E+00  0.00000000E+00  0.00000000E+00
  0.00000000E+00  0.00000000E+00  0.00000000E+00
  0.00000000E+00  0.00000000E+00  0.00000000E+00
  0.00000000E+00  0.00000000E+00  0.00000000E+00
  0.00000000E+00  0.00000000E+00  0.00000000E+00
  0.00000000E+00  0.00000000E+00  0.00000000E+00
  0.00000000E+00  0.00000000E+00  0.00000000E+00
  0.00000000E+00  0.00000000E+00  0.00000000E+00
  0.00000000E+00  0.00000000E+00  0.00000000E+00
  0.00000000E+00  0.00000000E+00  0.00000000E+00
  0.00000000E+00  0.00000000E+00  0.00000000E+00
  0.00000000E+00  0.00000000E+00  0.00000000E+00
  0.00000000E+00  0.00000000E+00  0.00000000E+00
  0.00000000E+00  0.00000000E+00  0.00000000E+00
  0.00000000E+00  0.00000000E+00  0.00000000E+00
  0.00000000E+00  0.00000000E+00  0.00000000E+00
  0.00000000E+00  0.00000000E+00  0.00000000E+00
  0.00000000E+00  0.00000000E+00  0.00000000E+00
  0.00000000E+00  0.00000000E+00  0.00000000E+00
  0.00000000E+00  0.00000000E+00  0.00000000E+00
  0.00000000E+00  0.00000000E+00  0.00000000E+00
  0.00000000E+00  0.00000000E+00  0.00000000E+00
  0.00000000E+00  0.00000000E+00  0.00000000E+00
  0.00000000E+00  0.00000000E+00  0.00000000E+00
  0.00000000E+00  0.00000000E+00  0.00000000E+00
  0.00000000E+00  0.00000000E+00  0.00000000E+00
  0.00000000E+00  0.00000000E+00  0.00000000E+00
  0.00000000E+00  0.00000000E+00  0.00000000E+00
  0.00000000E+00  0.00000000E+00  0.00000000E+00
  0.00000000E+00  0.00000000E+00  0.00000000E+00
  0.00000000E+00  0.00000000E+00  0.00000000E+00
  0.00000000E+00  0.00000000E+00  0.00000000E+00
  0.00000000E+00  0.00000000E+00  0.00000000E+00
  0.00000000E+00  0.00000000E+00  0.00000000E+00
  0.00000000E+00  0.00000000E+00  0.00000000E+00
  0.00000000E+00  0.00000000E+00  0.00000000E+00
  0.00000000E+00  0.00000000E+00  0.00000000E+00
  0.00000000E+00  0.00000000E+00  0.00000000E+00
  0.00000000E+00  0.00000000E+00  0.00000000E+00
  0.00000000E+00  0.00000000E+00  0.00000000E+00
  0.00000000E+00  0.00000000E+00  0.00000000E+00
  0.00000000E+00  0.00000000E+00  0.00000000E+00
  0.00000000E+00  0.00000000E+00  0.00000000E+00
  0.00000000E+00  0.00000000E+00  0.00000000E+00
  0.00000000E+00  0.00000000E+00  0.00000000E+00
  0.00000000E+00  0.00000000E+00  0.00000000E+00
  0.00000000E+00  0.00000000E+00  0.00000000E+00
  0.00000000E+00  0.00000000E+00  0.00000000E+00
  0.00000000E+00  0.00000000E+00  0.00000000E+00
  0.00000000E+00  0.00000000E+00  0.00000000E+00
  0.00000000E+00  0.00000000E+00  0.00000000E+00
  0.00000000E+00  0.00000000E+00  0.00000000E+00
  0.00000000E+00  0.00000000E+00  0.00000000E+00
  0.00000000E+00  0.00000000E+00  0.00000000E+00
  0.00000000E+00  0.00000000E+00  0.00000000E+00
  0.00000000E+00  0.00000000E+00  0.00000000E+00
  0.00000000E+00  0.00000000E+00  0.00000000E+00
  0.00000000E+00  0.00000000E+00  0.00000000E+00
  0.00000000E+00  0.00000000E+00  0.00000000E+00
  0.00000000E+00  0.00000000E+00  0.00000000E+00
  0.00000000E+00  0.00000000E+00  0.00000000E+00
  0.00000000E+00  0.00000000E+00  0.00000000E+00
  0.00000000E+00  0.00000000E+00  0.00000000E+00
  0.00000000E+00  0.00000000E+00  0.00000000E+00
  0.00000000E+00  0.00000000E+00  0.00000000E+00
  0.00000000E+00  0.00000000E+00  0.00000000E+00
  0.00000000E+00  0.00000000E+00  0.00000000E+00
  0.00000000E+00  0.00000000E+00  0.00000000E+00
  0.00000000E+00  0.00000000E+00  0.00000000E+00
