 Ni\(1\1\1)                             
   1.00000000000000     
     9.8291997910000006    0.0000000000000000    0.0000000000000000
     4.9145998955000003    8.5123367178000002    0.0000000000000000
     0.0000000000000000    0.0000000000000000   19.0128002167000005
   Ni   O    C    H 
    64     3     2     1
Direct
  0.8377880256643638  0.5873987902327996  0.2723834561396379
  0.3366006705365694  0.0882004760310153  0.2718389442407435
  0.8369095399528376  0.0881028389420110  0.2726291612023320
  0.3372922011360877  0.5879262064100780  0.2725619558965365
  0.5866793546955543  0.8385839155279523  0.2708914523657836
  0.8372756770328182  0.8372905043351869  0.2716492346965353
  0.0881978113031587  0.3376826486066903  0.2727780690817747
  0.8377403112621888  0.3376700181053779  0.2729843907272080
  0.5870485201198524  0.5877129422888376  0.2723735173270738
  0.0872292909548089  0.5877808981029436  0.2726754811340795
  0.0868250399232870  0.0879546256849343  0.2726444661644599
  0.5866455090799897  0.0884221756292351  0.2721199456873438
  0.3371567494871543  0.8370959815665150  0.2715820206247082
  0.0870471194493951  0.8376349440634511  0.2716307807403701
  0.3363264382310105  0.3390293293494038  0.2722521224675343
  0.5865614461036914  0.3378305610000620  0.2726689769624229
  0.9223664258064590  0.6688313707567227  0.3786496393771171
  0.9233711892506572  0.4197891451637639  0.3783994890090436
  0.6720189155958010  0.6711727503851526  0.3760630397057830
  0.1705296396027348  0.1712515937476228  0.3778455788080126
  0.9200690569684254  0.1721170550944437  0.3791866605830766
  0.9217242676266232  0.9203170078271039  0.3768210841413041
  0.4219001770069331  0.9202232897258993  0.3761177778521375
  0.4205280030047360  0.1716810549912911  0.3765487417246955
  0.6724204166665326  0.1715235173455033  0.3781052948535902
  0.1720648091365027  0.6707943170133300  0.3773015268901502
  0.4238578239778242  0.6680781581504435  0.3789252617876815
  0.4223570570500415  0.4216603946222682  0.3785273502484459
  0.6717943260047486  0.9208940119788087  0.3764946226310131
  0.1699646048543164  0.4220645496872975  0.3793803819567833
  0.6723202246532940  0.4203698960265179  0.3779089814650478
  0.1720391631956692  0.9200538775154906  0.3770015087699307
  0.0118465894726469  0.2451035504373517  0.4845903646551888
  0.5037433747970292  0.2510239831858508  0.4814820928026076
  0.0075278761624313  0.7553823063215084  0.4826163283520719
  0.5055235515377692  0.7572618554337068  0.4817353112852740
  0.7538484540142594  0.7600004300133572  0.4820418334139163
  0.0072627787058530  0.5092383060328348  0.4911972158569837
  0.7555373291434785  0.5121953467196326  0.4810941607951210
  0.2599026081629014 -0.0000409502475613  0.4818293806026554
  0.0075866676982902 -0.0006529515081941  0.4822075075045166
  0.5056233401029638  0.0043043578728007  0.4821297854739318
  0.2580289643396771  0.7527078337802176  0.4830710919640782
  0.7562858727818474  0.0031991103671915  0.4822328265522940
  0.2583510700492648  0.2527059105810273  0.4821910173203166
  0.7537785392742317  0.2517048515475777  0.4878527508172066
  0.2574468655806455  0.5051211436800127  0.4829961788434051
  0.5085123469491487  0.5023368186030457  0.4902959067922079
  0.0017527658534358  0.2557132967717718  0.1671316129125928
  0.5018326295910042  0.2556813632313879  0.1665346667279371
  0.0022539286398920  0.7552139458174717  0.1661229846428263
  0.5023204873225005  0.7546506737639033  0.1659725976560457
  0.7526920527848865  0.7546014404487765  0.1659838606438149
  0.0020402005008637  0.5051923572106450  0.1668073712448150
  0.7521716977282948  0.5050488750286602  0.1667949200565546
  0.2518318135268484  0.0056274204368453  0.1663930210038801
  0.0017900404801668  0.0055044844465711  0.1666752194740590
  0.5019400199178725  0.0057262874150181  0.1657250236881410
  0.2522890892391935  0.7552993033665195  0.1660717864295748
  0.7519266404149521  0.0054561186890366  0.1664481261649417
  0.2519283960258675  0.2555932328225481  0.1664690253246504
  0.7519507255099173  0.2556614666406275  0.1671328540536734
  0.2516856700303431  0.5059084567173395  0.1666407168994558
  0.5019952193853571  0.5054211980010995  0.1666808679669146
 -0.0465431596609098  0.5074762689508080  0.5910008822560063
 -0.0154610727960538  0.2608921868432828  0.5856352955778049
  0.6550472561022523  0.3943513885501905  0.5729481560789470
  0.8967277409139705  0.4130038067359438  0.5858471848146237
  0.7216531235619288  0.4849275379842821  0.5817097524172328
  0.6517798388209202  0.5952503763987799  0.6106409846713996
 
  0.00000000E+00  0.00000000E+00  0.00000000E+00
  0.00000000E+00  0.00000000E+00  0.00000000E+00
  0.00000000E+00  0.00000000E+00  0.00000000E+00
  0.00000000E+00  0.00000000E+00  0.00000000E+00
  0.00000000E+00  0.00000000E+00  0.00000000E+00
  0.00000000E+00  0.00000000E+00  0.00000000E+00
  0.00000000E+00  0.00000000E+00  0.00000000E+00
  0.00000000E+00  0.00000000E+00  0.00000000E+00
  0.00000000E+00  0.00000000E+00  0.00000000E+00
  0.00000000E+00  0.00000000E+00  0.00000000E+00
  0.00000000E+00  0.00000000E+00  0.00000000E+00
  0.00000000E+00  0.00000000E+00  0.00000000E+00
  0.00000000E+00  0.00000000E+00  0.00000000E+00
  0.00000000E+00  0.00000000E+00  0.00000000E+00
  0.00000000E+00  0.00000000E+00  0.00000000E+00
  0.00000000E+00  0.00000000E+00  0.00000000E+00
  0.00000000E+00  0.00000000E+00  0.00000000E+00
  0.00000000E+00  0.00000000E+00  0.00000000E+00
  0.00000000E+00  0.00000000E+00  0.00000000E+00
  0.00000000E+00  0.00000000E+00  0.00000000E+00
  0.00000000E+00  0.00000000E+00  0.00000000E+00
  0.00000000E+00  0.00000000E+00  0.00000000E+00
  0.00000000E+00  0.00000000E+00  0.00000000E+00
  0.00000000E+00  0.00000000E+00  0.00000000E+00
  0.00000000E+00  0.00000000E+00  0.00000000E+00
  0.00000000E+00  0.00000000E+00  0.00000000E+00
  0.00000000E+00  0.00000000E+00  0.00000000E+00
  0.00000000E+00  0.00000000E+00  0.00000000E+00
  0.00000000E+00  0.00000000E+00  0.00000000E+00
  0.00000000E+00  0.00000000E+00  0.00000000E+00
  0.00000000E+00  0.00000000E+00  0.00000000E+00
  0.00000000E+00  0.00000000E+00  0.00000000E+00
  0.00000000E+00  0.00000000E+00  0.00000000E+00
  0.00000000E+00  0.00000000E+00  0.00000000E+00
  0.00000000E+00  0.00000000E+00  0.00000000E+00
  0.00000000E+00  0.00000000E+00  0.00000000E+00
  0.00000000E+00  0.00000000E+00  0.00000000E+00
  0.00000000E+00  0.00000000E+00  0.00000000E+00
  0.00000000E+00  0.00000000E+00  0.00000000E+00
  0.00000000E+00  0.00000000E+00  0.00000000E+00
  0.00000000E+00  0.00000000E+00  0.00000000E+00
  0.00000000E+00  0.00000000E+00  0.00000000E+00
  0.00000000E+00  0.00000000E+00  0.00000000E+00
  0.00000000E+00  0.00000000E+00  0.00000000E+00
  0.00000000E+00  0.00000000E+00  0.00000000E+00
  0.00000000E+00  0.00000000E+00  0.00000000E+00
  0.00000000E+00  0.00000000E+00  0.00000000E+00
  0.00000000E+00  0.00000000E+00  0.00000000E+00
  0.00000000E+00  0.00000000E+00  0.00000000E+00
  0.00000000E+00  0.00000000E+00  0.00000000E+00
  0.00000000E+00  0.00000000E+00  0.00000000E+00
  0.00000000E+00  0.00000000E+00  0.00000000E+00
  0.00000000E+00  0.00000000E+00  0.00000000E+00
  0.00000000E+00  0.00000000E+00  0.00000000E+00
  0.00000000E+00  0.00000000E+00  0.00000000E+00
  0.00000000E+00  0.00000000E+00  0.00000000E+00
  0.00000000E+00  0.00000000E+00  0.00000000E+00
  0.00000000E+00  0.00000000E+00  0.00000000E+00
  0.00000000E+00  0.00000000E+00  0.00000000E+00
  0.00000000E+00  0.00000000E+00  0.00000000E+00
  0.00000000E+00  0.00000000E+00  0.00000000E+00
  0.00000000E+00  0.00000000E+00  0.00000000E+00
  0.00000000E+00  0.00000000E+00  0.00000000E+00
  0.00000000E+00  0.00000000E+00  0.00000000E+00
  0.00000000E+00  0.00000000E+00  0.00000000E+00
  0.00000000E+00  0.00000000E+00  0.00000000E+00
  0.00000000E+00  0.00000000E+00  0.00000000E+00
  0.00000000E+00  0.00000000E+00  0.00000000E+00
  0.00000000E+00  0.00000000E+00  0.00000000E+00
  0.00000000E+00  0.00000000E+00  0.00000000E+00
