 Ni\(1\1\1)                             
   1.00000000000000     
     9.8291997910000006    0.0000000000000000    0.0000000000000000
     4.9145998955000003    8.5123367178000002    0.0000000000000000
     0.0000000000000000    0.0000000000000000   19.0128002167000005
   Ni   O    C 
    64     2     2
Direct
  0.8327593558312504  0.5869186491341074  0.2714538748961271
  0.3322341160052267  0.0873643058605475  0.2708133988430761
  0.8329723320795061  0.0873371305708896  0.2717415040913388
  0.3324033195472913  0.5871200524783936  0.2708456958143303
  0.5824907601228416  0.8373512176248663  0.2704115842738157
  0.8325634419078245  0.8373738220058383  0.2703976970522597
  0.0824032705546980  0.3371775399379290  0.2713867642995363
  0.8333372132530360  0.3367027585128794  0.2717265292627092
  0.5824566894354294  0.5873988041575119  0.2706498080357839
  0.0821848995708268  0.5872862929503090  0.2709953100295622
  0.0820588377820870  0.0874242078749075  0.2713204336704569
  0.5824840600321898  0.0873834741629246  0.2707899586762708
  0.3324273800750931  0.8372316918244579  0.2702811394210682
  0.0823845516670471  0.8371540088099868  0.2706395873051382
  0.3322853799959475  0.3373116319758395  0.2702049852298288
  0.5823415139628354  0.3369445909652050  0.2709340021609323
  0.9158869388963501  0.6696557708537044  0.3764989047825050
  0.9163515831302136  0.4201815725471785  0.3783988636688531
  0.6656206640567385  0.6700515750487744  0.3760878770196083
  0.1649777233680579  0.1708430090352243  0.3765748428300477
  0.9168313816896385  0.1722804751607695  0.3789483311247231
  0.9158532335376591  0.9207443192860881  0.3762864566215688
  0.4161394725786407  0.9202145145761522  0.3755172973873085
  0.4156161405143665  0.1707933180111123  0.3755965224774151
  0.6658767773900063  0.1711836838928344  0.3765646883811379
  0.1664327618602678  0.6700030851900622  0.3761023331846477
  0.4166558031100772  0.6700434451765803  0.3760965627298872
  0.4162074537991483  0.4200377459232380  0.3762261745107607
  0.6667234904168889  0.9199497118935542  0.3755476999255049
  0.1648290365934804  0.4210536770189056  0.3762484720713386
  0.6661281249811577  0.4202124284321941  0.3751278650808874
  0.1655452826939935  0.9203605373435768  0.3756685007346661
  0.0052721211563320  0.2488232692129369  0.4880969665494066
  0.4973996440509810  0.2512757220456633  0.4817159381625755
 -0.0007016812744755  0.7529014460372001  0.4818037461841391
  0.4970029528557779  0.7579157666808586  0.4814663788209815
  0.7487507853490207  0.7553644772530946  0.4813851278681032
 -0.0002145595987397  0.5038148966247336  0.4875348290531717
  0.7487355666146485  0.5086687541578396  0.4842084639840026
  0.2514856694185076  0.0008746470153704  0.4805905225895423
  0.0012236162570966 -0.0004522496004718  0.4822001969955607
  0.4999984556580345  0.0031630822723606  0.4810276825951986
  0.2471224379086274  0.7551274467515240  0.4818065352986350
  0.7496979617328500  0.0006297223762460  0.4819524411277082
  0.2527592996131686  0.2519138784325010  0.4802298626865287
  0.7517701873439055  0.2452132778216376  0.4850540234510532
  0.2469829547310711  0.5041160043261365  0.4815857185048858
  0.4897528773655747  0.5080475594550440  0.4845905105391318
  0.9987447433381731  0.2539964822299901  0.1657629987393591
  0.4992439670934622  0.2538489473881158  0.1652094997257296
 -0.0006028888212756  0.7536690748651805  0.1648813700539812
  0.4991885017551689  0.7535711693522351  0.1650087276803977
  0.7496001713123278  0.7533740220987314  0.1651693959296218
 -0.0010941135661116  0.5039694798526331  0.1655359601822197
  0.7494238239866332  0.5037076372816458  0.1656513234673557
  0.2489371416328184  0.0040131172659589  0.1652999331122412
 -0.0009312427681992  0.0039559722721531  0.1655200371439853
  0.4990678742885591  0.0038409150629561  0.1651590080808105
  0.2491209362973434  0.7537377569275470  0.1649291041429024
  0.7492276293889961  0.0039757091856673  0.1653500509948094
  0.2485296108224948  0.2540528568381145  0.1652387333833274
  0.7493338847397710  0.2537719324584223  0.1659980593832032
  0.2489284577355216  0.5038663403422557  0.1650599967514741
  0.4991813332267833  0.5038364413252958  0.1653450329795954
  0.9995126732688500  0.5312308876060081  0.6263240483217561
  0.0308588953625830  0.2936501164166223  0.5878278829521578
  0.0116442162419757  0.4314282097434343  0.5850878389757965
  0.6630669310419288  0.4198919883878058  0.5350115619955497
 
  0.00000000E+00  0.00000000E+00  0.00000000E+00
  0.00000000E+00  0.00000000E+00  0.00000000E+00
  0.00000000E+00  0.00000000E+00  0.00000000E+00
  0.00000000E+00  0.00000000E+00  0.00000000E+00
  0.00000000E+00  0.00000000E+00  0.00000000E+00
  0.00000000E+00  0.00000000E+00  0.00000000E+00
  0.00000000E+00  0.00000000E+00  0.00000000E+00
  0.00000000E+00  0.00000000E+00  0.00000000E+00
  0.00000000E+00  0.00000000E+00  0.00000000E+00
  0.00000000E+00  0.00000000E+00  0.00000000E+00
  0.00000000E+00  0.00000000E+00  0.00000000E+00
  0.00000000E+00  0.00000000E+00  0.00000000E+00
  0.00000000E+00  0.00000000E+00  0.00000000E+00
  0.00000000E+00  0.00000000E+00  0.00000000E+00
  0.00000000E+00  0.00000000E+00  0.00000000E+00
  0.00000000E+00  0.00000000E+00  0.00000000E+00
  0.00000000E+00  0.00000000E+00  0.00000000E+00
  0.00000000E+00  0.00000000E+00  0.00000000E+00
  0.00000000E+00  0.00000000E+00  0.00000000E+00
  0.00000000E+00  0.00000000E+00  0.00000000E+00
  0.00000000E+00  0.00000000E+00  0.00000000E+00
  0.00000000E+00  0.00000000E+00  0.00000000E+00
  0.00000000E+00  0.00000000E+00  0.00000000E+00
  0.00000000E+00  0.00000000E+00  0.00000000E+00
  0.00000000E+00  0.00000000E+00  0.00000000E+00
  0.00000000E+00  0.00000000E+00  0.00000000E+00
  0.00000000E+00  0.00000000E+00  0.00000000E+00
  0.00000000E+00  0.00000000E+00  0.00000000E+00
  0.00000000E+00  0.00000000E+00  0.00000000E+00
  0.00000000E+00  0.00000000E+00  0.00000000E+00
  0.00000000E+00  0.00000000E+00  0.00000000E+00
  0.00000000E+00  0.00000000E+00  0.00000000E+00
  0.00000000E+00  0.00000000E+00  0.00000000E+00
  0.00000000E+00  0.00000000E+00  0.00000000E+00
  0.00000000E+00  0.00000000E+00  0.00000000E+00
  0.00000000E+00  0.00000000E+00  0.00000000E+00
  0.00000000E+00  0.00000000E+00  0.00000000E+00
  0.00000000E+00  0.00000000E+00  0.00000000E+00
  0.00000000E+00  0.00000000E+00  0.00000000E+00
  0.00000000E+00  0.00000000E+00  0.00000000E+00
  0.00000000E+00  0.00000000E+00  0.00000000E+00
  0.00000000E+00  0.00000000E+00  0.00000000E+00
  0.00000000E+00  0.00000000E+00  0.00000000E+00
  0.00000000E+00  0.00000000E+00  0.00000000E+00
  0.00000000E+00  0.00000000E+00  0.00000000E+00
  0.00000000E+00  0.00000000E+00  0.00000000E+00
  0.00000000E+00  0.00000000E+00  0.00000000E+00
  0.00000000E+00  0.00000000E+00  0.00000000E+00
  0.00000000E+00  0.00000000E+00  0.00000000E+00
  0.00000000E+00  0.00000000E+00  0.00000000E+00
  0.00000000E+00  0.00000000E+00  0.00000000E+00
  0.00000000E+00  0.00000000E+00  0.00000000E+00
  0.00000000E+00  0.00000000E+00  0.00000000E+00
  0.00000000E+00  0.00000000E+00  0.00000000E+00
  0.00000000E+00  0.00000000E+00  0.00000000E+00
  0.00000000E+00  0.00000000E+00  0.00000000E+00
  0.00000000E+00  0.00000000E+00  0.00000000E+00
  0.00000000E+00  0.00000000E+00  0.00000000E+00
  0.00000000E+00  0.00000000E+00  0.00000000E+00
  0.00000000E+00  0.00000000E+00  0.00000000E+00
  0.00000000E+00  0.00000000E+00  0.00000000E+00
  0.00000000E+00  0.00000000E+00  0.00000000E+00
  0.00000000E+00  0.00000000E+00  0.00000000E+00
  0.00000000E+00  0.00000000E+00  0.00000000E+00
  0.00000000E+00  0.00000000E+00  0.00000000E+00
  0.00000000E+00  0.00000000E+00  0.00000000E+00
  0.00000000E+00  0.00000000E+00  0.00000000E+00
  0.00000000E+00  0.00000000E+00  0.00000000E+00
