 Ni\(1\1\1)                             
   1.00000000000000     
     9.8291997910000006    0.0000000000000000    0.0000000000000000
     4.9145998955000003    8.5123367178000002    0.0000000000000000
     0.0000000000000000    0.0000000000000000   19.0128002167000005
   Ni   O    C    H 
    64     2     2     3
Direct
  0.8304874798146223  0.5871894385081621  0.2731131780032166
  0.3310563317381420  0.0872922319988753  0.2719512507911447
  0.8306366877706111  0.0875469280982008  0.2724257882110552
  0.3311785577627652  0.5871823780215666  0.2722319043986390
  0.5812551410525568  0.8373664109817350  0.2722703207622952
  0.8305354231420119  0.8373088160293484  0.2720670433853698
  0.0809764423361218  0.3374683445129726  0.2721293233729893
  0.8310164501271153  0.3370697188885502  0.2718624351984930
  0.5810276901486428  0.5877822901093046  0.2722589410047758
  0.0806143566657885  0.5871687063780641  0.2722546151453621
  0.0804714085161834  0.0874701565282694  0.2718978653353957
  0.5810802849677210  0.0869446095884486  0.2722322268857538
  0.3307335612773478  0.8375428334074534  0.2714800121921361
  0.0806110142482738  0.8372911678356078  0.2716329856039294
  0.3310735334413321  0.3371826235906642  0.2714594063208208
  0.5807217659739826  0.3369091982702974  0.2725559887029824
  0.9135162100824993  0.6697852772232589  0.3784359701634896
  0.9141245612401645  0.4203562984397974  0.3780595210018145
  0.6651309496362414  0.6698078462745606  0.3791249337217439
  0.1635453598373246  0.1705515872040453  0.3768613615929235
  0.9127767801448813  0.1710257688660830  0.3781733957705532
  0.9138108261310272  0.9200819720060673  0.3770153913088757
  0.4141235481040274  0.9200103270551857  0.3767194064538731
  0.4138019427901831  0.1703951345392166  0.3768462119153519
  0.6639176443035288  0.1705393736965208  0.3782332810438913
  0.1640496167971738  0.6698870098220150  0.3768677873881773
  0.4146420685004342  0.6696544159679436  0.3773311346556144
  0.4135706819004287  0.4206468763522309  0.3776354212691337
  0.6649926412264829  0.9180334501734322  0.3791912395502368
  0.1626741501417130  0.4211167642686545  0.3781643963264725
  0.6637158979746137  0.4209518643169921  0.3769396071787638
  0.1639821263289622  0.9200749678638208  0.3769271718956070
  0.0025836192624929  0.2495933603032008  0.4825707982392284
  0.4942702473451678  0.2520047724868880  0.4824497115258556
 -0.0000220921597899  0.7541861674833172  0.4819906989788813
  0.4933051493027060  0.7570353030849183  0.4816576568310088
  0.7444226645830958  0.7567764202718603  0.4895560007001389
 -0.0026781460643488  0.5026794951934382  0.4878590439708480
  0.7479638489731391  0.5001188165693037  0.4858642563189500
  0.2471565097910459  0.0029747628057302  0.4828148604519021
 -0.0005822887941462  0.0014545948339995  0.4828625970880365
  0.4951667060426382  0.0047767500711000  0.4828484665979290
  0.2475847564781121  0.7528852043657868  0.4829141483900776
  0.7475924139525650  0.0032303486060020  0.4825652279552616
  0.2477000721488645  0.2525109810081800  0.4827726216184473
  0.7491218040974726  0.2496570773939683  0.4862092060704619
  0.2482786845585493  0.5029186778530573  0.4831005604794557
  0.4957098934272046  0.5040475882438683  0.4874282989522216
  0.9976967135987467  0.2545243349313595  0.1664053642276293
  0.4979574146345461  0.2543823730179096  0.1663565112003786
 -0.0022800507649585  0.7542601381628301  0.1661119939116370
  0.4978292090650538  0.7542047824841615  0.1664260452762641
  0.7478668375426449  0.7540492802534310  0.1666890508589795
  0.9974040193302587  0.5046748399139702  0.1668155076645546
  0.7477823912364829  0.5044710049271608  0.1668900186237324
  0.2476162250673823  0.0045818475638588  0.1661519356945891
 -0.0023393166323187  0.0042034739997636  0.1663364824368770
  0.4976881433242539  0.0043223696690787  0.1664551615243630
  0.2477071110804432  0.7542681457309470  0.1660557495723580
  0.7479177750648496  0.0040252423525246  0.1665381155325088
  0.2475696671851460  0.2544353639383601  0.1663575952333134
  0.7476393610941622  0.2541105416088127  0.1666260938600183
  0.2474466183485871  0.5046879876109808  0.1664331863955223
  0.4977616376591186  0.5043451530449585  0.1668786161407590
  0.8060800343974586  0.6921646437427488  0.5919114748498455
  0.0033710414682583  0.4703356123505233  0.6346253970994857
  0.9271239032073787  0.5619546327228795  0.5791998907107467
  0.6612215105501595  0.4217277623014655  0.5542909049403963
  0.0930003690180695  0.3745353805593672  0.6151584903264947
  0.6377798058006161  0.4892741980920582  0.6035085827641451
  0.7185784106559823  0.2927515246288844  0.5750873104358044
 
  0.00000000E+00  0.00000000E+00  0.00000000E+00
  0.00000000E+00  0.00000000E+00  0.00000000E+00
  0.00000000E+00  0.00000000E+00  0.00000000E+00
  0.00000000E+00  0.00000000E+00  0.00000000E+00
  0.00000000E+00  0.00000000E+00  0.00000000E+00
  0.00000000E+00  0.00000000E+00  0.00000000E+00
  0.00000000E+00  0.00000000E+00  0.00000000E+00
  0.00000000E+00  0.00000000E+00  0.00000000E+00
  0.00000000E+00  0.00000000E+00  0.00000000E+00
  0.00000000E+00  0.00000000E+00  0.00000000E+00
  0.00000000E+00  0.00000000E+00  0.00000000E+00
  0.00000000E+00  0.00000000E+00  0.00000000E+00
  0.00000000E+00  0.00000000E+00  0.00000000E+00
  0.00000000E+00  0.00000000E+00  0.00000000E+00
  0.00000000E+00  0.00000000E+00  0.00000000E+00
  0.00000000E+00  0.00000000E+00  0.00000000E+00
  0.00000000E+00  0.00000000E+00  0.00000000E+00
  0.00000000E+00  0.00000000E+00  0.00000000E+00
  0.00000000E+00  0.00000000E+00  0.00000000E+00
  0.00000000E+00  0.00000000E+00  0.00000000E+00
  0.00000000E+00  0.00000000E+00  0.00000000E+00
  0.00000000E+00  0.00000000E+00  0.00000000E+00
  0.00000000E+00  0.00000000E+00  0.00000000E+00
  0.00000000E+00  0.00000000E+00  0.00000000E+00
  0.00000000E+00  0.00000000E+00  0.00000000E+00
  0.00000000E+00  0.00000000E+00  0.00000000E+00
  0.00000000E+00  0.00000000E+00  0.00000000E+00
  0.00000000E+00  0.00000000E+00  0.00000000E+00
  0.00000000E+00  0.00000000E+00  0.00000000E+00
  0.00000000E+00  0.00000000E+00  0.00000000E+00
  0.00000000E+00  0.00000000E+00  0.00000000E+00
  0.00000000E+00  0.00000000E+00  0.00000000E+00
  0.00000000E+00  0.00000000E+00  0.00000000E+00
  0.00000000E+00  0.00000000E+00  0.00000000E+00
  0.00000000E+00  0.00000000E+00  0.00000000E+00
  0.00000000E+00  0.00000000E+00  0.00000000E+00
  0.00000000E+00  0.00000000E+00  0.00000000E+00
  0.00000000E+00  0.00000000E+00  0.00000000E+00
  0.00000000E+00  0.00000000E+00  0.00000000E+00
  0.00000000E+00  0.00000000E+00  0.00000000E+00
  0.00000000E+00  0.00000000E+00  0.00000000E+00
  0.00000000E+00  0.00000000E+00  0.00000000E+00
  0.00000000E+00  0.00000000E+00  0.00000000E+00
  0.00000000E+00  0.00000000E+00  0.00000000E+00
  0.00000000E+00  0.00000000E+00  0.00000000E+00
  0.00000000E+00  0.00000000E+00  0.00000000E+00
  0.00000000E+00  0.00000000E+00  0.00000000E+00
  0.00000000E+00  0.00000000E+00  0.00000000E+00
  0.00000000E+00  0.00000000E+00  0.00000000E+00
  0.00000000E+00  0.00000000E+00  0.00000000E+00
  0.00000000E+00  0.00000000E+00  0.00000000E+00
  0.00000000E+00  0.00000000E+00  0.00000000E+00
  0.00000000E+00  0.00000000E+00  0.00000000E+00
  0.00000000E+00  0.00000000E+00  0.00000000E+00
  0.00000000E+00  0.00000000E+00  0.00000000E+00
  0.00000000E+00  0.00000000E+00  0.00000000E+00
  0.00000000E+00  0.00000000E+00  0.00000000E+00
  0.00000000E+00  0.00000000E+00  0.00000000E+00
  0.00000000E+00  0.00000000E+00  0.00000000E+00
  0.00000000E+00  0.00000000E+00  0.00000000E+00
  0.00000000E+00  0.00000000E+00  0.00000000E+00
  0.00000000E+00  0.00000000E+00  0.00000000E+00
  0.00000000E+00  0.00000000E+00  0.00000000E+00
  0.00000000E+00  0.00000000E+00  0.00000000E+00
  0.00000000E+00  0.00000000E+00  0.00000000E+00
  0.00000000E+00  0.00000000E+00  0.00000000E+00
  0.00000000E+00  0.00000000E+00  0.00000000E+00
  0.00000000E+00  0.00000000E+00  0.00000000E+00
  0.00000000E+00  0.00000000E+00  0.00000000E+00
  0.00000000E+00  0.00000000E+00  0.00000000E+00
  0.00000000E+00  0.00000000E+00  0.00000000E+00
