Ni_COOHCOH
   1.00000000000000     
     9.8291997910000006    0.0000000000000000    0.0000000000000000
     4.9145998955000003    8.5123367178000002    0.0000000000000000
     0.0000000000000000    0.0000000000000000   19.0128002167000005
   Ni   O    C    H 
    64     3     2     2
Selective dynamics
Direct
      0.8310862314880522      0.5864760439222060      0.2736830998829430   T T T
      0.3315390682809502      0.0866706212049371      0.2721600171247380   T T T
      0.8312074994105842      0.0868810912136401      0.2721989759103747   T T T
      0.3315277416945648      0.5867856847003373      0.2724699881584405   T T T
      0.5816816005135200      0.8366368149567945      0.2726670869492103   T T T
      0.8309737778527927      0.8366567109643173      0.2723927786577292   T T T
      0.0815584598540886      0.3367850858217591      0.2722427737654847   T T T
      0.8318319546987784      0.3363688978020939      0.2717187444044314   T T T
      0.5814591286652622      0.5874073572184344      0.2723487823573761   T T T
      0.0810853549053228      0.5865932903000893      0.2725221981315779   T T T
      0.0815903665469967      0.0867376113517519      0.2715819745658047   T T T
      0.5814673229354954      0.0861094520102830      0.2721107262060785   T T T
      0.3314325201072351      0.8368652219387744      0.2717015168158459   T T T
      0.0812262123738771      0.8368572066440467      0.2718073944571963   T T T
      0.3315602467452280      0.3363396208659942      0.2715666268342353   T T T
      0.5809499715108526      0.3365106042596598      0.2722713809458476   T T T
      0.9140930284562586      0.6686647411109943      0.3787903041561542   T T T
      0.9144667490173715      0.4189837454401289      0.3785052661267331   T T T
      0.6655889236623563      0.6686021785935624      0.3799003243482734   T T T
      0.1642813475363486      0.1697364840581210      0.3770754797669849   T T T
      0.9141259071115916      0.1701354032812664      0.3772652059796244   T T T
      0.9142715840218585      0.9195836680461158      0.3772025453666226   T T T
      0.4149120107108855      0.9189655614189642      0.3774182571754196   T T T
      0.4144786976776093      0.1696579423889673      0.3770714203167537   T T T
      0.6641975777679515      0.1698152063586897      0.3775418907255765   T T T
      0.1648459025696818      0.6690705491802723      0.3772338413530472   T T T
      0.4157326386998045      0.6687594708085536      0.3777292163392812   T T T
      0.4145581883737507      0.4193102532459316      0.3775369681829481   T T T
      0.6657470571946494      0.9171623594411552      0.3794519058210473   T T T
      0.1631984377118359      0.4202173919316980      0.3783693989325478   T T T
      0.6650592052608401      0.4194785647870184      0.3764403427149488   T T T
      0.1644360358273138      0.9195117950962198      0.3771262999184958   T T T
      0.0028393665452964      0.2471532406538177      0.4826670624313660   T T T
      0.4960216133003254      0.2504531044707109      0.4826936341694155   T T T
      0.0004380503244273      0.7534065808512175      0.4822215809063081   T T T
      0.4939103534800304      0.7559177991328168      0.4829161603976562   T T T
      0.7453157799727959      0.7560920057277394      0.4897144277181878   T T T
      0.9978266542973635      0.5007999194363610      0.4881563166413368   T T T
      0.7489759494842636      0.4983102011317291      0.4879044395280723   T T T
      0.2476956827202816      0.0019099691783515      0.4832117034748178   T T T
     -0.0011938307862246      0.0014752198906705      0.4830381745388843   T T T
      0.4957755946469186      0.0038572300005091      0.4832087702365921   T T T
      0.2479442129359333      0.7521422272539831      0.4831918233985458   T T T
      0.7482386069869865      0.0032171564001900      0.4829876770412930   T T T
      0.2481781940731973      0.2517129382450658      0.4830535813142540   T T T
      0.7492399829019875      0.2487240120945398      0.4862674569352152   T T T
      0.2481544811115459      0.5018428044612745      0.4832038108778761   T T T
      0.4956150333211755      0.5024298516126623      0.4865536690924603   T T T
      0.9978978607587319      0.2541469403133834      0.1663809214810845   F F F
      0.4984321094115162      0.2539273747406160      0.1663352448479575   F F F
     -0.0017349356595992      0.7538288475728161      0.1663778590555006   F F F
      0.4983761631055100      0.7538288111713705      0.1665662839099712   F F F
      0.7486113963516342      0.7532840365412335      0.1672391161774031   F F F
     -0.0020917066053387      0.5041175147888303      0.1671159781872315   F F F
      0.7481405347412159      0.5041809315830129      0.1670545239000434   F F F
      0.2482537266233501      0.0039638374403900      0.1661798470073519   F F F
     -0.0019799153392669      0.0039874678319969      0.1662792564568855   F F F
      0.4983534276468490      0.0037791338656892      0.1667042865768496   F F F
      0.2480483925680183      0.7538612461290497      0.1662451276671690   F F F
      0.7486106693121273      0.0035128105409105      0.1666145634410225   F F F
      0.2479094292538801      0.2539583507208732      0.1665317307176119   F F F
      0.7477907745129283      0.2540090230121822      0.1665503172246587   F F F
      0.2477890656502583      0.5041794401880345      0.1667716060375596   F F F
      0.4978997497923566      0.5040841261068397      0.1668639187631064   F F F
      0.8079569851267420      0.6925304115681499      0.5924101922761936   T T T
      0.9962252299472526      0.4639356895170890      0.6343811477321112   T T T
      0.6652296409672797      0.4123269870277452      0.6190865455989989   T T T
      0.9237223204735486      0.5589213413320988      0.5793688521809951   T T T
      0.6611893116999638      0.4167096031642429      0.5491120826541251   T T T
      0.0808749057334980      0.3652228352399012      0.6144163416942267   T T T
      0.5771922334275250      0.4026981276991288      0.6376234883178838   T T T
 
  0.00000000E+00  0.00000000E+00  0.00000000E+00
  0.00000000E+00  0.00000000E+00  0.00000000E+00
  0.00000000E+00  0.00000000E+00  0.00000000E+00
  0.00000000E+00  0.00000000E+00  0.00000000E+00
  0.00000000E+00  0.00000000E+00  0.00000000E+00
  0.00000000E+00  0.00000000E+00  0.00000000E+00
  0.00000000E+00  0.00000000E+00  0.00000000E+00
  0.00000000E+00  0.00000000E+00  0.00000000E+00
  0.00000000E+00  0.00000000E+00  0.00000000E+00
  0.00000000E+00  0.00000000E+00  0.00000000E+00
  0.00000000E+00  0.00000000E+00  0.00000000E+00
  0.00000000E+00  0.00000000E+00  0.00000000E+00
  0.00000000E+00  0.00000000E+00  0.00000000E+00
  0.00000000E+00  0.00000000E+00  0.00000000E+00
  0.00000000E+00  0.00000000E+00  0.00000000E+00
  0.00000000E+00  0.00000000E+00  0.00000000E+00
  0.00000000E+00  0.00000000E+00  0.00000000E+00
  0.00000000E+00  0.00000000E+00  0.00000000E+00
  0.00000000E+00  0.00000000E+00  0.00000000E+00
  0.00000000E+00  0.00000000E+00  0.00000000E+00
  0.00000000E+00  0.00000000E+00  0.00000000E+00
  0.00000000E+00  0.00000000E+00  0.00000000E+00
  0.00000000E+00  0.00000000E+00  0.00000000E+00
  0.00000000E+00  0.00000000E+00  0.00000000E+00
  0.00000000E+00  0.00000000E+00  0.00000000E+00
  0.00000000E+00  0.00000000E+00  0.00000000E+00
  0.00000000E+00  0.00000000E+00  0.00000000E+00
  0.00000000E+00  0.00000000E+00  0.00000000E+00
  0.00000000E+00  0.00000000E+00  0.00000000E+00
  0.00000000E+00  0.00000000E+00  0.00000000E+00
  0.00000000E+00  0.00000000E+00  0.00000000E+00
  0.00000000E+00  0.00000000E+00  0.00000000E+00
  0.00000000E+00  0.00000000E+00  0.00000000E+00
  0.00000000E+00  0.00000000E+00  0.00000000E+00
  0.00000000E+00  0.00000000E+00  0.00000000E+00
  0.00000000E+00  0.00000000E+00  0.00000000E+00
  0.00000000E+00  0.00000000E+00  0.00000000E+00
  0.00000000E+00  0.00000000E+00  0.00000000E+00
  0.00000000E+00  0.00000000E+00  0.00000000E+00
  0.00000000E+00  0.00000000E+00  0.00000000E+00
  0.00000000E+00  0.00000000E+00  0.00000000E+00
  0.00000000E+00  0.00000000E+00  0.00000000E+00
  0.00000000E+00  0.00000000E+00  0.00000000E+00
  0.00000000E+00  0.00000000E+00  0.00000000E+00
  0.00000000E+00  0.00000000E+00  0.00000000E+00
  0.00000000E+00  0.00000000E+00  0.00000000E+00
  0.00000000E+00  0.00000000E+00  0.00000000E+00
  0.00000000E+00  0.00000000E+00  0.00000000E+00
  0.00000000E+00  0.00000000E+00  0.00000000E+00
  0.00000000E+00  0.00000000E+00  0.00000000E+00
  0.00000000E+00  0.00000000E+00  0.00000000E+00
  0.00000000E+00  0.00000000E+00  0.00000000E+00
  0.00000000E+00  0.00000000E+00  0.00000000E+00
  0.00000000E+00  0.00000000E+00  0.00000000E+00
  0.00000000E+00  0.00000000E+00  0.00000000E+00
  0.00000000E+00  0.00000000E+00  0.00000000E+00
  0.00000000E+00  0.00000000E+00  0.00000000E+00
  0.00000000E+00  0.00000000E+00  0.00000000E+00
  0.00000000E+00  0.00000000E+00  0.00000000E+00
  0.00000000E+00  0.00000000E+00  0.00000000E+00
  0.00000000E+00  0.00000000E+00  0.00000000E+00
  0.00000000E+00  0.00000000E+00  0.00000000E+00
  0.00000000E+00  0.00000000E+00  0.00000000E+00
  0.00000000E+00  0.00000000E+00  0.00000000E+00
  0.00000000E+00  0.00000000E+00  0.00000000E+00
  0.00000000E+00  0.00000000E+00  0.00000000E+00
  0.00000000E+00  0.00000000E+00  0.00000000E+00
  0.00000000E+00  0.00000000E+00  0.00000000E+00
  0.00000000E+00  0.00000000E+00  0.00000000E+00
  0.00000000E+00  0.00000000E+00  0.00000000E+00
  0.00000000E+00  0.00000000E+00  0.00000000E+00
