Ni_COOHCHO
   1.00000000000000     
     9.8291997910000006    0.0000000000000000    0.0000000000000000
     4.9145998955000003    8.5123367178000002    0.0000000000000000
     0.0000000000000000    0.0000000000000000   19.0128002167000005
   Ni   O    C    H 
    64     3     2     2
Selective dynamics
Direct
      0.8306996710509116      0.5937816025885841      0.2705569481270714   T T T
      0.3304543332468907      0.0935229049536882      0.2696708422319681   T T T
      0.8305496712989484      0.0933792911807882      0.2700141154327033   T T T
      0.3307179901657982      0.5936210064722888      0.2691752849811737   T T T
      0.5803441939734499      0.8439988551622915      0.2695644461599323   T T T
      0.8311587200454799      0.8426898362036863      0.2699870578552072   T T T
      0.0808643599786566      0.3434283332185940      0.2703370991339578   T T T
      0.8312260618394390      0.3433765219105790      0.2701861270592901   T T T
      0.5811628557553180      0.5932628704997168      0.2694956768863179   T T T
      0.0803002762539577      0.5936856307648360      0.2703458764916918   T T T
      0.0802688785111221      0.0939477619942875      0.2697203379416242   T T T
      0.5808739873689850      0.0933287240117814      0.2699549276146228   T T T
      0.3304854211270095      0.8438550463475170      0.2695393901563035   T T T
      0.0805731975192161      0.8437372394614862      0.2693576409648049   T T T
      0.3299642471882017      0.3439024069493203      0.2695072101180701   T T T
      0.5809799797650186      0.3428948222448842      0.2698829537229611   T T T
      0.9144967372899324      0.6750703370849871      0.3774666635966800   T T T
      0.9138069173719802      0.4275573189310281      0.3765925146016021   T T T
      0.6641944945914660      0.6758109315586870      0.3754824978509997   T T T
      0.1616386744994276      0.1779327630799423      0.3758354337878418   T T T
      0.9130907549281286      0.1775361687938055      0.3759693240833658   T T T
      0.9140939804327631      0.9264590156515597      0.3747542180454733   T T T
      0.4135867143155170      0.9270893124760964      0.3750324791428316   T T T
      0.4137176923118865      0.1769132001244771      0.3743981767240158   T T T
      0.6650957053557282      0.1776379541215364      0.3766077778259374   T T T
      0.1641694199612845      0.6771186207207488      0.3748484950703241   T T T
      0.4149065943157327      0.6763120050394879      0.3743975871616923   T T T
      0.4138914147915110      0.4263787966662801      0.3741009986921799   T T T
      0.6642183885805536      0.9263302393083703      0.3748354063453997   T T T
      0.1622228158170193      0.4278863078893196      0.3763981077010447   T T T
      0.6650748600388743      0.4255317574512902      0.3754769518357056   T T T
      0.1639423197962280      0.9274120812855754      0.3746628717029450   T T T
     -0.0055991621383085      0.2632237762536499      0.4833241961713558   T T T
      0.4948524731293324      0.2607346758395702      0.4800281724484732   T T T
     -0.0022641252739138      0.7622488219825406      0.4808350654055185   T T T
      0.4939709958108459      0.7631554380373239      0.4807458788531001   T T T
      0.7443011615392721      0.7636935401805509      0.4809015663563059   T T T
      0.0009414018165401      0.5133583418580274      0.4884150696833624   T T T
      0.7429224499934721      0.5148462955279413      0.4815847095783302   T T T
      0.2460425113968392      0.0113158913155652      0.4807790269650033   T T T
     -0.0006911039768915      0.0076653848323088      0.4798389289157092   T T T
      0.4964266708859968      0.0110277624339955      0.4807745931685733   T T T
      0.2468923700262006      0.7615601092657531      0.4808487868578116   T T T
      0.7471054662248439      0.0083406303046627      0.4802407693545552   T T T
      0.2494359444554503      0.2580571348882337      0.4795081769876138   T T T
      0.7453449658333381      0.2562534445392579      0.4875375693567670   T T T
      0.2484870792965513      0.5116485740006826      0.4800208649230193   T T T
      0.4922004448781441      0.5126629803014950      0.4787647564438475   T T T
      0.9967398544286316      0.2609657006252297      0.1642541596936484   F F F
      0.4966602514190047      0.2607862626810735      0.1641970257372200   F F F
     -0.0036860039027650      0.7609250981955121      0.1640576267577988   F F F
      0.4963146258701782      0.7607674914541337      0.1639627510607516   F F F
      0.7466358651266787      0.7606917103255280      0.1643039361407195   F F F
     -0.0036997587957864      0.5111539162660029      0.1645539988742809   F F F
      0.7469068564789944      0.5107588958790907      0.1643245459148505   F F F
      0.2462106527234593      0.0109188571306399      0.1639492749702233   F F F
     -0.0035762003115581      0.0110822006215062      0.1639476970800827   F F F
      0.4961563564703805      0.0110987970365101      0.1638829485724451   F F F
      0.2461743264491606      0.7607103368839800      0.1634999024454359   F F F
      0.7464584048293048      0.0109063093395490      0.1642819918311491   F F F
      0.2462252490164985      0.2609818795967011      0.1640416475189500   F F F
      0.7467971978176562      0.2609255781694135      0.1644259013617930   F F F
      0.2462053518147767      0.5109354159835120      0.1639661312201942   F F F
      0.4967305099085249      0.5108777163241126      0.1638798741313922   F F F
      0.0173853535792267      0.4639376928088271      0.5927917978884415   T T T
      0.0379733825449973      0.2571270169864757      0.6550930389909525   T T T
      0.7743333572801059      0.2850776219211921      0.5846697602391303   T T T
      0.9722938060008413      0.3652524205274398      0.6042782163354391   T T T
      0.8313888609861361      0.3782278037837624      0.5694314211170043   T T T
      0.1274745776018517      0.2643427725712689      0.6734651521625107   T T T
      0.7382311312795833      0.5151999941794669      0.5702552074405117   T T T
 
  0.00000000E+00  0.00000000E+00  0.00000000E+00
  0.00000000E+00  0.00000000E+00  0.00000000E+00
  0.00000000E+00  0.00000000E+00  0.00000000E+00
  0.00000000E+00  0.00000000E+00  0.00000000E+00
  0.00000000E+00  0.00000000E+00  0.00000000E+00
  0.00000000E+00  0.00000000E+00  0.00000000E+00
  0.00000000E+00  0.00000000E+00  0.00000000E+00
  0.00000000E+00  0.00000000E+00  0.00000000E+00
  0.00000000E+00  0.00000000E+00  0.00000000E+00
  0.00000000E+00  0.00000000E+00  0.00000000E+00
  0.00000000E+00  0.00000000E+00  0.00000000E+00
  0.00000000E+00  0.00000000E+00  0.00000000E+00
  0.00000000E+00  0.00000000E+00  0.00000000E+00
  0.00000000E+00  0.00000000E+00  0.00000000E+00
  0.00000000E+00  0.00000000E+00  0.00000000E+00
  0.00000000E+00  0.00000000E+00  0.00000000E+00
  0.00000000E+00  0.00000000E+00  0.00000000E+00
  0.00000000E+00  0.00000000E+00  0.00000000E+00
  0.00000000E+00  0.00000000E+00  0.00000000E+00
  0.00000000E+00  0.00000000E+00  0.00000000E+00
  0.00000000E+00  0.00000000E+00  0.00000000E+00
  0.00000000E+00  0.00000000E+00  0.00000000E+00
  0.00000000E+00  0.00000000E+00  0.00000000E+00
  0.00000000E+00  0.00000000E+00  0.00000000E+00
  0.00000000E+00  0.00000000E+00  0.00000000E+00
  0.00000000E+00  0.00000000E+00  0.00000000E+00
  0.00000000E+00  0.00000000E+00  0.00000000E+00
  0.00000000E+00  0.00000000E+00  0.00000000E+00
  0.00000000E+00  0.00000000E+00  0.00000000E+00
  0.00000000E+00  0.00000000E+00  0.00000000E+00
  0.00000000E+00  0.00000000E+00  0.00000000E+00
  0.00000000E+00  0.00000000E+00  0.00000000E+00
  0.00000000E+00  0.00000000E+00  0.00000000E+00
  0.00000000E+00  0.00000000E+00  0.00000000E+00
  0.00000000E+00  0.00000000E+00  0.00000000E+00
  0.00000000E+00  0.00000000E+00  0.00000000E+00
  0.00000000E+00  0.00000000E+00  0.00000000E+00
  0.00000000E+00  0.00000000E+00  0.00000000E+00
  0.00000000E+00  0.00000000E+00  0.00000000E+00
  0.00000000E+00  0.00000000E+00  0.00000000E+00
  0.00000000E+00  0.00000000E+00  0.00000000E+00
  0.00000000E+00  0.00000000E+00  0.00000000E+00
  0.00000000E+00  0.00000000E+00  0.00000000E+00
  0.00000000E+00  0.00000000E+00  0.00000000E+00
  0.00000000E+00  0.00000000E+00  0.00000000E+00
  0.00000000E+00  0.00000000E+00  0.00000000E+00
  0.00000000E+00  0.00000000E+00  0.00000000E+00
  0.00000000E+00  0.00000000E+00  0.00000000E+00
  0.00000000E+00  0.00000000E+00  0.00000000E+00
  0.00000000E+00  0.00000000E+00  0.00000000E+00
  0.00000000E+00  0.00000000E+00  0.00000000E+00
  0.00000000E+00  0.00000000E+00  0.00000000E+00
  0.00000000E+00  0.00000000E+00  0.00000000E+00
  0.00000000E+00  0.00000000E+00  0.00000000E+00
  0.00000000E+00  0.00000000E+00  0.00000000E+00
  0.00000000E+00  0.00000000E+00  0.00000000E+00
  0.00000000E+00  0.00000000E+00  0.00000000E+00
  0.00000000E+00  0.00000000E+00  0.00000000E+00
  0.00000000E+00  0.00000000E+00  0.00000000E+00
  0.00000000E+00  0.00000000E+00  0.00000000E+00
  0.00000000E+00  0.00000000E+00  0.00000000E+00
  0.00000000E+00  0.00000000E+00  0.00000000E+00
  0.00000000E+00  0.00000000E+00  0.00000000E+00
  0.00000000E+00  0.00000000E+00  0.00000000E+00
  0.00000000E+00  0.00000000E+00  0.00000000E+00
  0.00000000E+00  0.00000000E+00  0.00000000E+00
  0.00000000E+00  0.00000000E+00  0.00000000E+00
  0.00000000E+00  0.00000000E+00  0.00000000E+00
  0.00000000E+00  0.00000000E+00  0.00000000E+00
  0.00000000E+00  0.00000000E+00  0.00000000E+00
  0.00000000E+00  0.00000000E+00  0.00000000E+00
