Ni_Pol_COCOH
   1.00000000000000     
     9.8291997910000006    0.0000000000000000    0.0000000000000000
     4.9145998955000003    8.5123367178000002    0.0000000000000000
     0.0000000000000000    0.0000000000000000   19.0128002167000005
   Ni   O    C    O    C    O    H 
    64     3     1     1     1     1     1
Selective dynamics
Direct
  0.8348751561252312  0.5832067882377312  0.2712463930289021   T   T   T
  0.3349245756705063  0.0828907109389944  0.2702672168842207   T   T   T
  0.8351677769406141  0.0834604266102504  0.2708109124838953   T   T   T
  0.3350692288884863  0.5836312414156429  0.2710736132145127   T   T   T
  0.5848439063431281  0.8334873506877996  0.2706518737339413   T   T   T
  0.8348651706012560  0.8334398621026955  0.2707412927183698   T   T   T
  0.0849322754505017  0.3330912093748415  0.2704415804311623   T   T   T
  0.8346327133150859  0.3330746260217716  0.2717993464021535   T   T   T
  0.5851175051137325  0.5825345895748831  0.2721822390742134   T   T   T
  0.0849289053294131  0.5833446633214302  0.2708594059374899   T   T   T
  0.0845782966665275  0.0838891336232961  0.2705150952583724   T   T   T
  0.5850270419112377  0.0834961052243608  0.2710465983170504   T   T   T
  0.3355002241339308  0.8326636730364196  0.2708565297922636   T   T   T
  0.0849094649608683  0.8333341451217826  0.2706889130742058   T   T   T
  0.3348710241080429  0.3336054123775882  0.2712008040659251   T   T   T
  0.5850052919585278  0.3332077805508905  0.2719542173261429   T   T   T
  0.9189439020469382  0.6665978065683076  0.3750875877974122   T   T   T
  0.9186801865213406  0.4160233330848871  0.3753893906290670   T   T   T
  0.6686895167604260  0.6660594617092758  0.3755707209051931   T   T   T
  0.1692161822276521  0.1657343924822528  0.3757470323821767   T   T   T
  0.9183481357230897  0.1661872081753040  0.3772040741462369   T   T   T
  0.9187308298873766  0.9173239816410175  0.3756718587956496   T   T   T
  0.4183535569586928  0.9165004096771587  0.3759055379306908   T   T   T
  0.4186251270608790  0.1662600706280296  0.3754069792309911   T   T   T
  0.6700306357528030  0.1666582080422910  0.3767971455537011   T   T   T
  0.1696083852881869  0.6664875239960083  0.3758389425784439   T   T   T
  0.4190275694083563  0.6653184033247412  0.3776778633056600   T   T   T
  0.4190585678297344  0.4176333285874921  0.3769102000842894   T   T   T
  0.6679197340161002  0.9181082659589669  0.3771436544756330   T   T   T
  0.1701795539069625  0.4156364084915641  0.3772385548541699   T   T   T
  0.6683741518976841  0.4155098310916311  0.3805245212412537   T   T   T
  0.1690049770540362  0.9165299933934162  0.3780655538238394   T   T   T
  0.0011121994853448  0.2546138821026081  0.4795587076459550   T   T   T
  0.5019820501747857  0.2490807795463509  0.4783448481515425   T   T   T
 -0.0005606136080678  0.7468687789879110  0.4797234132324660   T   T   T
  0.5073980978942876  0.7482062668165004  0.4799086752058701   T   T   T
  0.7528986361806739  0.7501240337241497  0.4802885576778769   T   T   T
  0.0030479892549862  0.5000330208159661  0.4802630212927574   T   T   T
  0.7577022656361716  0.5053527889366974  0.4846956248175299   T   T   T
  0.2505868586355336  0.9981485312243066  0.4854681184890278   T   T   T
  0.0062797067383345  0.9971429327294878  0.4845917548635993   T   T   T
  0.5057125099764552  0.9979683501052358  0.4854899360234978   T   T   T
  0.2503312699863129  0.7538478723154290  0.4847437741410954   T   T   T
  0.7507665113508956  0.9956247814653969  0.4851048026051598   T   T   T
  0.2505519477211223  0.2532628960990073  0.4857800008567280   T   T   T
  0.7521597250226042  0.2531186971608844  0.4948530166243467   T   T   T
  0.2487501990585452  0.4985135611145824  0.4853584992164044   T   T   T
  0.5068595536347389  0.4974732402855324  0.4962117918997777   T   T   T
  0.9970724670000024  0.2558556729999992  0.1637003960000030   F   F   F
  0.4999617989999976  0.2500875830000027  0.1643123180000003   F   F   F
  0.9968841629999972  0.7476992069999966  0.1643590660000029   F   F   F
  0.5054474789999972  0.7476858750000019  0.1651548480000002   F   F   F
  0.7507219769999978  0.7486395119999969  0.1651830500000031   F   F   F
  0.9979410790000003  0.5014025589999989  0.1651978470000017   F   F   F
  0.7507272960000009  0.5014379059999996  0.1654730480000026   F   F   F
  0.2484077359999972  0.9989653640000000  0.1655050250000016   F   F   F
  0.0026835399999996  0.9989392600000002  0.1655775309999967   F   F   F
  0.5037179199999997  0.9979203070000011  0.1655856309999990   F   F   F
  0.2483221529999966  0.7533767729999994  0.1658259459999982   F   F   F
  0.7484137009999969  0.9978805350000002  0.1658943890000018   F   F   F
  0.2473094730000014  0.2543786680000011  0.1660089160000027   F   F   F
  0.7483561820000020  0.2543461500000035  0.1660180820000008   F   F   F
  0.2472921950000000  0.4989472700000022  0.1662971330000005   F   F   F
  0.5037960519999984  0.4989156760000029  0.1664085250000014   F   F   F
  0.3355729041410046  0.0828350920039656  0.5451603371794266   T   T   T
  0.8439122455109072  0.0668489234982005  0.5465228384091525   T   T   T
  0.3200766189570386  0.5917594706755688  0.5467258851017525   T   T   T
  0.7336973016880515  0.4874762342030174  0.5815156651955010   T   T   T
  0.7710528449587151  0.5332217419529159  0.6330073772625562   T   T   T
  0.6539414391668535  0.3953460348091180  0.5718952503086822   T   T   T
  0.6177566919002320  0.3486670012611577  0.6322012858685698   T   T   T
  0.5731030825852158  0.2811795484965081  0.6216679678759683   T   T   T
 
  0.00000000E+00  0.00000000E+00  0.00000000E+00
  0.00000000E+00  0.00000000E+00  0.00000000E+00
  0.00000000E+00  0.00000000E+00  0.00000000E+00
  0.00000000E+00  0.00000000E+00  0.00000000E+00
  0.00000000E+00  0.00000000E+00  0.00000000E+00
  0.00000000E+00  0.00000000E+00  0.00000000E+00
  0.00000000E+00  0.00000000E+00  0.00000000E+00
  0.00000000E+00  0.00000000E+00  0.00000000E+00
  0.00000000E+00  0.00000000E+00  0.00000000E+00
  0.00000000E+00  0.00000000E+00  0.00000000E+00
  0.00000000E+00  0.00000000E+00  0.00000000E+00
  0.00000000E+00  0.00000000E+00  0.00000000E+00
  0.00000000E+00  0.00000000E+00  0.00000000E+00
  0.00000000E+00  0.00000000E+00  0.00000000E+00
  0.00000000E+00  0.00000000E+00  0.00000000E+00
  0.00000000E+00  0.00000000E+00  0.00000000E+00
  0.00000000E+00  0.00000000E+00  0.00000000E+00
  0.00000000E+00  0.00000000E+00  0.00000000E+00
  0.00000000E+00  0.00000000E+00  0.00000000E+00
  0.00000000E+00  0.00000000E+00  0.00000000E+00
  0.00000000E+00  0.00000000E+00  0.00000000E+00
  0.00000000E+00  0.00000000E+00  0.00000000E+00
  0.00000000E+00  0.00000000E+00  0.00000000E+00
  0.00000000E+00  0.00000000E+00  0.00000000E+00
  0.00000000E+00  0.00000000E+00  0.00000000E+00
  0.00000000E+00  0.00000000E+00  0.00000000E+00
  0.00000000E+00  0.00000000E+00  0.00000000E+00
  0.00000000E+00  0.00000000E+00  0.00000000E+00
  0.00000000E+00  0.00000000E+00  0.00000000E+00
  0.00000000E+00  0.00000000E+00  0.00000000E+00
  0.00000000E+00  0.00000000E+00  0.00000000E+00
  0.00000000E+00  0.00000000E+00  0.00000000E+00
  0.00000000E+00  0.00000000E+00  0.00000000E+00
  0.00000000E+00  0.00000000E+00  0.00000000E+00
  0.00000000E+00  0.00000000E+00  0.00000000E+00
  0.00000000E+00  0.00000000E+00  0.00000000E+00
  0.00000000E+00  0.00000000E+00  0.00000000E+00
  0.00000000E+00  0.00000000E+00  0.00000000E+00
  0.00000000E+00  0.00000000E+00  0.00000000E+00
  0.00000000E+00  0.00000000E+00  0.00000000E+00
  0.00000000E+00  0.00000000E+00  0.00000000E+00
  0.00000000E+00  0.00000000E+00  0.00000000E+00
  0.00000000E+00  0.00000000E+00  0.00000000E+00
  0.00000000E+00  0.00000000E+00  0.00000000E+00
  0.00000000E+00  0.00000000E+00  0.00000000E+00
  0.00000000E+00  0.00000000E+00  0.00000000E+00
  0.00000000E+00  0.00000000E+00  0.00000000E+00
  0.00000000E+00  0.00000000E+00  0.00000000E+00
  0.00000000E+00  0.00000000E+00  0.00000000E+00
  0.00000000E+00  0.00000000E+00  0.00000000E+00
  0.00000000E+00  0.00000000E+00  0.00000000E+00
  0.00000000E+00  0.00000000E+00  0.00000000E+00
  0.00000000E+00  0.00000000E+00  0.00000000E+00
  0.00000000E+00  0.00000000E+00  0.00000000E+00
  0.00000000E+00  0.00000000E+00  0.00000000E+00
  0.00000000E+00  0.00000000E+00  0.00000000E+00
  0.00000000E+00  0.00000000E+00  0.00000000E+00
  0.00000000E+00  0.00000000E+00  0.00000000E+00
  0.00000000E+00  0.00000000E+00  0.00000000E+00
  0.00000000E+00  0.00000000E+00  0.00000000E+00
  0.00000000E+00  0.00000000E+00  0.00000000E+00
  0.00000000E+00  0.00000000E+00  0.00000000E+00
  0.00000000E+00  0.00000000E+00  0.00000000E+00
  0.00000000E+00  0.00000000E+00  0.00000000E+00
  0.00000000E+00  0.00000000E+00  0.00000000E+00
  0.00000000E+00  0.00000000E+00  0.00000000E+00
  0.00000000E+00  0.00000000E+00  0.00000000E+00
  0.00000000E+00  0.00000000E+00  0.00000000E+00
  0.00000000E+00  0.00000000E+00  0.00000000E+00
  0.00000000E+00  0.00000000E+00  0.00000000E+00
  0.00000000E+00  0.00000000E+00  0.00000000E+00
  0.00000000E+00  0.00000000E+00  0.00000000E+00
