 Ni_CO2_vacuum
   1.000
    9.8291997910000006    0.0000000000000000    0.0000000000000000
    4.9145998955000003    8.5123367178000002    0.0000000000000000
    0.0000000000000000    0.0000000000000000   30.7147998810000011
   Ni   O    C 
   64    2    1
Selective Dynamics
Direct
    0.0823912909576899    0.0895693953392128    0.1203272569057285    T  T  T
    0.3322095368759251    0.0899785054279439    0.1206553978055303    T  T  T
    0.3321078374032548    0.8394753710008412    0.1208260482245291    T  T  T
    0.5822462157743802    0.3397474013579114    0.1211399374118143    T  T  T
    0.3323000767601473    0.5901450974657997    0.1210766050572551    T  T  T
    0.3325392612501014    0.3403931104039792    0.1204348671181631    T  T  T
    0.8321954774602456    0.0900681653093228    0.1206592102148469    T  T  T
    0.5824004274468052    0.0900587279059443    0.1203049939079456    T  T  T
    0.8318291500697794    0.3396961576096126    0.1206678639697039    T  T  T
    0.5817784221967122    0.5897078962535053    0.1211076902432423    T  T  T
    0.0819910874281517    0.8400002717366271    0.1204230127527151    T  T  T
    0.5819650020010186    0.8400607772791598    0.1206187872012290    T  T  T
    0.0822327175950707    0.3399247771403657    0.1205226896600048    T  T  T
    0.8318008814264154    0.5897901875145181    0.1203623915432099    T  T  T
    0.0821520600436660    0.5898625732182476    0.1202639667097126    T  T  T
    0.8321223036991655    0.8399633956046562    0.1202661707495657    T  T  T
    0.1651915580950761    0.1729246098487133    0.1855217197965033    T  T  T
    0.1654039200732176    0.9228442667631770    0.1855856273464957    T  T  T
    0.4158804092391407    0.1734567361546428    0.1854088365386256    T  T  T
    0.4154528433434589    0.9228205238271017    0.1856118318139361    T  T  T
    0.4161795707120685    0.4239096037395234    0.1864602088308489    T  T  T
    0.4165800118206198    0.6708989446797761    0.1870849848445621    T  T  T
    0.9146928401546222    0.1733800747029998    0.1858899535206345    T  T  T
    0.6660696327621572    0.1738435040185744    0.1860919084275571    T  T  T
    0.6658275932481974    0.4221917922983118    0.1866612020635771    T  T  T
    0.1653157640301909    0.6732230788390146    0.1855281374181285    T  T  T
    0.9154081186946339    0.4227745052642609    0.1853969206208238    T  T  T
    0.6654257080232033    0.6730208731827565    0.1855590580366086    T  T  T
    0.9153045139842820    0.9234333038019630    0.1855363755770028    T  T  T
    0.6655879684614775    0.9235353470035251    0.1855344756425891    T  T  T
    0.1658574569214719    0.4229533632931240    0.1854064066005257    T  T  T
    0.9155479308190833    0.6729560692997285    0.1854109157980900    T  T  T
    0.2481053969958988    0.0060359595855878    0.2508989116538182    T  T  T
    0.4971146877842273    0.2536415490956266    0.2504615278321228    T  T  T
    0.4968926310653746    0.5073125908825841    0.2552328665761274    T  T  T
    0.2480568184148902    0.2557506832064206    0.2508544343990121    T  T  T
   -0.0008361110660300    0.2558283373995939    0.2507166336115870    T  T  T
    0.7486289274167274    0.2561632052129307    0.2546482020421869    T  T  T
    0.4980797477596888    0.7583410791938300    0.2509634001325515    T  T  T
    0.2461747935451461    0.7575073747751153    0.2509400173234946    T  T  T
    0.4981550209626489    0.0058680748993084    0.2509478772189115    T  T  T
   -0.0021160850457450    0.0060804431331731    0.2510176215185640    T  T  T
    0.2458814709673555    0.5066561317323282    0.2506954927892805    T  T  T
    0.7509045248584982    0.5076901104766880    0.2504977606390350    T  T  T
    0.7488033197630486    0.0050993953760345    0.2509637182495885    T  T  T
   -0.0021889848009712    0.7561151082910568    0.2509267960345437    T  T  T
    0.7485440399227745    0.7565729907865012    0.2509319965679426    T  T  T
   -0.0012975126795361    0.5059449981119343    0.2508746210664191    T  T  T
    0.2491116518063951    0.0063110443561393    0.0551367585147556    F  F  F
    0.4986389138169698    0.2565113323690942    0.0552129575914002    F  F  F
    0.4984666535421143    0.5061153322842655    0.0556911195437142    F  F  F
    0.2486764554019836    0.2565815522022354    0.0551753811717367    F  F  F
    0.9984876597604367    0.2564959241104047    0.0552174408216749    F  F  F
    0.7484048903726862    0.2564445848363245    0.0553688817040347    F  F  F
    0.4986408295774912    0.7558019137884714    0.0554935590776780    F  F  F
    0.2487449420348235    0.7560524684547313    0.0553373012705816    F  F  F
    0.4988130048447498    0.0061367858667898    0.0551933879127607    F  F  F
    0.9986389593384312    0.0064568741141188    0.0550824080834519    F  F  F
    0.2486743009528768    0.5065817174713599    0.0551505716523056    F  F  F
    0.7484569799739268    0.5061220268629798    0.0553042738658303    F  F  F
    0.7487225715300252    0.0066653382969490    0.0549222560263549    F  F  F
    0.9988039605263516    0.7565131339456242    0.0548266394277842    F  F  F
    0.7485562448539052    0.7563218201190227    0.0550441554012909    F  F  F
    0.9985239623958498    0.5066845936345212    0.0549595870555369    F  F  F
    0.5522166295499947    0.4526147547491972    0.3165148695453261    T  T  T
    0.7809687671176477    0.2371903042933478    0.3409691002605736    T  T  T
    0.6850374759678991    0.3257505208008964    0.3146938540663095    T  T  T

  0.00000000E+00  0.00000000E+00  0.00000000E+00
  0.00000000E+00  0.00000000E+00  0.00000000E+00
  0.00000000E+00  0.00000000E+00  0.00000000E+00
  0.00000000E+00  0.00000000E+00  0.00000000E+00
  0.00000000E+00  0.00000000E+00  0.00000000E+00
  0.00000000E+00  0.00000000E+00  0.00000000E+00
  0.00000000E+00  0.00000000E+00  0.00000000E+00
  0.00000000E+00  0.00000000E+00  0.00000000E+00
  0.00000000E+00  0.00000000E+00  0.00000000E+00
  0.00000000E+00  0.00000000E+00  0.00000000E+00
  0.00000000E+00  0.00000000E+00  0.00000000E+00
  0.00000000E+00  0.00000000E+00  0.00000000E+00
  0.00000000E+00  0.00000000E+00  0.00000000E+00
  0.00000000E+00  0.00000000E+00  0.00000000E+00
  0.00000000E+00  0.00000000E+00  0.00000000E+00
  0.00000000E+00  0.00000000E+00  0.00000000E+00
  0.00000000E+00  0.00000000E+00  0.00000000E+00
  0.00000000E+00  0.00000000E+00  0.00000000E+00
  0.00000000E+00  0.00000000E+00  0.00000000E+00
  0.00000000E+00  0.00000000E+00  0.00000000E+00
  0.00000000E+00  0.00000000E+00  0.00000000E+00
  0.00000000E+00  0.00000000E+00  0.00000000E+00
  0.00000000E+00  0.00000000E+00  0.00000000E+00
  0.00000000E+00  0.00000000E+00  0.00000000E+00
  0.00000000E+00  0.00000000E+00  0.00000000E+00
  0.00000000E+00  0.00000000E+00  0.00000000E+00
  0.00000000E+00  0.00000000E+00  0.00000000E+00
  0.00000000E+00  0.00000000E+00  0.00000000E+00
  0.00000000E+00  0.00000000E+00  0.00000000E+00
  0.00000000E+00  0.00000000E+00  0.00000000E+00
  0.00000000E+00  0.00000000E+00  0.00000000E+00
  0.00000000E+00  0.00000000E+00  0.00000000E+00
  0.00000000E+00  0.00000000E+00  0.00000000E+00
  0.00000000E+00  0.00000000E+00  0.00000000E+00
  0.00000000E+00  0.00000000E+00  0.00000000E+00
  0.00000000E+00  0.00000000E+00  0.00000000E+00
  0.00000000E+00  0.00000000E+00  0.00000000E+00
  0.00000000E+00  0.00000000E+00  0.00000000E+00
  0.00000000E+00  0.00000000E+00  0.00000000E+00
  0.00000000E+00  0.00000000E+00  0.00000000E+00
  0.00000000E+00  0.00000000E+00  0.00000000E+00
  0.00000000E+00  0.00000000E+00  0.00000000E+00
  0.00000000E+00  0.00000000E+00  0.00000000E+00
  0.00000000E+00  0.00000000E+00  0.00000000E+00
  0.00000000E+00  0.00000000E+00  0.00000000E+00
  0.00000000E+00  0.00000000E+00  0.00000000E+00
  0.00000000E+00  0.00000000E+00  0.00000000E+00
  0.00000000E+00  0.00000000E+00  0.00000000E+00
  0.00000000E+00  0.00000000E+00  0.00000000E+00
  0.00000000E+00  0.00000000E+00  0.00000000E+00
  0.00000000E+00  0.00000000E+00  0.00000000E+00
  0.00000000E+00  0.00000000E+00  0.00000000E+00
  0.00000000E+00  0.00000000E+00  0.00000000E+00
  0.00000000E+00  0.00000000E+00  0.00000000E+00
  0.00000000E+00  0.00000000E+00  0.00000000E+00
  0.00000000E+00  0.00000000E+00  0.00000000E+00
  0.00000000E+00  0.00000000E+00  0.00000000E+00
  0.00000000E+00  0.00000000E+00  0.00000000E+00
  0.00000000E+00  0.00000000E+00  0.00000000E+00
  0.00000000E+00  0.00000000E+00  0.00000000E+00
  0.00000000E+00  0.00000000E+00  0.00000000E+00
  0.00000000E+00  0.00000000E+00  0.00000000E+00
  0.00000000E+00  0.00000000E+00  0.00000000E+00
  0.00000000E+00  0.00000000E+00  0.00000000E+00
  0.00000000E+00  0.00000000E+00  0.00000000E+00
  0.00000000E+00  0.00000000E+00  0.00000000E+00
  0.00000000E+00  0.00000000E+00  0.00000000E+00