 Layer\(9)                              
   1.00000000000000     
     9.8291997910000006    0.0000000000000000    0.0000000000000000
     4.9145998955000003    8.5123367178000002    0.0000000000000000
     0.0000000000000000    0.0000000000000000   30.7147998810000011
   Ni   O    H    C    O 
    64    30    60     1     2
Selective dynamics
Direct
  0.0814612889349647  0.1070794738465592  0.1192564561793776   T   T   T
  0.3333436381343611  0.0888837475679861  0.1177822786702494   T   T   T
  0.3383408733754115  0.8405414991685979  0.1175951116555042   T   T   T
  0.5744866853153087  0.3443018791548457  0.1175992900258903   T   T   T
  0.3385614738916349  0.5851547589941054  0.1212971544647854   T   T   T
  0.3351204484719244  0.3384049329087875  0.1182804109956391   T   T   T
  0.8264503712873444  0.0913321468751300  0.1173697345049901   T   T   T
  0.5858466615737881  0.0769814889459688  0.1203898482041094   T   T   T
  0.8248028325088834  0.3466956149166288  0.1184850605286157   T   T   T
  0.5804750081176299  0.6051441394873697  0.1208354481953822   T   T   T
  0.0795189471210115  0.8358324788834469  0.1202780684835108   T   T   T
  0.5808283492037779  0.8454337006113153  0.1209473906624392   T   T   T
  0.0868621887187313  0.3457663480467713  0.1198940407848968   T   T   T
  0.8365310280187381  0.5867477192860185  0.1224654173916250   T   T   T
  0.0945105008144941  0.5839755992479848  0.1209351392041891   T   T   T
  0.8264666162566732  0.8389805853412692  0.1188517655580883   T   T   T
  0.1749566533801719  0.1703788710935085  0.1827572045879438   T   T   T
  0.1628532482431186  0.9182380101989946  0.1863674305704139   T   T   T
  0.4257508203263498  0.1640956653231173  0.1828113628099731   T   T   T
  0.4240464842343048  0.9216345995761968  0.1870202553037469   T   T   T
  0.4268031401190568  0.4038632896492936  0.1895743490558092   T   T   T
  0.4107315328064522  0.6747358030103098  0.1891150287953793   T   T   T
  0.9155824152338831  0.1699706016429258  0.1869358964793851   T   T   T
  0.6634776174044379  0.1663964766697041  0.1832620891056138   T   T   T
  0.6581092032873856  0.4178147345549701  0.1825294369108544   T   T   T
  0.1684404486192272  0.6642623240570071  0.1906546937619561   T   T   T
  0.9118321244946913  0.4125545558903865  0.1846849085286391   T   T   T
  0.6703067111036369  0.6691594225040129  0.1867547311971846   T   T   T
  0.9212355463988171  0.9176718851007770  0.1849701410642036   T   T   T
  0.6807181813595469  0.9128198745517941  0.1877494127889410   T   T   T
  0.1805586325204994  0.4212162280319346  0.1891164698522848   T   T   T
  0.9284502270849356  0.6698582741622383  0.1854731030678760   T   T   T
  0.2455291039699477  0.9998271875277793  0.2483148284034207   T   T   T
  0.4856352095210841  0.2584491367618370  0.2506937339994902   T   T   T
  0.4923219437721692  0.5044523521905702  0.2564170584323226   T   T   T
  0.2376891721540948  0.2503479275268589  0.2505165824210056   T   T   T
  0.9949322766757485  0.2469061451004453  0.2494481394564449   T   T   T
  0.7459735818604307  0.2489962906857681  0.2484823940184935   T   T   T
  0.4904007642605527  0.7623453148621449  0.2525257043931046   T   T   T
  0.2384925945249817  0.7635107733518697  0.2554762044314493   T   T   T
  0.4921493215534695  0.0092461378267321  0.2536559894382595   T   T   T
  0.9968982529214284  0.0060155519966700  0.2517095115274986   T   T   T
  0.2424254122793632  0.5062321053955248  0.2604648979086702   T   T   T
  0.7398918661944017  0.4989788468282845  0.2511344611124104   T   T   T
  0.7414764899417765  0.0136154653906619  0.2488694470029608   T   T   T
  0.9804257685407017  0.7609586934375351  0.2547429686470478   T   T   T
  0.7359667963016902  0.7711003326390923  0.2618181696969584   T   T   T
  0.9951797438897829  0.4949425411736001  0.2492484495608166   T   T   T
  0.2488099899999980  0.0018900000000031  0.0530725930000031   F   F   F
  0.4986599900000002  0.2520299800000032  0.0530725930000031   F   F   F
  0.4987100700000013  0.5019500100000016  0.0530725930000031   F   F   F
  0.2486699900000033  0.2519600099999977  0.0530725930000031   F   F   F
  0.9988300199999998  0.2520000100000033  0.0530725930000031   F   F   F
  0.7487000499999965  0.2521199999999979  0.0530725930000031   F   F   F
  0.4986899700000009  0.7520999700000033  0.0530725930000031   F   F   F
  0.2487699599999971  0.7521200300000004  0.0530725930000031   F   F   F
  0.4985999800000016  0.0021100000000018  0.0530725930000031   F   F   F
  0.9987700300000029  0.0022099999999980  0.0530725930000031   F   F   F
  0.2487500100000020  0.5021200300000004  0.0530725930000031   F   F   F
  0.7486699900000033  0.5022699800000012  0.0530725930000031   F   F   F
  0.7485900000000001  0.0024500000000032  0.0530725930000031   F   F   F
  0.9987000499999965  0.7524499700000007  0.0530725930000031   F   F   F
  0.7486699299999984  0.7524300299999993  0.0530725930000031   F   F   F
  0.9986899600000001  0.5022000199999965  0.0530725930000031   F   F   F
  0.0778772765534839  0.6025497290000322  0.5650226956763409   T   T   T
  0.6731795213796644  0.7636294646302075  0.5888149063519712   T   T   T
  0.5111624579939577  0.8346790932113745  0.4431037876968237   T   T   T
  0.9747605650556318  0.2161320918512985  0.4260905311905493   T   T   T
  0.4119356617624875  0.9707578005563621  0.3612159174191442   T   T   T
  0.1467339791789046  0.3152456849040521  0.5835342128899779   T   T   T
  0.7133998174094588  0.4442837681721076  0.4723090298833940   T   T   T
  0.2452858730545691  0.5000700077055185  0.3269744524025809   T   T   T
  0.6910362216959594  0.7756536183542112  0.3244807129375258   T   T   T
  0.3522230151468374  0.6944081700826791  0.4622880173449284   T   T   T
  0.6450422643139447  0.1424650586558081  0.3576249780309081   T   T   T
  0.3282483970982032  0.1357449310214521  0.5185716745747544   T   T   T
  0.3406133647120463  0.9184499768250098  0.5762265933367394   T   T   T
  0.5515964260970168  0.2774591548106147  0.4509190760011879   T   T   T
  0.5850405086519455  0.3692941216490455  0.5889113332218212   T   T   T
  0.9322998909784785  0.6019833574541101  0.4843313272149138   T   T   T
  0.8287458645649681  0.8398452881976780  0.4351839323628319   T   T   T
  0.8401504431071215  0.3642212943429948  0.5492916987043861   T   T   T
  0.1306941986642718  0.0978164245902695  0.6382903787195253   T   T   T
  0.5971607814244967  0.1529339345716992  0.5291005874237393   T   T   T
  0.8257917353539933  0.1324953567011566  0.6482898281213824   T   T   T
  0.3292913459437544  0.6661875055236011  0.5499228229811161   T   T   T
  0.9514417873156583  0.7171773836906110  0.3597138429910643   T   T   T
  0.8807222448945812  0.8839499054463602  0.6044234231051742   T   T   T
  0.1732800911406062  0.3244899250861804  0.4434069681282142   T   T   T
  0.9460540714987076  0.0447443086103119  0.5333123219111223   T   T   T
  0.3508328623625000  0.2528089648833705  0.3728757568361769   T   T   T
  0.0525896898409894  0.9232444010442474  0.4569492617374055   T   T   T
  0.0687288677593910  0.8443509965708600  0.3050046683801806   T   T   T
  0.0506456920703292  0.0957522016271128  0.3467317584323450   T   T   T
  0.1593210203069871  0.6265015737488562  0.5600002391396802   T   T   T
  0.1219640143277405  0.4964261378486450  0.5746127101416842   T   T   T
  0.6948475072642668  0.6542915842954785  0.5841051956144110   T   T   T
  0.5616330221007192  0.8260023054261347  0.5823343766804623   T   T   T
  0.5897514169295676  0.8646097458982803  0.4531065670832881   T   T   T
  0.4586547817825802  0.9079326603510320  0.4178549979029501   T   T   T
  0.8852408270256703  0.3091645830142560  0.4418508530102904   T   T   T
  0.0593808205462056  0.2413576727357772  0.4326197984182423   T   T   T
  0.3258691064040542  0.9442691425138805  0.3558174720893748   T   T   T
  0.5180151139538981  0.8918222368809150  0.3483379731791319   T   T   T
  0.1535921038995345  0.2562303897298111  0.6112946932468877   T   T   T
  0.0340265177726511  0.3434209266248723  0.5786310987566218   T   T   T
  0.7536576866581347  0.4400012002644628  0.5026002383386659   T   T   T
  0.6675074694584308  0.5555322565955650  0.4667355088451146   T   T   T
  0.1419682247855047  0.5712898381617363  0.3424599629364815   T   T   T
  0.2946075459557597  0.3850829778384666  0.3390969470409086   T   T   T
  0.7024219922395276  0.6687967637095106  0.3276073448102056   T   T   T
  0.7880068176447861  0.7626769773625698  0.3410612473205472   T   T   T
  0.4146822102616600  0.7442660937817731  0.4499337562012251   T   T   T
  0.3940643909499606  0.5925926767947388  0.4469872669342443   T   T   T
  0.6823608935334176  0.2128309918184757  0.3469462293854584   T   T   T
  0.6375714996256837  0.0956605384169952  0.3293622134908537   T   T   T
  0.4314812736350018  0.1113346705953433  0.5290092194222066   T   T   T
  0.2518796716879372  0.2027659664791977  0.5413959568522928   T   T   T
  0.2800917567496288  0.9888597308452222  0.5983611812980044   T   T   T
  0.3237723418254413  0.9871265642733239  0.5503443768950196   T   T   T
  0.6082520685841185  0.3340856227797304  0.4609159830125760   T   T   T
  0.6148811018683334  0.2157283667477236  0.4246086813084393   T   T   T
  0.5037539166191728  0.4759846137639029  0.5791248027803770   T   T   T
  0.5890582093035740  0.2977291956885752  0.5677323168327554   T   T   T
  0.9696668169044578  0.5864830351551769  0.5155367877432125   T   T   T
  0.9939648804677851  0.5037814692306980  0.4688137340041340   T   T   T
  0.8671806378321202  0.7510372551448161  0.4587673538778074   T   T   T
  0.8973903537207029  0.8903626576011088  0.4386068152407556   T   T   T
  0.8955362426973335  0.2519373986580969  0.5411418188465759   T   T   T
  0.7524852538424918  0.3721952922417985  0.5688930184033266   T   T   T
  0.1936445579566486  0.0441529111524115  0.6628592729046667   T   T   T
  0.0186832310080720  0.1112480571381011  0.6432609623810098   T   T   T
  0.5780432191802453  0.1820371194272102  0.4967741710933395   T   T   T
  0.7113777139218982  0.1017276634961859  0.5273440500081554   T   T   T
  0.8331701989525582  0.0431675251272343  0.6305993809375949   T   T   T
  0.7227530827831901  0.2199420190564918  0.6425819562640714   T   T   T
  0.3312551335764798  0.7596658711989450  0.5608655963897082   T   T   T
  0.3356877336108495  0.6695227683377427  0.5173653552389085   T   T   T
  0.9997901304319600  0.7727088911171185  0.3448023176751209   T   T   T
  0.9222928879475162  0.7468460171603628  0.3917943250719043   T   T   T
  0.9771415428182235  0.7792806728448247  0.6021859164508409   T   T   T
  0.7887129492192779  0.8666214859206055  0.6024799635911755   T   T   T
  0.2456863656926064  0.3090799250798727  0.4204550400854063   T   T   T
  0.2405031345936416  0.2489765457678272  0.4666962179072713   T   T   T
  0.9976701403797765  0.9813815930339006  0.5055464236170902   T   T   T
  0.9222102492958478  0.9830817337516411  0.5529454250804497   T   T   T
  0.4655654577727989  0.2184493537790855  0.3718936745958669   T   T   T
  0.3584709350904554  0.1500937799290324  0.3602977370703684   T   T   T
  0.0578957971837006  0.0222527747203453  0.4469315723294388   T   T   T
  0.1624523322085726  0.8287500091365172  0.4552380275494592   T   T   T
  0.3623366615599261  0.5492531341191490  0.3385978368745038   T   T   T
  0.0520418321697282  0.9357921677706688  0.3239255271031262   T   T   T
  0.9893006218629857  0.1475085090149450  0.3733381266648694   T   T   T
  0.0078509252443823  0.1823917764613641  0.3249261070612093   T   T   T
  0.5526407282276580  0.5346352969572038  0.3115079110393388   T   T   T
  0.4631554529471681  0.5550459988501384  0.3458446703253179   T   T   T
  0.6956657911046551  0.5074393285640959  0.3197725352437122   T   T   T
 
 -0.56186876E-03  0.19897243E-02 -0.94542768E-04
 -0.37804518E-02  0.57173109E-03  0.55905428E-03
  0.23563276E-02 -0.74640095E-03 -0.18813050E-02
 -0.33550861E-02  0.17628769E-02 -0.22256072E-02
  0.12428346E-02 -0.11507114E-02  0.38958195E-02
  0.22947145E-02  0.52772946E-03 -0.34887821E-02
  0.20760067E-03 -0.76937449E-03 -0.12259886E-02
 -0.19584078E-02  0.11885446E-02  0.24172699E-03
 -0.11175400E-02 -0.18835480E-02  0.35812938E-02
  0.57599522E-03 -0.67459416E-04 -0.22627657E-02
 -0.20203604E-02 -0.85616610E-03  0.39578643E-02
 -0.40773926E-02  0.19862035E-03  0.12233516E-02
  0.11826375E-02  0.23711390E-02 -0.51301679E-03
 -0.59673792E-03  0.14539577E-03 -0.41796140E-03
 -0.96422901E-03  0.35740923E-02 -0.10638824E-02
 -0.32065397E-02 -0.22462759E-03  0.20717025E-02
 -0.16611933E-02  0.16267196E-02  0.12077253E-02
 -0.36878641E-03 -0.16879579E-02 -0.35476415E-02
  0.18019565E-02  0.18691940E-02 -0.22790143E-02
 -0.99420005E-03 -0.18354858E-02  0.14352747E-03
 -0.15136834E-02  0.43739594E-03  0.30048595E-02
  0.26489321E-02 -0.33277619E-02 -0.22642869E-02
 -0.32925928E-03  0.20441850E-02 -0.54825472E-03
 -0.20110839E-02 -0.29166180E-02  0.14658025E-02
 -0.61972529E-03  0.13558838E-02 -0.97054626E-03
  0.80805929E-03  0.12147083E-02 -0.23783232E-02
  0.74108142E-04  0.12712496E-02 -0.94169106E-03
  0.26047056E-02  0.29349510E-02  0.40514708E-02
  0.23604037E-03 -0.31823490E-03  0.13354960E-02
 -0.12166116E-03  0.13117446E-02 -0.33200077E-03
 -0.14727096E-02  0.11655389E-02 -0.17417637E-02
  0.44349328E-03 -0.36386639E-02 -0.10423714E-02
 -0.11238267E-02 -0.16980610E-02  0.21408321E-04
 -0.20239804E-02 -0.11041042E-02 -0.12583350E-02
  0.70631678E-03  0.14699124E-02  0.83067382E-03
 -0.79562898E-03  0.41812332E-03  0.15703061E-02
  0.13836975E-02  0.42301087E-02  0.15007816E-03
  0.13010718E-04  0.69166092E-03  0.10953545E-02
  0.70269855E-03  0.28111329E-02  0.70523844E-02
 -0.27913967E-03 -0.31804367E-02  0.17366751E-02
 -0.71343215E-03  0.81710289E-03  0.49575188E-02
  0.81729958E-03 -0.21585311E-02 -0.16584618E-02
 -0.45682801E-02  0.36814628E-02  0.13843139E-02
 -0.31135071E-03 -0.71646125E-03  0.21022357E-03
  0.26083960E-02  0.26575201E-03 -0.33608744E-02
  0.10340248E-02 -0.32292257E-03 -0.96389559E-03
  0.25150561E-02  0.30112427E-02 -0.30883688E-02
  0.58603996E-03 -0.44480951E-02 -0.65558108E-03
  0.00000000E+00  0.00000000E+00  0.00000000E+00
  0.00000000E+00  0.00000000E+00  0.00000000E+00
  0.00000000E+00  0.00000000E+00  0.00000000E+00
  0.00000000E+00  0.00000000E+00  0.00000000E+00
  0.00000000E+00  0.00000000E+00  0.00000000E+00
  0.00000000E+00  0.00000000E+00  0.00000000E+00
  0.00000000E+00  0.00000000E+00  0.00000000E+00
  0.00000000E+00  0.00000000E+00  0.00000000E+00
  0.00000000E+00  0.00000000E+00  0.00000000E+00
  0.00000000E+00  0.00000000E+00  0.00000000E+00
  0.00000000E+00  0.00000000E+00  0.00000000E+00
  0.00000000E+00  0.00000000E+00  0.00000000E+00
  0.00000000E+00  0.00000000E+00  0.00000000E+00
  0.00000000E+00  0.00000000E+00  0.00000000E+00
  0.00000000E+00  0.00000000E+00  0.00000000E+00
  0.00000000E+00  0.00000000E+00  0.00000000E+00
 -0.23317331E-02 -0.44010161E-02  0.38580665E-02
 -0.59206594E-02  0.27756522E-02 -0.18675837E-02
  0.12284618E-02  0.78578837E-03 -0.27578334E-02
 -0.33898539E-02 -0.12219458E-02 -0.10111943E-02
 -0.62674535E-03  0.10994029E-02  0.47112039E-04
  0.40934263E-02 -0.47229742E-02 -0.55750218E-02
 -0.23035586E-02 -0.23269601E-02  0.13732237E-02
 -0.58195331E-03  0.83990770E-03  0.53477769E-02
 -0.37377028E-03 -0.16612605E-02  0.21378094E-02
  0.13202645E-02 -0.97030108E-03 -0.25999896E-02
 -0.27953208E-03  0.30007379E-02  0.71118571E-03
 -0.27628203E-02  0.44225564E-02 -0.36273607E-03
  0.30811823E-04  0.75805054E-02  0.13835975E-02
 -0.10066171E-02  0.26287169E-02  0.12517143E-02
 -0.70576526E-03  0.50946344E-02  0.12794044E-02
  0.27644795E-02 -0.18005744E-02 -0.12760732E-05
 -0.64283864E-03 -0.47863322E-02 -0.34162369E-02
  0.13479777E-02  0.91295839E-02  0.14242799E-02
  0.76471822E-02  0.11660803E-01  0.28246404E-02
  0.13479793E-02 -0.29186380E-02 -0.15902716E-02
 -0.16925464E-02  0.84131766E-02 -0.32020235E-02
 -0.18116388E-02  0.26549957E-03  0.20206956E-02
 -0.28227473E-02 -0.17727390E-02 -0.58356695E-02
  0.15597829E-02  0.44041291E-02 -0.10350988E-02
  0.67498849E-03 -0.12587364E-02  0.44243091E-03
 -0.10188770E-02 -0.25439799E-02  0.17243411E-02
  0.84513092E-02 -0.66291438E-03  0.47776463E-02
 -0.42347992E-02  0.47310952E-03  0.33718168E-02
 -0.80004959E-03  0.21669113E-02 -0.18401154E-02
 -0.29128683E-02  0.34167154E-02 -0.20136570E-02
 -0.30676002E-01  0.14077698E-01 -0.27966110E-01
  0.32217669E-01  0.86884147E-02  0.23740875E-01
  0.16190511E-01 -0.18110894E-01  0.10966305E-02
  0.38007836E-03  0.29571136E-02 -0.39643925E-02
 -0.32401341E-01 -0.86177767E-02  0.20528875E-01
  0.34631601E-01 -0.11838299E-01  0.87492731E-02
  0.15261167E-01 -0.82411536E-02  0.37874428E-01
  0.17758709E-01  0.15682823E-01 -0.11545051E-01
 -0.63959653E-02  0.11280593E-01  0.16513513E-01
  0.25592148E-01 -0.18109930E-01 -0.21356703E-01
  0.11739857E-01 -0.94373236E-02 -0.75439813E-02
  0.36692704E-01  0.11133980E-01 -0.13364306E-01
 -0.21198993E-01  0.29557191E-01 -0.25763419E-01
  0.13239487E-01 -0.39198747E-02  0.61612213E-02
 -0.17459988E-01 -0.28113943E-02 -0.85868375E-03
  0.16009149E-01 -0.13921069E-01 -0.70008424E-02
  0.19283723E-01 -0.26949295E-02 -0.17252677E-01
  0.18666598E-02 -0.29652287E-01 -0.11948167E-01
  0.11335518E-01 -0.12940037E-02 -0.84987298E-02
 -0.34885586E-01  0.22240404E-01 -0.26602205E-01
 -0.21672345E-01  0.21992310E-01 -0.46825016E-02
 -0.13483189E-01 -0.16761357E-02 -0.40048494E-02
  0.68232177E-03 -0.10868356E-01 -0.61149334E-02
  0.16115718E-01 -0.17200089E-01 -0.96818370E-02
 -0.20666294E-01 -0.44262714E-02 -0.39732640E-02
  0.74714580E-03  0.13074659E-01 -0.37902563E-02
  0.56361673E-02  0.57818799E-02  0.28969287E-01
  0.84668853E-02 -0.11596925E-01 -0.10117548E-01
  0.17582525E-01  0.22992145E-01 -0.20540360E-02
  0.14919454E-01  0.19169325E-01  0.14455097E-01
 -0.37427810E-01 -0.13400989E-02  0.27586748E-01
  0.67237535E-02  0.17548031E-01 -0.10170592E-01
  0.30254758E-01 -0.23365599E-01 -0.10644591E-03
 -0.46993724E-03 -0.41339139E-02 -0.80135336E-02
 -0.10263755E-01  0.15291447E-01  0.25772328E-01
 -0.93416088E-02  0.12566346E-01  0.10598407E-01
 -0.23022191E-01 -0.18455971E-01  0.14886613E-02
 -0.77430445E-02  0.21305467E-01 -0.29117648E-02
  0.13727907E-01  0.27348707E-02 -0.13480181E-01
 -0.12458387E-01 -0.14734589E-01 -0.15534912E-01
  0.28748104E-01  0.24346461E-02  0.77020010E-02
 -0.46291218E-02 -0.71812692E-02 -0.48512803E-02
 -0.11518807E-01 -0.53385787E-02  0.23194899E-01
  0.16159370E-01 -0.62107454E-02 -0.27810896E-01
 -0.22143583E-01  0.47321079E-02  0.12560424E-01
 -0.14781205E-02 -0.27024260E-01  0.11987924E-01
 -0.16175123E-01 -0.19634154E-01  0.12811657E-01
 -0.16408903E-01 -0.99431078E-03 -0.11350590E-01
  0.17890659E-02  0.30578757E-01  0.28545520E-01
  0.24843543E-01 -0.10846285E-01 -0.88063961E-02
  0.17590839E-01  0.14541310E-01 -0.69777886E-02
  0.18134603E-01 -0.29850755E-02 -0.68494148E-02
 -0.95712411E-02  0.20006581E-01 -0.20669166E-01
 -0.15073804E-01  0.14498060E-03  0.19022089E-01
  0.53329270E-02  0.34566322E-02 -0.82207639E-02
 -0.87538709E-02 -0.24895146E-01  0.60799308E-02
 -0.20234571E-03 -0.11260257E-01 -0.21351684E-01
 -0.22939820E-01 -0.21061913E-02  0.51875994E-02
 -0.25693045E-01 -0.12896905E-01 -0.20869056E-01
  0.26116353E-02  0.16587950E-01  0.10605753E-03
  0.44082678E-04 -0.29433317E-02  0.54277456E-02
 -0.13024306E-02  0.40631217E-02 -0.29773063E-03
  0.59920371E-02  0.11029232E-01  0.34024096E-02
 
           1
   1.00000000000000     
  0.12016618E+00  0.37292479E-02  0.39043392E-02  0.11634939E+00
  0.81461289E-01  0.10707947E+00  0.11925646E+00
  0.33334364E+00  0.88883748E-01  0.11778228E+00
  0.33834087E+00  0.84054150E+00  0.11759511E+00
  0.57448669E+00  0.34430188E+00  0.11759929E+00
  0.33856147E+00  0.58515476E+00  0.12129715E+00
  0.33512045E+00  0.33840493E+00  0.11828041E+00
  0.82645037E+00  0.91332147E-01  0.11736973E+00
  0.58584666E+00  0.76981489E-01  0.12038985E+00
  0.82480283E+00  0.34669561E+00  0.11848506E+00
  0.58047501E+00  0.60514414E+00  0.12083545E+00
  0.79518947E-01  0.83583248E+00  0.12027807E+00
  0.58082835E+00  0.84543370E+00  0.12094739E+00
  0.86862189E-01  0.34576635E+00  0.11989404E+00
  0.83653103E+00  0.58674772E+00  0.12246542E+00
  0.94510501E-01  0.58397560E+00  0.12093514E+00
  0.82646662E+00  0.83898059E+00  0.11885177E+00
  0.17495665E+00  0.17037887E+00  0.18275720E+00
  0.16285325E+00  0.91823801E+00  0.18636743E+00
  0.42575082E+00  0.16409567E+00  0.18281136E+00
  0.42404648E+00  0.92163460E+00  0.18702026E+00
  0.42680314E+00  0.40386329E+00  0.18957435E+00
  0.41073153E+00  0.67473580E+00  0.18911503E+00
  0.91558242E+00  0.16997060E+00  0.18693590E+00
  0.66347762E+00  0.16639648E+00  0.18326209E+00
  0.65810920E+00  0.41781473E+00  0.18252944E+00
  0.16844045E+00  0.66426232E+00  0.19065469E+00
  0.91183212E+00  0.41255456E+00  0.18468491E+00
  0.67030671E+00  0.66915942E+00  0.18675473E+00
  0.92123555E+00  0.91767189E+00  0.18497014E+00
  0.68071818E+00  0.91281987E+00  0.18774941E+00
  0.18055863E+00  0.42121623E+00  0.18911647E+00
  0.92845023E+00  0.66985827E+00  0.18547310E+00
  0.24552910E+00  0.99982719E+00  0.24831483E+00
  0.48563521E+00  0.25844914E+00  0.25069373E+00
  0.49232194E+00  0.50445235E+00  0.25641706E+00
  0.23768917E+00  0.25034793E+00  0.25051658E+00
  0.99493228E+00  0.24690615E+00  0.24944814E+00
  0.74597358E+00  0.24899629E+00  0.24848239E+00
  0.49040076E+00  0.76234531E+00  0.25252570E+00
  0.23849259E+00  0.76351077E+00  0.25547620E+00
  0.49214932E+00  0.92461378E-02  0.25365599E+00
  0.99689825E+00  0.60155520E-02  0.25170951E+00
  0.24242541E+00  0.50623211E+00  0.26046490E+00
  0.73989187E+00  0.49897885E+00  0.25113446E+00
  0.74147649E+00  0.13615465E-01  0.24886945E+00
  0.98042577E+00  0.76095869E+00  0.25474297E+00
  0.73596680E+00  0.77110033E+00  0.26181817E+00
  0.99517974E+00  0.49494254E+00  0.24924845E+00
  0.24880999E+00  0.18900000E-02  0.53072593E-01
  0.49865999E+00  0.25202998E+00  0.53072593E-01
  0.49871007E+00  0.50195001E+00  0.53072593E-01
  0.24866999E+00  0.25196001E+00  0.53072593E-01
  0.99883002E+00  0.25200001E+00  0.53072593E-01
  0.74870005E+00  0.25212000E+00  0.53072593E-01
  0.49868997E+00  0.75209997E+00  0.53072593E-01
  0.24876996E+00  0.75212003E+00  0.53072593E-01
  0.49859998E+00  0.21100000E-02  0.53072593E-01
  0.99877003E+00  0.22100000E-02  0.53072593E-01
  0.24875001E+00  0.50212003E+00  0.53072593E-01
  0.74866999E+00  0.50226998E+00  0.53072593E-01
  0.74859000E+00  0.24500000E-02  0.53072593E-01
  0.99870005E+00  0.75244997E+00  0.53072593E-01
  0.74866993E+00  0.75243003E+00  0.53072593E-01
  0.99868996E+00  0.50220002E+00  0.53072593E-01
  0.77877277E-01  0.60254973E+00  0.56502270E+00
  0.67317952E+00  0.76362946E+00  0.58881491E+00
  0.51116246E+00  0.83467909E+00  0.44310379E+00
  0.97476057E+00  0.21613209E+00  0.42609053E+00
  0.41193566E+00  0.97075780E+00  0.36121592E+00
  0.14673398E+00  0.31524568E+00  0.58353421E+00
  0.71339982E+00  0.44428377E+00  0.47230903E+00
  0.24528587E+00  0.50007001E+00  0.32697445E+00
  0.69103622E+00  0.77565362E+00  0.32448071E+00
  0.35222302E+00  0.69440817E+00  0.46228802E+00
  0.64504226E+00  0.14246506E+00  0.35762498E+00
  0.32824840E+00  0.13574493E+00  0.51857167E+00
  0.34061336E+00  0.91844998E+00  0.57622659E+00
  0.55159643E+00  0.27745915E+00  0.45091908E+00
  0.58504051E+00  0.36929412E+00  0.58891133E+00
  0.93229989E+00  0.60198336E+00  0.48433133E+00
  0.82874586E+00  0.83984529E+00  0.43518393E+00
  0.84015044E+00  0.36422129E+00  0.54929170E+00
  0.13069420E+00  0.97816425E-01  0.63829038E+00
  0.59716078E+00  0.15293393E+00  0.52910059E+00
  0.82579174E+00  0.13249536E+00  0.64828983E+00
  0.32929135E+00  0.66618751E+00  0.54992282E+00
  0.95144179E+00  0.71717738E+00  0.35971384E+00
  0.88072224E+00  0.88394991E+00  0.60442342E+00
  0.17328009E+00  0.32448993E+00  0.44340697E+00
  0.94605407E+00  0.44744309E-01  0.53331232E+00
  0.35083286E+00  0.25280896E+00  0.37287576E+00
  0.52589690E-01  0.92324440E+00  0.45694926E+00
  0.68728868E-01  0.84435100E+00  0.30500467E+00
  0.50645692E-01  0.95752202E-01  0.34673176E+00
  0.15932102E+00  0.62650157E+00  0.56000024E+00
  0.12196401E+00  0.49642614E+00  0.57461271E+00
  0.69484751E+00  0.65429158E+00  0.58410520E+00
  0.56163302E+00  0.82600231E+00  0.58233438E+00
  0.58975142E+00  0.86460975E+00  0.45310657E+00
  0.45865478E+00  0.90793266E+00  0.41785500E+00
  0.88524083E+00  0.30916458E+00  0.44185085E+00
  0.59380821E-01  0.24135767E+00  0.43261980E+00
  0.32586911E+00  0.94426914E+00  0.35581747E+00
  0.51801511E+00  0.89182224E+00  0.34833797E+00
  0.15359210E+00  0.25623039E+00  0.61129469E+00
  0.34026518E-01  0.34342093E+00  0.57863110E+00
  0.75365769E+00  0.44000120E+00  0.50260024E+00
  0.66750747E+00  0.55553226E+00  0.46673551E+00
  0.14196822E+00  0.57128984E+00  0.34245996E+00
  0.29460755E+00  0.38508298E+00  0.33909695E+00
  0.70242199E+00  0.66879676E+00  0.32760734E+00
  0.78800682E+00  0.76267698E+00  0.34106125E+00
  0.41468221E+00  0.74426609E+00  0.44993376E+00
  0.39406439E+00  0.59259268E+00  0.44698727E+00
  0.68236089E+00  0.21283099E+00  0.34694623E+00
  0.63757150E+00  0.95660538E-01  0.32936221E+00
  0.43148127E+00  0.11133467E+00  0.52900922E+00
  0.25187967E+00  0.20276597E+00  0.54139596E+00
  0.28009176E+00  0.98885973E+00  0.59836118E+00
  0.32377234E+00  0.98712656E+00  0.55034438E+00
  0.60825207E+00  0.33408562E+00  0.46091598E+00
  0.61488110E+00  0.21572837E+00  0.42460868E+00
  0.50375392E+00  0.47598461E+00  0.57912480E+00
  0.58905821E+00  0.29772920E+00  0.56773232E+00
  0.96966682E+00  0.58648304E+00  0.51553679E+00
  0.99396488E+00  0.50378147E+00  0.46881373E+00
  0.86718064E+00  0.75103726E+00  0.45876735E+00
  0.89739035E+00  0.89036266E+00  0.43860682E+00
  0.89553624E+00  0.25193740E+00  0.54114182E+00
  0.75248525E+00  0.37219529E+00  0.56889302E+00
  0.19364456E+00  0.44152911E-01  0.66285927E+00
  0.18683231E-01  0.11124806E+00  0.64326096E+00
  0.57804322E+00  0.18203712E+00  0.49677417E+00
  0.71137771E+00  0.10172766E+00  0.52734405E+00
  0.83317020E+00  0.43167525E-01  0.63059938E+00
  0.72275308E+00  0.21994202E+00  0.64258196E+00
  0.33125513E+00  0.75966587E+00  0.56086560E+00
  0.33568773E+00  0.66952277E+00  0.51736536E+00
  0.99979013E+00  0.77270889E+00  0.34480232E+00
  0.92229289E+00  0.74684602E+00  0.39179433E+00
  0.97714154E+00  0.77928067E+00  0.60218592E+00
  0.78871295E+00  0.86662149E+00  0.60247996E+00
  0.24568637E+00  0.30907993E+00  0.42045504E+00
  0.24050313E+00  0.24897655E+00  0.46669622E+00
  0.99767014E+00  0.98138159E+00  0.50554642E+00
  0.92221025E+00  0.98308173E+00  0.55294543E+00
  0.46556546E+00  0.21844935E+00  0.37189367E+00
  0.35847094E+00  0.15009378E+00  0.36029774E+00
  0.57895797E-01  0.22252775E-01  0.44693157E+00
  0.16245233E+00  0.82875001E+00  0.45523803E+00
  0.36233666E+00  0.54925313E+00  0.33859784E+00
  0.52041832E-01  0.93579217E+00  0.32392553E+00
  0.98930062E+00  0.14750851E+00  0.37333813E+00
  0.78509252E-02  0.18239178E+00  0.32492611E+00
  0.55264073E+00  0.53463530E+00  0.31150791E+00
  0.46315545E+00  0.55504600E+00  0.34584467E+00
  0.69566579E+00  0.50743933E+00  0.31977254E+00
  0.00000000E+00  0.00000000E+00  0.00000000E+00
  0.00000000E+00  0.00000000E+00  0.00000000E+00
  0.00000000E+00  0.00000000E+00  0.00000000E+00
  0.00000000E+00  0.00000000E+00  0.00000000E+00
  0.00000000E+00  0.00000000E+00  0.00000000E+00
  0.00000000E+00  0.00000000E+00  0.00000000E+00
  0.00000000E+00  0.00000000E+00  0.00000000E+00
  0.00000000E+00  0.00000000E+00  0.00000000E+00
  0.00000000E+00  0.00000000E+00  0.00000000E+00
  0.00000000E+00  0.00000000E+00  0.00000000E+00
  0.00000000E+00  0.00000000E+00  0.00000000E+00
  0.00000000E+00  0.00000000E+00  0.00000000E+00
  0.00000000E+00  0.00000000E+00  0.00000000E+00
  0.00000000E+00  0.00000000E+00  0.00000000E+00
  0.00000000E+00  0.00000000E+00  0.00000000E+00
  0.00000000E+00  0.00000000E+00  0.00000000E+00
  0.00000000E+00  0.00000000E+00  0.00000000E+00
  0.00000000E+00  0.00000000E+00  0.00000000E+00
  0.00000000E+00  0.00000000E+00  0.00000000E+00
  0.00000000E+00  0.00000000E+00  0.00000000E+00
  0.00000000E+00  0.00000000E+00  0.00000000E+00
  0.00000000E+00  0.00000000E+00  0.00000000E+00
  0.00000000E+00  0.00000000E+00  0.00000000E+00
  0.00000000E+00  0.00000000E+00  0.00000000E+00
  0.00000000E+00  0.00000000E+00  0.00000000E+00
  0.00000000E+00  0.00000000E+00  0.00000000E+00
  0.00000000E+00  0.00000000E+00  0.00000000E+00
  0.00000000E+00  0.00000000E+00  0.00000000E+00
  0.00000000E+00  0.00000000E+00  0.00000000E+00
  0.00000000E+00  0.00000000E+00  0.00000000E+00
  0.00000000E+00  0.00000000E+00  0.00000000E+00
  0.00000000E+00  0.00000000E+00  0.00000000E+00
  0.00000000E+00  0.00000000E+00  0.00000000E+00
  0.00000000E+00  0.00000000E+00  0.00000000E+00
  0.00000000E+00  0.00000000E+00  0.00000000E+00
  0.00000000E+00  0.00000000E+00  0.00000000E+00
  0.00000000E+00  0.00000000E+00  0.00000000E+00
  0.00000000E+00  0.00000000E+00  0.00000000E+00
  0.00000000E+00  0.00000000E+00  0.00000000E+00
  0.00000000E+00  0.00000000E+00  0.00000000E+00
  0.00000000E+00  0.00000000E+00  0.00000000E+00
  0.00000000E+00  0.00000000E+00  0.00000000E+00
  0.00000000E+00  0.00000000E+00  0.00000000E+00
  0.00000000E+00  0.00000000E+00  0.00000000E+00
  0.00000000E+00  0.00000000E+00  0.00000000E+00
  0.00000000E+00  0.00000000E+00  0.00000000E+00
  0.00000000E+00  0.00000000E+00  0.00000000E+00
  0.00000000E+00  0.00000000E+00  0.00000000E+00
  0.00000000E+00  0.00000000E+00  0.00000000E+00
  0.00000000E+00  0.00000000E+00  0.00000000E+00
  0.00000000E+00  0.00000000E+00  0.00000000E+00
  0.00000000E+00  0.00000000E+00  0.00000000E+00
  0.00000000E+00  0.00000000E+00  0.00000000E+00
  0.00000000E+00  0.00000000E+00  0.00000000E+00