Ni_COC
   1.00000000000000     
     9.8291997910000006    0.0000000000000000    0.0000000000000000
     4.9145998955000003    8.5123367178000002    0.0000000000000000
     0.0000000000000000    0.0000000000000000   19.0128002167000005
   Ni   O    C 
    64     1     2
Selective dynamics
Direct
      0.8334621082286248      0.5836239631719770      0.2720655328982660   T T T
      0.3339215546765816      0.0836102293346380      0.2719454336497162   T T T
      0.8337203283232658      0.0836070891300123      0.2719852033888638   T T T
      0.3340256769982510      0.5836082440592375      0.2722622630737153   T T T
      0.5839354873700218      0.8337041389463329      0.2716788766905903   T T T
      0.8337699282698559      0.8337182124298567      0.2714195829579548   T T T
      0.0838607190951266      0.3338955637024493      0.2718115115770298   T T T
      0.8340440451378933      0.3334734291526960      0.2724611346540158   T T T
      0.5836862551536112      0.5840302820916603      0.2727104610110919   T T T
      0.0837768856743384      0.5838604837053425      0.2716652084436699   T T T
      0.0841623831099829      0.0833272091384553      0.2717053952779728   T T T
      0.5837620075738870      0.0837436798469086      0.2716643082984324   T T T
      0.3340572463564865      0.8334614411967743      0.2717590274493606   T T T
      0.0840920547686867      0.8335957575595275      0.2715463599242714   T T T
      0.3334983524593925      0.3340291904063560      0.2718971442883351   T T T
      0.5835060906213060      0.3334854371096475      0.2727908253374768   T T T
      0.9177382128796322      0.6659685766648883      0.3769661071465858   T T T
      0.9170253203181268      0.4164152485761538      0.3778099334943877   T T T
      0.6683704492551094      0.6652053615315027      0.3780475785908806   T T T
      0.1675179164735507      0.1660409893315593      0.3771834220458573   T T T
      0.9171749163268139      0.1662253164032366      0.3778333463911314   T T T
      0.9178664455802525      0.9161200514831979      0.3768732903833335   T T T
      0.4183271674492891      0.9153590015235902      0.3771455196516676   T T T
      0.4181492245392882      0.1662392082268654      0.3771314053119540   T T T
      0.6682040484647858      0.1661391712127006      0.3779068762446072   T T T
      0.1680666935161458      0.6659158972439716      0.3771853767276145   T T T
      0.4182589543964882      0.6650340220764592      0.3782695745051559   T T T
      0.4181659788447769      0.4165634041409466      0.3783351924482499   T T T
      0.6680307669523843      0.9159155339064701      0.3770899806025179   T T T
      0.1676008147580799      0.4163146364918239      0.3773997975385457   T T T
      0.6677364616444078      0.4160287161410462      0.3775705455399655   T T T
      0.1680609663475963      0.9157101338519680      0.3771716021075378   T T T
      0.0049999200867324      0.2467461887461995      0.4825663390247811   T T T
      0.5000135683144789      0.2468390122490193      0.4828078309357950   T T T
      0.0019229757911923      0.7484954469361957      0.4829337325080019   T T T
      0.5002143463712398      0.7519548344877307      0.4829335447007548   T T T
      0.7523485206564284      0.7494789239625589      0.4829922160746824   T T T
      0.0024687300225044      0.4992085865053154      0.4829099138954638   T T T
      0.7539400271409861      0.5007420996666117      0.4870187870495215   T T T
      0.2520440369633430      0.9984104865959094      0.4828282029146349   T T T
      0.0030714928783634      0.9967361316742321      0.4827142146670895   T T T
      0.5016338993274357      0.9986591159948801      0.4828034426212126   T T T
      0.2509687100501981      0.7487554261541270      0.4830769745478314   T T T
      0.7525935443450008      0.9968269650654051      0.4828566823248688   T T T
      0.2517876083460575      0.2481588335163153      0.4828717319807314   T T T
      0.7544176219231767      0.2430639119277377      0.4862943278504248   T T T
      0.2505740422651072      0.4989471467493449      0.4831335062371795   T T T
      0.4983445754592246      0.5000111725848718      0.4880279686917877   T T T
      0.9991205061265648      0.2516858955296711      0.1666051049583365   F F F
      0.4995286998762818      0.2517002952449594      0.1665455956603145   F F F
      0.9996421282795671      0.7514665725598690      0.1657376357426228   F F F
      0.4997962829148071      0.7509627552149176      0.1664628728103483   F F F
      0.7496243241202687      0.7512273352501907      0.1658512343005463   F F F
      0.9993300979342608      0.5017182907643128      0.1661250605691928   F F F
      0.7494406342118815      0.5012968360791846      0.1668679578192902   F F F
      0.2495145759531004      0.0014864320836385      0.1660509110027707   F F F
      0.9992321301476814      0.0015723470999048      0.1659932643050216   F F F
      0.4994664658818340      0.0014111478649003      0.1659839762472540   F F F
      0.2497551344481632      0.7512849429004185      0.1660226816088973   F F F
      0.7495808775859261      0.0015046392362003      0.1658633657668559   F F F
      0.2494771385138139      0.2515777540642863      0.1661843161673028   F F F
      0.7491950995069773      0.2516772318728845      0.1668617791777819   F F F
      0.2495396452000529      0.5017069023359890      0.1661289527120357   F F F
      0.4996590028804836      0.5012726066220432      0.1670739364378473   F F F
      0.7079630708217818      0.3839200515418453      0.6815507166995119   T T T
      0.6711704985850385      0.4126010533751085      0.5510369198053022   T T T
      0.6904686055059718      0.3975638247549924      0.6202288465332508   T T T
 
  0.00000000E+00  0.00000000E+00  0.00000000E+00
  0.00000000E+00  0.00000000E+00  0.00000000E+00
  0.00000000E+00  0.00000000E+00  0.00000000E+00
  0.00000000E+00  0.00000000E+00  0.00000000E+00
  0.00000000E+00  0.00000000E+00  0.00000000E+00
  0.00000000E+00  0.00000000E+00  0.00000000E+00
  0.00000000E+00  0.00000000E+00  0.00000000E+00
  0.00000000E+00  0.00000000E+00  0.00000000E+00
  0.00000000E+00  0.00000000E+00  0.00000000E+00
  0.00000000E+00  0.00000000E+00  0.00000000E+00
  0.00000000E+00  0.00000000E+00  0.00000000E+00
  0.00000000E+00  0.00000000E+00  0.00000000E+00
  0.00000000E+00  0.00000000E+00  0.00000000E+00
  0.00000000E+00  0.00000000E+00  0.00000000E+00
  0.00000000E+00  0.00000000E+00  0.00000000E+00
  0.00000000E+00  0.00000000E+00  0.00000000E+00
  0.00000000E+00  0.00000000E+00  0.00000000E+00
  0.00000000E+00  0.00000000E+00  0.00000000E+00
  0.00000000E+00  0.00000000E+00  0.00000000E+00
  0.00000000E+00  0.00000000E+00  0.00000000E+00
  0.00000000E+00  0.00000000E+00  0.00000000E+00
  0.00000000E+00  0.00000000E+00  0.00000000E+00
  0.00000000E+00  0.00000000E+00  0.00000000E+00
  0.00000000E+00  0.00000000E+00  0.00000000E+00
  0.00000000E+00  0.00000000E+00  0.00000000E+00
  0.00000000E+00  0.00000000E+00  0.00000000E+00
  0.00000000E+00  0.00000000E+00  0.00000000E+00
  0.00000000E+00  0.00000000E+00  0.00000000E+00
  0.00000000E+00  0.00000000E+00  0.00000000E+00
  0.00000000E+00  0.00000000E+00  0.00000000E+00
  0.00000000E+00  0.00000000E+00  0.00000000E+00
  0.00000000E+00  0.00000000E+00  0.00000000E+00
  0.00000000E+00  0.00000000E+00  0.00000000E+00
  0.00000000E+00  0.00000000E+00  0.00000000E+00
  0.00000000E+00  0.00000000E+00  0.00000000E+00
  0.00000000E+00  0.00000000E+00  0.00000000E+00
  0.00000000E+00  0.00000000E+00  0.00000000E+00
  0.00000000E+00  0.00000000E+00  0.00000000E+00
  0.00000000E+00  0.00000000E+00  0.00000000E+00
  0.00000000E+00  0.00000000E+00  0.00000000E+00
  0.00000000E+00  0.00000000E+00  0.00000000E+00
  0.00000000E+00  0.00000000E+00  0.00000000E+00
  0.00000000E+00  0.00000000E+00  0.00000000E+00
  0.00000000E+00  0.00000000E+00  0.00000000E+00
  0.00000000E+00  0.00000000E+00  0.00000000E+00
  0.00000000E+00  0.00000000E+00  0.00000000E+00
  0.00000000E+00  0.00000000E+00  0.00000000E+00
  0.00000000E+00  0.00000000E+00  0.00000000E+00
  0.00000000E+00  0.00000000E+00  0.00000000E+00
  0.00000000E+00  0.00000000E+00  0.00000000E+00
  0.00000000E+00  0.00000000E+00  0.00000000E+00
  0.00000000E+00  0.00000000E+00  0.00000000E+00
  0.00000000E+00  0.00000000E+00  0.00000000E+00
  0.00000000E+00  0.00000000E+00  0.00000000E+00
  0.00000000E+00  0.00000000E+00  0.00000000E+00
  0.00000000E+00  0.00000000E+00  0.00000000E+00
  0.00000000E+00  0.00000000E+00  0.00000000E+00
  0.00000000E+00  0.00000000E+00  0.00000000E+00
  0.00000000E+00  0.00000000E+00  0.00000000E+00
  0.00000000E+00  0.00000000E+00  0.00000000E+00
  0.00000000E+00  0.00000000E+00  0.00000000E+00
  0.00000000E+00  0.00000000E+00  0.00000000E+00
  0.00000000E+00  0.00000000E+00  0.00000000E+00
  0.00000000E+00  0.00000000E+00  0.00000000E+00
  0.00000000E+00  0.00000000E+00  0.00000000E+00
  0.00000000E+00  0.00000000E+00  0.00000000E+00
  0.00000000E+00  0.00000000E+00  0.00000000E+00
