 OH_surface_hcp                           
   1.00000000000000     
     9.8291997910000006    0.0000000000000000    0.0000000000000000
     4.9145998955000003    8.5123367178000002    0.0000000000000000
     0.0000000000000000    0.0000000000000000   19.0128002167000005
   Ni   O    H 
    64     1     1
Selective dynamics
Direct
  0.0820859239999976  0.0853893090000000  0.1769045570000003   F   F   F
  0.3320606220000002  0.0853895819999977  0.1768983500000019   F   F   F
  0.3321350229999993  0.8353552940000029  0.1769282579999967   F   F   F
  0.5820235719999971  0.3354048120000002  0.1769164199999977   F   F   F
  0.3320824970000018  0.5853625190000002  0.1769149029999966   F   F   F
  0.3320413989999977  0.3353577580000007  0.1768658209999998   F   F   F
  0.8320489050000006  0.0854081170000001  0.1769476569999995   F   F   F
  0.5819999280000019  0.0854048260000013  0.1769176740000020   F   F   F
  0.8320446789999991  0.3354047560000026  0.1769184890000020   F   F   F
  0.5820607089999967  0.5854306920000028  0.1769178999999994   F   F   F
  0.0820949029999980  0.8352966440000031  0.1769376880000024   F   F   F
  0.5820859990000002  0.8354016760000036  0.1769298999999975   F   F   F
  0.0820782139999992  0.3353299730000003  0.1769054849999989   F   F   F
  0.8320439359999980  0.5854464330000013  0.1769503530000023   F   F   F
  0.0820345919999994  0.5853827979999977  0.1768957540000002   F   F   F
  0.8320200599999978  0.8354260990000029  0.1769315929999991   F   F   F
  0.1663502899916527  0.1684186814984883  0.2816483488328260   T   T   T
  0.1661859192750364  0.9179509222095498  0.2817667684181417   T   T   T
  0.4167245175076563  0.1691007445052372  0.2830275288274582   T   T   T
  0.4161783808377990  0.9182763370241300  0.2819479595821307   T   T   T
  0.4158088819909384  0.4185035414783091  0.2823662818509131   T   T   T
  0.4168974391182774  0.6669044045481957  0.2829269380338229   T   T   T
  0.9154170451062166  0.1686397861123459  0.2817474039269431   T   T   T
  0.6641977729664883  0.1691789146120237  0.2831420411645870   T   T   T
  0.6642649732612445  0.4192538872766304  0.2830877733019290   T   T   T
  0.1666924048661458  0.6669052396194369  0.2829296619828326   T   T   T
  0.9160613847851941  0.4181343690144679  0.2818882204789773   T   T   T
  0.6660346500810183  0.6684522014499206  0.2821893680530254   T   T   T
  0.9158394976226911  0.9186213944244330  0.2819557915432345   T   T   T
  0.6662118735368371  0.9181751122729360  0.2821554463929417   T   T   T
  0.1665141905357835  0.4192948119291200  0.2830109968843827   T   T   T
  0.9158316657045356  0.6685751367794519  0.2819641748137695   T   T   T
  0.2500824748724305  0.0006953905542770  0.3876853578389603   T   T   T
  0.5014745556844855  0.2469928602704733  0.3918181071845431   T   T   T
  0.5020075609591370  0.5032098185269432  0.3914014379852179   T   T   T
  0.2476435226988186  0.2484704454340850  0.3867320896462610   T   T   T
  0.0001952656967385  0.2506290998742956  0.3877305083162972   T   T   T
  0.7543103695026426  0.2486441671974413  0.3867921942840022   T   T   T
  0.5004106700016913  0.7521563611600915  0.3876829286342635   T   T   T
  0.2480205564442292  0.7549967199651022  0.3866336253245464   T   T   T
  0.5003693881985404 -0.0005385040225839  0.3880311922848809   T   T   T
  0.0001558506908363  0.0008590485332912  0.3875968581851779   T   T   T
  0.2452165998392986  0.5032612545745245  0.3915146522565001   T   T   T
  0.7513466993234091  0.5011199658701526  0.3877200538502841   T   T   T
  0.7506576477708179 -0.0002398838187402  0.3880090929199261   T   T   T
  0.9981861987176371  0.7523766988961917  0.3876125326707055   T   T   T
  0.7499871197030696  0.7507731688170353  0.3881857552297087   T   T   T
 -0.0016314661667269  0.5014834995875057  0.3876745044334225   T   T   T
  0.2488099890000015  0.0018900000000031  0.0714200000000034   F   F   F
  0.4986599900000002  0.2520299789999996  0.0714200000000034   F   F   F
  0.4987100749999982  0.5019500149999985  0.0714200000000034   F   F   F
  0.2486699889999997  0.2519600139999980  0.0714200000000034   F   F   F
  0.9988300199999998  0.2520000100000033  0.0714200000000034   F   F   F
  0.7487000469999998  0.2521199990000014  0.0714200000000034   F   F   F
  0.4986899749999978  0.7520999730000000  0.0714200000000034   F   F   F
  0.2487699630000009  0.7521200280000002  0.0714200000000034   F   F   F
  0.4985999800000016  0.0021100000000018  0.0714200000000034   F   F   F
  0.9987700320000030  0.0022099999999980  0.0714200000000034   F   F   F
  0.2487500120000021  0.5021200269999966  0.0714200000000034   F   F   F
  0.7486699880000032  0.5022699849999981  0.0714200000000034   F   F   F
  0.7485899979999999  0.0024500000000032  0.0714200000000034   F   F   F
  0.9987000519999967  0.7524499689999971  0.0714200000000034   F   F   F
  0.7486699279999982  0.7524300270000026  0.0714200000000034   F   F   F
  0.9986899559999998  0.5022000199999965  0.0714200000000034   F   F   F
  0.4159160637719839  0.4183811379751141  0.4626890060389217   T   T   T
  0.4141519170806691  0.4203033219261283  0.5138823585385136   T   T   T
 
  0.00000000E+00  0.00000000E+00  0.00000000E+00
  0.00000000E+00  0.00000000E+00  0.00000000E+00
  0.00000000E+00  0.00000000E+00  0.00000000E+00
  0.00000000E+00  0.00000000E+00  0.00000000E+00
  0.00000000E+00  0.00000000E+00  0.00000000E+00
  0.00000000E+00  0.00000000E+00  0.00000000E+00
  0.00000000E+00  0.00000000E+00  0.00000000E+00
  0.00000000E+00  0.00000000E+00  0.00000000E+00
  0.00000000E+00  0.00000000E+00  0.00000000E+00
  0.00000000E+00  0.00000000E+00  0.00000000E+00
  0.00000000E+00  0.00000000E+00  0.00000000E+00
  0.00000000E+00  0.00000000E+00  0.00000000E+00
  0.00000000E+00  0.00000000E+00  0.00000000E+00
  0.00000000E+00  0.00000000E+00  0.00000000E+00
  0.00000000E+00  0.00000000E+00  0.00000000E+00
  0.00000000E+00  0.00000000E+00  0.00000000E+00
  0.00000000E+00  0.00000000E+00  0.00000000E+00
  0.00000000E+00  0.00000000E+00  0.00000000E+00
  0.00000000E+00  0.00000000E+00  0.00000000E+00
  0.00000000E+00  0.00000000E+00  0.00000000E+00
  0.00000000E+00  0.00000000E+00  0.00000000E+00
  0.00000000E+00  0.00000000E+00  0.00000000E+00
  0.00000000E+00  0.00000000E+00  0.00000000E+00
  0.00000000E+00  0.00000000E+00  0.00000000E+00
  0.00000000E+00  0.00000000E+00  0.00000000E+00
  0.00000000E+00  0.00000000E+00  0.00000000E+00
  0.00000000E+00  0.00000000E+00  0.00000000E+00
  0.00000000E+00  0.00000000E+00  0.00000000E+00
  0.00000000E+00  0.00000000E+00  0.00000000E+00
  0.00000000E+00  0.00000000E+00  0.00000000E+00
  0.00000000E+00  0.00000000E+00  0.00000000E+00
  0.00000000E+00  0.00000000E+00  0.00000000E+00
  0.00000000E+00  0.00000000E+00  0.00000000E+00
  0.00000000E+00  0.00000000E+00  0.00000000E+00
  0.00000000E+00  0.00000000E+00  0.00000000E+00
  0.00000000E+00  0.00000000E+00  0.00000000E+00
  0.00000000E+00  0.00000000E+00  0.00000000E+00
  0.00000000E+00  0.00000000E+00  0.00000000E+00
  0.00000000E+00  0.00000000E+00  0.00000000E+00
  0.00000000E+00  0.00000000E+00  0.00000000E+00
  0.00000000E+00  0.00000000E+00  0.00000000E+00
  0.00000000E+00  0.00000000E+00  0.00000000E+00
  0.00000000E+00  0.00000000E+00  0.00000000E+00
  0.00000000E+00  0.00000000E+00  0.00000000E+00
  0.00000000E+00  0.00000000E+00  0.00000000E+00
  0.00000000E+00  0.00000000E+00  0.00000000E+00
  0.00000000E+00  0.00000000E+00  0.00000000E+00
  0.00000000E+00  0.00000000E+00  0.00000000E+00
  0.00000000E+00  0.00000000E+00  0.00000000E+00
  0.00000000E+00  0.00000000E+00  0.00000000E+00
  0.00000000E+00  0.00000000E+00  0.00000000E+00
  0.00000000E+00  0.00000000E+00  0.00000000E+00
  0.00000000E+00  0.00000000E+00  0.00000000E+00
  0.00000000E+00  0.00000000E+00  0.00000000E+00
  0.00000000E+00  0.00000000E+00  0.00000000E+00
  0.00000000E+00  0.00000000E+00  0.00000000E+00
  0.00000000E+00  0.00000000E+00  0.00000000E+00
  0.00000000E+00  0.00000000E+00  0.00000000E+00
  0.00000000E+00  0.00000000E+00  0.00000000E+00
  0.00000000E+00  0.00000000E+00  0.00000000E+00
  0.00000000E+00  0.00000000E+00  0.00000000E+00
  0.00000000E+00  0.00000000E+00  0.00000000E+00
  0.00000000E+00  0.00000000E+00  0.00000000E+00
  0.00000000E+00  0.00000000E+00  0.00000000E+00
  0.00000000E+00  0.00000000E+00  0.00000000E+00
  0.00000000E+00  0.00000000E+00  0.00000000E+00
