 Ni\(1\1\1)                             
   1.00000000000000     
     9.8291997910000006    0.0000000000000000    0.0000000000000000
     4.9145998955000003    8.5123367178000002    0.0000000000000000
     0.0000000000000000    0.0000000000000000   19.0128002167000005
   Ni   O    C    H 
    64     2     2     1
Direct
  0.8286769650281057  0.5846101794108500  0.2710751317147868
  0.3297278479775781  0.0839143736039969  0.2707694537376237
  0.8283787088418524  0.0836630871869370  0.2709551882615816
  0.3289406442143655  0.5836974951710682  0.2708017779133252
  0.5788230457800692  0.8348286417588019  0.2703076686075115
  0.8285616887619768  0.8339182971181897  0.2706514562497229
  0.0793180722143540  0.3336399677303937  0.2711657319238780
  0.8289168791756684  0.3339785382772695  0.2710951706399307
  0.5791456422206372  0.5840727702541531  0.2711635133078336
  0.0785432480853308  0.5837535808389755  0.2712213891245209
  0.0790180596455336  0.0841820118952443  0.2708967537115078
  0.5783758348544040  0.0844626598017318  0.2717925081481372
  0.3290464369055843  0.8339085843421453  0.2706355067128454
  0.0788176213709607  0.8338012342523597  0.2708151922083048
  0.3290721474612556  0.3335213160436324  0.2715702561875205
  0.5793323895364326  0.3337799892093683  0.2712823558859030
  0.9123442801064023  0.6652378219305091  0.3772846586650682
  0.9119766891362013  0.4172456557081633  0.3762821459846175
  0.6625369437576528  0.6665795036064365  0.3763555972620551
  0.1622374049444525  0.1673442817874920  0.3764439966116753
  0.9117344614364754  0.1670230578582209  0.3761191081736509
  0.9115915659131880  0.9165167133822619  0.3756754628102237
  0.4125761372312930  0.9168672408659660  0.3757670519142958
  0.4089150995685216  0.1685505502965590  0.3786808327576890
  0.6622578628383108  0.1677123818055673  0.3773082414889684
  0.1619834218119587  0.6668406202447705  0.3758290033588166
  0.4126255232628296  0.6670082064148144  0.3759467761345689
  0.4126094967518050  0.4166481880031194  0.3761134108756960
  0.6617748675673131  0.9171270303029311  0.3761458013059925
  0.1616445869349685  0.4165841517611978  0.3770232368859018
  0.6628169071280874  0.4168118716605423  0.3768317912059188
  0.1620453150351450  0.9174156963732671  0.3756317057286943
  0.9956734797093082  0.2398710452750623  0.4810923697572591
  0.4955344473811810  0.2503767285109019  0.4820770302506833
  0.9948931426166892  0.7510857290041977  0.4813446561330325
  0.4958159438841165  0.7498448192235482  0.4816940514610604
  0.7433548859926631  0.7519348503959108  0.4814223499896335
  0.9942707139638497  0.5059221439299643  0.4840395646008342
  0.7429480387673679  0.5019158968371900  0.4852453863853854
  0.2481716442999350  0.9958935160906829  0.4807901914401862
  0.9965343187454262  0.9941608420815036  0.4813331044038769
  0.4952543027750632  0.0000567898090023  0.4821428051775135
  0.2456613538782344  0.7500953656550968  0.4816373968999043
  0.7447356638010904 -0.0001428925747820  0.4817324658539713
  0.2454731062232531  0.2491140156526451  0.4874585542071919
  0.7448624603189212  0.2488021995754284  0.4857497872796339
  0.2472687258111721  0.5027070014998598  0.4808422769625170
  0.4919306775243936  0.5024905248473216  0.4815525691801628
  0.9959158638827826  0.2508201632941983  0.1654892587307830
  0.4955647961787421  0.2513165236969538  0.1658890856356902
  0.9959397020690616  0.7505586364734042  0.1654164444799141
  0.4959486741762908  0.7504993540801375  0.1653196692495825
  0.7459617104109300  0.7505997019833359  0.1651577462325450
  0.9959572232291953  0.5007773361511133  0.1654681934628588
  0.7459388142182770  0.5006113754301775  0.1654562576952154
  0.2455781688196485  0.0009777634848996  0.1653363583312542
  0.9960037531780962  0.0006916120550517  0.1653439604893635
  0.4958091274748205  0.0013649125418467  0.1651371302838162
  0.2458259347177135  0.7507507286004078  0.1651123344837869
  0.7456097233860848  0.0012714289061938  0.1652328451958617
  0.2458624863187139  0.2509446906236223  0.1655206955560825
  0.7459311389699902  0.2509843631342713  0.1655614519920085
  0.2458322224574619  0.5007210984727608  0.1654810684022429
  0.4959413583107846  0.5008075061230370  0.1654255634015418
  0.0711661515134413  0.3668553760820994  0.5645213916303957
 -0.0162153919175744  0.3026726906371111  0.6624988368282726
  0.9657433388274248  0.3360593470156164  0.6003211145253263
  0.8367446977901658  0.3429244723915409  0.5555489695475210
  0.7608729697965737  0.3134172791117549  0.5885058793643405
 
  0.00000000E+00  0.00000000E+00  0.00000000E+00
  0.00000000E+00  0.00000000E+00  0.00000000E+00
  0.00000000E+00  0.00000000E+00  0.00000000E+00
  0.00000000E+00  0.00000000E+00  0.00000000E+00
  0.00000000E+00  0.00000000E+00  0.00000000E+00
  0.00000000E+00  0.00000000E+00  0.00000000E+00
  0.00000000E+00  0.00000000E+00  0.00000000E+00
  0.00000000E+00  0.00000000E+00  0.00000000E+00
  0.00000000E+00  0.00000000E+00  0.00000000E+00
  0.00000000E+00  0.00000000E+00  0.00000000E+00
  0.00000000E+00  0.00000000E+00  0.00000000E+00
  0.00000000E+00  0.00000000E+00  0.00000000E+00
  0.00000000E+00  0.00000000E+00  0.00000000E+00
  0.00000000E+00  0.00000000E+00  0.00000000E+00
  0.00000000E+00  0.00000000E+00  0.00000000E+00
  0.00000000E+00  0.00000000E+00  0.00000000E+00
  0.00000000E+00  0.00000000E+00  0.00000000E+00
  0.00000000E+00  0.00000000E+00  0.00000000E+00
  0.00000000E+00  0.00000000E+00  0.00000000E+00
  0.00000000E+00  0.00000000E+00  0.00000000E+00
  0.00000000E+00  0.00000000E+00  0.00000000E+00
  0.00000000E+00  0.00000000E+00  0.00000000E+00
  0.00000000E+00  0.00000000E+00  0.00000000E+00
  0.00000000E+00  0.00000000E+00  0.00000000E+00
  0.00000000E+00  0.00000000E+00  0.00000000E+00
  0.00000000E+00  0.00000000E+00  0.00000000E+00
  0.00000000E+00  0.00000000E+00  0.00000000E+00
  0.00000000E+00  0.00000000E+00  0.00000000E+00
  0.00000000E+00  0.00000000E+00  0.00000000E+00
  0.00000000E+00  0.00000000E+00  0.00000000E+00
  0.00000000E+00  0.00000000E+00  0.00000000E+00
  0.00000000E+00  0.00000000E+00  0.00000000E+00
  0.00000000E+00  0.00000000E+00  0.00000000E+00
  0.00000000E+00  0.00000000E+00  0.00000000E+00
  0.00000000E+00  0.00000000E+00  0.00000000E+00
  0.00000000E+00  0.00000000E+00  0.00000000E+00
  0.00000000E+00  0.00000000E+00  0.00000000E+00
  0.00000000E+00  0.00000000E+00  0.00000000E+00
  0.00000000E+00  0.00000000E+00  0.00000000E+00
  0.00000000E+00  0.00000000E+00  0.00000000E+00
  0.00000000E+00  0.00000000E+00  0.00000000E+00
  0.00000000E+00  0.00000000E+00  0.00000000E+00
  0.00000000E+00  0.00000000E+00  0.00000000E+00
  0.00000000E+00  0.00000000E+00  0.00000000E+00
  0.00000000E+00  0.00000000E+00  0.00000000E+00
  0.00000000E+00  0.00000000E+00  0.00000000E+00
  0.00000000E+00  0.00000000E+00  0.00000000E+00
  0.00000000E+00  0.00000000E+00  0.00000000E+00
  0.00000000E+00  0.00000000E+00  0.00000000E+00
  0.00000000E+00  0.00000000E+00  0.00000000E+00
  0.00000000E+00  0.00000000E+00  0.00000000E+00
  0.00000000E+00  0.00000000E+00  0.00000000E+00
  0.00000000E+00  0.00000000E+00  0.00000000E+00
  0.00000000E+00  0.00000000E+00  0.00000000E+00
  0.00000000E+00  0.00000000E+00  0.00000000E+00
  0.00000000E+00  0.00000000E+00  0.00000000E+00
  0.00000000E+00  0.00000000E+00  0.00000000E+00
  0.00000000E+00  0.00000000E+00  0.00000000E+00
  0.00000000E+00  0.00000000E+00  0.00000000E+00
  0.00000000E+00  0.00000000E+00  0.00000000E+00
  0.00000000E+00  0.00000000E+00  0.00000000E+00
  0.00000000E+00  0.00000000E+00  0.00000000E+00
  0.00000000E+00  0.00000000E+00  0.00000000E+00
  0.00000000E+00  0.00000000E+00  0.00000000E+00
  0.00000000E+00  0.00000000E+00  0.00000000E+00
  0.00000000E+00  0.00000000E+00  0.00000000E+00
  0.00000000E+00  0.00000000E+00  0.00000000E+00
  0.00000000E+00  0.00000000E+00  0.00000000E+00
  0.00000000E+00  0.00000000E+00  0.00000000E+00
