 Ni_O
   1.000
   10.1184999999999992    0.0000000000000000    0.0000000000000000
   -5.0592499999999996    8.7628780000000006    0.0000000000000000
    0.0000000000000000    0.0000000000000000   30.4844000000000008
   Cu   O    H    C    H    C    O    O    H 
   64   30   60    1    2    1    1    1    1
Selective Dynamics
Direct
    0.4105067300000000    0.0815768300000000    0.1157677100000000    T  T  T
    0.9061289900000000    0.5858179700000000    0.1165509800000000    T  T  T
    0.6631623600000000    0.3342125800000000    0.1142661500000000    T  T  T
    0.1574998900000000    0.8336891800000000    0.1149741100000000    T  T  T
    0.1676750700000000    0.5902788800000000    0.1131154200000000    T  T  T
    0.4112930300000000    0.3284675000000000    0.1106218600000000    T  T  T
    0.1573861000000000    0.0858082000000000    0.1142831000000000    T  T  T
    0.4135778800000000    0.8444655100000000    0.1135318500000000    T  T  T
    0.9087268600000000    0.3334544900000000    0.1144837500000000    T  T  T
    0.1562937000000000    0.3279572400000000    0.1119138400000000    T  T  T
    0.6572246100000000    0.0788885500000000    0.1147607200000000    T  T  T
    0.6555064700000000    0.8330171100000000    0.1136514100000000    T  T  T
    0.6549041200000000    0.5887057300000000    0.1134365000000000    T  T  T
    0.4130428400000000    0.5889713800000000    0.1127271800000000    T  T  T
    0.9155873100000000    0.8392477900000000    0.1151959500000000    T  T  T
    0.9178814800000000    0.0912112400000000    0.1140105600000000    T  T  T
    0.3245310000000000    0.1713408200000000    0.1812713800000000    T  T  T
    0.8362200200000000    0.4288528000000000    0.1765055500000000    T  T  T
    0.0844537900000000    0.6746040700000000    0.1786415800000000    T  T  T
    0.3312685100000000    0.9286785700000000    0.1813976400000000    T  T  T
    0.5631025500000000    0.1702506000000000    0.1807660500000000    T  T  T
    0.5844515800000000    0.4231005900000000    0.1827426900000000    T  T  T
    0.0680926400000000    0.4172709000000000    0.1785618000000000    T  T  T
    0.8305188800000000    0.6739584700000000    0.1789657200000000    T  T  T
    0.0803564500000000    0.9134154000000000    0.1791361300000000    T  T  T
    0.3375848700000000    0.4244664800000000    0.1729141400000000    T  T  T
    0.3218920900000000    0.6677656199999999    0.1776399500000000    T  T  T
    0.0665010600000000    0.1660326400000000    0.1797041400000000    T  T  T
    0.5743504600000000    0.9162645000000000    0.1811570300000000    T  T  T
    0.8254009700000000    0.1672347300000000    0.1825645000000000    T  T  T
    0.5710058800000000    0.6642289300000001    0.1797882200000000    T  T  T
    0.8247746400000000    0.9163785500000000    0.1814160900000000    T  T  T
    0.4991713600000000    0.2749028600000000    0.2609061200000000    T  T  T
    0.2562532800000000    0.0141725900000000    0.2522984300000000    T  T  T
    0.0033898100000000    0.7561022300000000    0.2465048200000000    T  T  T
    0.4988838500000000    0.0101196000000000    0.2476821600000000    T  T  T
    0.0018865700000000    0.5134881600000000    0.2471026800000000    T  T  T
    0.7582135900000000    0.4974560000000000    0.2446721600000000    T  T  T
    0.2485664500000000    0.7610580000000000    0.2503136000000000    T  T  T
    0.7540661600000000    0.2640366600000000    0.2468981800000000    T  T  T
    0.2497196600000000    0.2591132300000000    0.2432980100000000    T  T  T
    0.2520731300000000    0.5021149200000000    0.2432976000000000    T  T  T
    0.0080790600000000    0.2549997400000000    0.2493301700000000    T  T  T
    0.5070206200000000    0.5076560200000000    0.2452586600000000    T  T  T
    0.4927290000000000    0.7446144900000000    0.2471432300000000    T  T  T
    0.0087197400000000    0.0064618000000000    0.2487986200000000    T  T  T
    0.7546888700000000   -0.0045213900000000    0.2482187300000000    T  T  T
    0.7630543900000000    0.7493687900000000    0.2469544400000000    T  T  T
    0.5051699800000000    0.2552200000000000    0.0459221600000000    F  F  F
    0.2551900300000000    0.0052500000000000    0.0459221600000000    F  F  F
    0.0052100000000000    0.7552400000000000    0.0459221600000000    F  F  F
    0.5051599700000000    0.0052700000000000    0.0459221600000000    F  F  F
    0.0051299800000000    0.5051999900000000    0.0459221600000000    F  F  F
    0.7552299800000000    0.5052699700000000    0.0459221600000000    F  F  F
    0.2551200100000000    0.7552599700000000    0.0459221600000000    F  F  F
    0.7550999900000001    0.2552900000000000    0.0459221600000000    F  F  F
    0.2552500100000000    0.2551600000000000    0.0459221600000000    F  F  F
    0.2551399900000000    0.5051699500000000    0.0459221600000000    F  F  F
    0.0052600000000000    0.2552700000000000    0.0459221600000000    F  F  F
    0.5051800000000000    0.5051699500000000    0.0459221600000000    F  F  F
    0.5051100100000000    0.7552000000000000    0.0459221600000000    F  F  F
    0.0051800000000000    0.0052200000000000    0.0459221600000000    F  F  F
    0.7551700000000000    0.0052400000000000    0.0459221600000000    F  F  F
    0.7551899900000000    0.7551799800000000    0.0459221600000000    F  F  F
    0.4590315700000000    0.2361884900000000    0.3311419000000000    T  T  T
    0.9026245200000000    0.5969880500000000    0.3427844400000000    T  T  T
    1.2066406500000000    1.1468428700000000    0.4326103600000000    T  T  T
    1.3284392700000001    0.4633807300000000    0.4148559600000000    T  T  T
    0.7083723800000000    1.1542524199999999    0.5834859000000000    T  T  T
    1.0874142899999999    0.9488009400000000    0.5640900000000000    T  T  T
    0.4866209500000000    0.4956961200000000    0.3431905600000000    T  T  T
    1.1718751199999999    0.7962666000000000    0.6186969500000000    T  T  T
    1.2179146100000000    0.9831359600000000    0.3521760900000000    T  T  T
    1.0476029099999999    0.6868544200000000    0.4311940200000000    T  T  T
    1.0394122200000000    0.4557033200000000    0.4877244500000000    T  T  T
    0.4278631000000000    0.8398224700000000    0.5734621500000000    T  T  T
    0.5191849300000000    1.0469068399999999    0.4216717200000000    T  T  T
    0.4949412800000000    0.6413818900000000    0.6179961100000000    T  T  T
    0.6114454499999999    0.3110284800000000    0.4532677400000000    T  T  T
    0.9588290800000000    1.1805622499999999    0.5621409000000001    T  T  T
    0.7187114700000000    0.5998978200000000    0.5668093900000000    T  T  T
    0.7559929800000000    0.7463054600000000    0.3602116200000000    T  T  T
    1.1472724800000000    0.5176143300000000    0.5739133900000000    T  T  T
    0.7115149300000000    0.9647974600000000    0.4334141200000000    T  T  T
    1.3293531700000001    0.8345200400000000    0.4782076600000000    T  T  T
    0.7620860600000000    0.6266500900000000    0.4392732500000000    T  T  T
    0.9882297799999999    1.0290946400000001    0.3368548700000000    T  T  T
    0.9516194100000001    1.1717829399999999    0.4716680800000000    T  T  T
    0.8365643699999999    0.8249134100000000    0.5127175600000000    T  T  T
    0.7750671000000000    1.3814044200000000    0.5290252600000001    T  T  T
    0.2168429200000000    0.6254653700000000    0.3436498600000000    T  T  T
    0.4566234600000000    0.6581271200000000    0.4726067600000000    T  T  T
    0.3813319300000000    0.2166489400000000    0.5032485200000000    T  T  T
    0.4260188300000000    0.4686158100000000    0.5385071800000000    T  T  T
    0.3616420500000000    1.1431612400000000    0.3424880500000000    T  T  T
    0.5542734200000000    0.2273032400000000    0.3342133000000000    T  T  T
    0.9541353500000000    0.6038530300000000    0.3132661300000000    T  T  T
    0.8445708000000000    0.4759083300000000    0.3423945800000000    T  T  T
    1.2021588700000001    1.0753187900000001    0.4091754000000000    T  T  T
    1.0983833999999999    1.1113486600000000    0.4407284600000000    T  T  T
    0.4036698200000000    0.5807055000000000    0.4491621800000000    T  T  T
    1.3925902500000000    0.4693639800000000    0.3884766000000000    T  T  T
    0.6030727600000000    1.0735996600000000    0.5926170500000000    T  T  T
    0.7050370700000000    1.2292164800000001    0.5644040700000000    T  T  T
    0.9946119900000000    0.8843023800000001    0.5457071999999999    T  T  T
    1.1657448500000001    1.0285181100000000    0.5436738500000000    T  T  T
    0.4741446400000000    0.3893777100000000    0.3386575000000000    T  T  T
    0.4401427800000000    0.5216662200000000    0.3187626600000000    T  T  T
    1.1452913100000000    0.8077360900000000    0.6497896700000000    T  T  T
    1.1360334700000001    0.8500310400000000    0.5986840400000000    T  T  T
    0.2389355100000000    0.9104347900000000    0.3387843500000000    T  T  T
    1.1362058799999999    0.9910614800000001    0.3373155800000000    T  T  T
    1.0489631500000001    0.6012951900000000    0.4427229900000000    T  T  T
    1.0947758299999999    0.7192189900000000    0.4024557500000000    T  T  T
    1.1136893500000000    0.4987666700000000    0.5113440600000000    T  T  T
    0.9447273000000000    0.4210899700000000    0.5058337700000000    T  T  T
    0.4096834000000000    0.8238011700000000    0.5422376500000000    T  T  T
    0.3281692700000000    0.8084890800000000    0.5865044400000000    T  T  T
    0.6018425300000000    1.0119314900000000    0.4220176900000000    T  T  T
    0.5812003900000000    1.1538915599999999    0.4331193600000000    T  T  T
    0.5089622800000000    0.6659327300000000    0.6483997300000000    T  T  T
    0.4870987300000000    0.7251730600000000    0.6025295300000000    T  T  T
    0.5198165800000000    0.2724238200000000    0.4732990900000000    T  T  T
    0.6500495500000000    0.4188439200000000    0.4414473600000000    T  T  T
    0.8573783500000000    1.1475498799999999    0.5746706900000000    T  T  T
    1.0132372800000000    1.1257390400000000    0.5679153500000000    T  T  T
    0.6383473000000000    0.5548782700000000    0.5447653600000000    T  T  T
    0.6663141200000000    0.6207681700000000    0.5926686600000000    T  T  T
    0.8257027200000000    0.7082738700000000    0.3497441800000000    T  T  T
    0.6628090800000001    0.6627690899999999    0.3482004500000000    T  T  T
    1.1173974300000000    0.5793786100000000    0.5912611100000000    T  T  T
    1.0848134300000001    0.4064777000000000    0.5808140500000000    T  T  T
    0.8075918700000000    1.0533492300000000    0.4480641500000000    T  T  T
    0.7530170200000000    0.9438226600000000    0.4062803500000000    T  T  T
    1.2223609700000000    0.7884627800000000    0.4688262600000000    T  T  T
    0.4380961100000000    0.9688160900000000    0.4458375700000000    T  T  T
    0.7572539100000000    0.6883965800000000    0.4140107400000000    T  T  T
    0.8598451200000000    0.6279388900000000    0.4308161200000000    T  T  T
    0.8885755000000000    0.9408141900000000    0.3428909800000000    T  T  T
    0.9840145900000000    1.1249827900000000    0.3303428400000000    T  T  T
    0.9412663999999999    1.1634788100000000    0.5046113000000000    T  T  T
    0.9877614700000000    1.2834356200000001    0.4685206800000000    T  T  T
    0.8217877300000000    0.7466249600000000    0.4902650700000000    T  T  T
    0.7619422900000000    0.7662132500000000    0.5361330800000000    T  T  T
    0.7270726600000000    1.3789599100000001    0.5003799799999999    T  T  T
    0.7838012500000000    1.4746882900000000    0.5423045399999999    T  T  T
    0.2995320300000000    0.6263775800000000    0.3261119100000000    T  T  T
    0.1529533300000000    0.5190905600000000    0.3530103700000000    T  T  T
    0.3663358800000000    0.7638372000000000    0.4713587100000000    T  T  T
    0.5554261700000001    0.7341798200000000    0.4614935400000000    T  T  T
    0.3821033500000000    0.3101925500000000    0.5164829700000000    T  T  T
    1.3033154600000001    0.1751236500000000    0.4816519700000000    T  T  T
    0.3421506200000000    0.4584545000000000    0.5579304400000000    T  T  T
    0.4349589600000000    0.5368434100000000    0.5133097100000000    T  T  T
    0.6790516200000000    0.0449412700000000    0.3165818300000000    T  T  T
    0.5582895200000000    0.0051058700000000    0.3185695900000000    T  T  T
    0.6994558500000000   -0.0413257200000000    0.3251383300000000    T  T  T
    0.7915171600000001    0.2049093700000000    0.3250261100000000    T  T  T
    0.7410833999999999    0.2941754500000000    0.3371652500000000    T  T  T
    0.9411540900000001    0.2537473500000000    0.3219497300000000    T  T  T
    1.2847738000000000    0.3559511200000000    0.4203217100000000    T  T  T

  -0.001687158689999   -0.000934648567480   -0.000137179800000
   0.002203050412501   -0.002365013143420   -0.002920710364000
   0.001299164807501   -0.000920540333900   -0.000566704996000
  -0.002995632517499    0.000718117852100   -0.000302405248001
  -0.004146358930000    0.000862091937641   -0.001186148004000
   0.000198879117500    0.001504498523820    0.000342034967999
  -0.001655133637500    0.000241943061580   -0.003564845736000
  -0.001866458509999   -0.000361205831161   -0.000086575696000
   0.000502079969999    0.000571514903160   -0.001210840368000
  -0.001746959025000    0.000186999816520   -0.001034335692000
  -0.002489505147500   -0.001970157860740    0.001838209320000
   0.000170446132500    0.000216705972940   -0.000006096880000
  -0.000646268594999   -0.002069266010921   -0.000890144480000
  -0.000306286995000    0.001569957222480    0.000678582744000
  -0.000491101397500   -0.001849054886780   -0.003046001248000
   0.003003626132498   -0.003653857239660   -0.003049354532000
  -0.001040232392501   -0.001187808112900    0.001683653411999
   0.003254716710001   -0.001160730819880   -0.001353507360000
   0.000659726200000   -0.001221019420520   -0.001153834540000
  -0.003839262455000   -0.000311257426560    0.000620357540000
   0.000224529515000    0.003351800835000    0.003820914696000
   0.000844085270000    0.000090783416080    0.001497088883999
   0.000470662027500    0.000915457864660   -0.000613041284000
  -0.000109633947501   -0.000257716241980    0.001440083056000
   0.001475429077500    0.000083159712220    0.001110546692000
   0.001732489570000   -0.002543863483400   -0.000720041528000
   0.001940070597500   -0.001576178865860    0.000734064352000
  -0.002057344012500    0.001637869526980   -0.002725305360001
  -0.003824944777500    0.000565643774898    0.003077400180000
   0.001185028127498   -0.000405808880180    0.000127424792001
  -0.000560261345000   -0.002249781297721    0.002069585916000
  -0.001127656232500   -0.001170457614460    0.000641696620000
  -0.000802194680001   -0.000537514936520    0.000146325119999
  -0.002733462182500   -0.000632592162820    0.002478991407999
  -0.001453573117500    0.002067425806540   -0.001229435852000
  -0.001771091647500    0.003046239279140   -0.000897155892001
   0.002556843764999   -0.000481082002199   -0.002389062428000
  -0.000889618520000   -0.002950811537720    0.001887594048000
  -0.001023891015000    0.000968122761440    0.000403918299999
  -0.002727897007501    0.000735293092980   -0.005075957444000
  -0.001363063134999   -0.000831246607080    0.001730599388000
  -0.000781097607500    0.000373736746701    0.002667994688000
  -0.000678799572500    0.003329806011220   -0.001686397007999
  -0.001434600930000   -0.002466574899439   -0.001192244883999
   0.000111910610001   -0.002909976526240    0.002103728444000
   0.000519635567500   -0.003257775154060    0.004903415739999
   0.002471140070001   -0.002310420413480    0.000833443496000
  -0.003290991532499   -0.004109176380540    0.002324130656000
   0.000000000000000    0.000000000000000    0.000000000000000
   0.000000000000000    0.000000000000000    0.000000000000000
   0.000000000000000    0.000000000000000    0.000000000000000
   0.000000000000000    0.000000000000000    0.000000000000000
   0.000000000000000    0.000000000000000    0.000000000000000
   0.000000000000000    0.000000000000000    0.000000000000000
   0.000000000000000    0.000000000000000    0.000000000000000
   0.000000000000000    0.000000000000000    0.000000000000000
   0.000000000000000    0.000000000000000    0.000000000000000
   0.000000000000000    0.000000000000000    0.000000000000000
   0.000000000000000    0.000000000000000    0.000000000000000
   0.000000000000000    0.000000000000000    0.000000000000000
   0.000000000000000    0.000000000000000    0.000000000000000
   0.000000000000000    0.000000000000000    0.000000000000000
   0.000000000000000    0.000000000000000    0.000000000000000
   0.000000000000000    0.000000000000000    0.000000000000000
  -0.001859173190000   -0.002787997264480   -0.003847740968000
   0.004899276514999    0.003775924130200    0.000650841939999
   0.004863153470001    0.004484315187721    0.001893690928000
  -0.002502912160001    0.003844975608840    0.001110241848000
  -0.004731208230001   -0.008565537987439   -0.001446484779997
   0.007113406685002   -0.008244115622400   -0.001739135019999
   0.005578480827500    0.003381682248980    0.002664946248000
  -0.005734153949999   -0.002445018219560   -0.001993070072000
   0.001782272590001   -0.003202656651441    0.000469154915999
   0.002218228162501    0.001069684517461   -0.002436922936001
  -0.001074382330001   -0.006726385152800   -0.000406966740000
   0.004978807924999    0.003640099521200   -0.001915639695998
   0.002722433017499    0.000153087478660   -0.005834104472001
   0.003501861072500    0.006530885344620    0.002368333035999
   0.009279423387500   -0.000032860792500   -0.001989411943999
  -0.003131068640001   -0.002667420063199   -0.005306724352003
  -0.005388910730001   -0.003692326274081   -0.000654804911999
   0.001754750269999   -0.002965533172760    0.002161343960001
  -0.000098200042501   -0.001712178732420   -0.001627562115996
   0.005617942977500    0.001321529631181   -0.003708427260001
  -0.002176691719999    0.006143303250680    0.004017843920000
   0.002363883970002    0.003170234002839    0.006143825976000
   0.001432880785000    0.004414036906159    0.000454522404000
   0.006131102705000    0.001546998482119   -0.002665555936000
   0.012037220562501    0.006441503989021   -0.001010557860003
  -0.002459554387501   -0.002943012576299    0.002106776883998
   0.007303432115000   -0.001317761593640    0.000963611884000
  -0.001135042737499    0.005089391913620    0.004078812720000
  -0.000926955784999    0.007154364114320    0.008253346456002
   0.003217177074999    0.002400327541760   -0.006544086148001
   0.010338324412499    0.014214527290141    0.005092419020000
  -0.007269383362500   -0.010020789136900    0.006812653712000
   0.011547333385000   -0.002125523687680    0.009594964900002
  -0.000712392992499    0.009757902796900   -0.000237778319999
  -0.007200577562497   -0.006160916635460    0.009838535256000
   0.000252051835000   -0.004665356247200    0.008913943404000
   0.015937598757501   -0.009017614863460   -0.016575587656002
   0.020402235104999   -0.022429287271240    0.025214561772001
  -0.002020512672501   -0.004370660660058    0.016517057608002
   0.003476564822500   -0.009691304924102   -0.003254209700000
   0.005570638990002   -0.022439627467280    0.001322413272003
  -0.004227610484999   -0.014956655427961   -0.007579946059998
   0.000042851847501   -0.007142884744140   -0.018481167499999
  -0.022286148027500   -0.028380070092259    0.006812348868001
  -0.004684814907500   -0.015813402010020   -0.002267429672003
  -0.007898399915001    0.007945651997720    0.007512880379998
  -0.008951786357500   -0.033978848104021    0.004702828388000
   0.017319330525002   -0.019596424071400   -0.017922083604001
   0.005427866954999   -0.015130160412360   -0.000665779296000
   0.000745784042498   -0.001937910469699    0.001858938711999
   0.031938944064999    0.008265497044719    0.010155268171999
   0.008440245589999    0.000742566281720    0.007030922016002
  -0.003317754965000    0.020382804743120    0.011555111819998
   0.019184119482500    0.001828023979581    0.016417068776001
  -0.006799126074999    0.031127670489159   -0.018246437620000
   0.015559773967500   -0.012996662505699   -0.014918150828001
   0.019840051245000    0.037012293581280   -0.019128961000000
  -0.006336862402499    0.021365736768380    0.009264514004002
  -0.000659270867500    0.021030994828780   -0.033042346004001
  -0.017205598585000   -0.010951669666840   -0.012700105883999
  -0.032582935997499    0.024228569010981   -0.027030517480000
  -0.033536604622500   -0.033749260700422    0.003696233499998
   0.001201369505001    0.021197752397121   -0.001575128947998
   0.036256609200001    0.000376453238880   -0.013331437807999
   0.004804314392500   -0.001077746365219    0.008348152939998
  -0.021284517712501    0.023724878783540    0.008094827576000
   0.002679277615000    0.003118708280200   -0.005086017295998
  -0.026075829832500   -0.018851491812620    0.000775218291999
  -0.003385599507500    0.002951249681621   -0.002085437804000
  -0.009611664335000   -0.009614629741598    0.016257635364001
  -0.000524593632500    0.011000654154860   -0.017202956607999
   0.015733508612501    0.002596353122621   -0.003373708548001
   0.018450072900000    0.005542695592559    0.018843017327999
   0.009354148509999    0.006349756656360   -0.018715897380000
  -0.005526168182500    0.009252635251420    0.019215231852000
   0.017824395452501   -0.000758602348458    0.024354292003999
   0.030825605510000   -0.006332406157920    0.000057920360000
   0.034619233530001    0.011701596766079   -0.002339677700000
  -0.024834492252499    0.010847479047420    0.015789394979999
   0.011781829622499    0.019724800234100    0.021496074660000
   0.017600574232500   -0.013337363202341    0.012711080268001
   0.001436624630000   -0.010817071860760    0.008623122228002
  -0.021068588922500   -0.002797373543940   -0.028654116624001
  -0.004292874810000    0.000877164087800    0.000996230191999
   0.015337976447500    0.000998529948101   -0.004879942752002
  -0.009971984120000   -0.017811075307681    0.004404081268000
  -0.001082173575000    0.011397174384360   -0.014402659624000
  -0.020852356577500   -0.002504342903620    0.021977118492000
   0.007769034892500   -0.009568975147221   -0.000581337507999
  -0.002675989102500    0.002091260834701   -0.006762659296001
   0.004331021555001   -0.004535139880120    0.001418439131999
  -0.007734682584999    0.007106869315560    0.002847242960000
   0.005646628925001    0.002355812121520    0.013454289940000
  -0.010568925027502   -0.001560931458140   -0.000764853596001
  -0.003545218845000   -0.001554534557200    0.000893192920000
  -0.008457042300000    0.007801590283400    0.006355692556001
  -0.027192962825000   -0.022652915917800   -0.008018006887999