 Ni\(1\1\1)                             
   1.00000000000000     
     9.8291997910000006    0.0000000000000000    0.0000000000000000
     4.9145998955000003    8.5123367178000002    0.0000000000000000
     0.0000000000000000    0.0000000000000000   19.0128002167000005
   Ni   O    C    H 
    64     2     2     3
Direct
  0.8321675270024708  0.5838830836102799  0.2719133515809528
  0.3319778144045460  0.0834848017565397  0.2713933112962210
  0.8326269781070138  0.0833513785199205  0.2713720262167409
  0.3320556070037525  0.5833686620722889  0.2710251256824524
  0.5822315017908114  0.8331289849477397  0.2708898398960201
  0.8326401120684759  0.8328120602775179  0.2712299452520486
  0.0826935738334321  0.3333285834456886  0.2718301023613413
  0.8320435696089852  0.3332774806714959  0.2718165667008585
  0.5823451413039948  0.5833014543366265  0.2713314275843279
  0.0822983649641340  0.5830247868711687  0.2717079564993501
  0.0821300892772966  0.0837996342329264  0.2716975700173241
  0.5822155822812554  0.0832902962988280  0.2713185541304664
  0.3322472680616628  0.8333287259077653  0.2710972428770100
  0.0824198499843057  0.8331894050359147  0.2711451514588780
  0.3318706691584889  0.3336520792131389  0.2712631480928526
  0.5821516653642494  0.3337547920561541  0.2710182389595036
  0.9169954685255072  0.6651572264574567  0.3779446306271466
  0.9157730029163790  0.4167317126597544  0.3769334154783607
  0.6657558104788119  0.6657767019866749  0.3772424720520133
  0.1650290783136256  0.1666746489838410  0.3777277194125186
  0.9167350985819345  0.1666808219385774  0.3776528313964571
  0.9161170694687706  0.9162391398970313  0.3763153771865169
  0.4156436176886744  0.9163671169424509  0.3762832966697042
  0.4153304739661188  0.1666306007119773  0.3761246613914762
  0.6658531598837478  0.1664453707499990  0.3758329785611624
  0.1661283507915372  0.6662616103318657  0.3764907301207732
  0.4157198758516703  0.6664705470325842  0.3763259041179603
  0.4159283136761037  0.4163953971069879  0.3763013572666815
  0.6659343033858794  0.9160433486954129  0.3759365324071488
  0.1650726850192200  0.4170731731648863  0.3777489689824725
  0.6656624757368672  0.4174350145239613  0.3771905383514979
  0.1659278800009146  0.9161620734378887  0.3763948496831719
  0.0013317349436062  0.2465228973430918  0.4847360219180136
  0.5001042882029402  0.2496097451102911  0.4818880004329295
  0.0003133353226039  0.7507228823840676  0.4822969818901089
  0.4973934331171108  0.7513658288431913  0.4821399421549161
  0.7471583999039964  0.7544081582452510  0.4809667725053909
  0.0027726220820356  0.5006532000037323  0.4859177037908624
  0.7445834821750595  0.5025726295418709  0.4844678440762685
  0.2504863009093198  0.9983412553173083  0.4824038738439461
  0.0002051331868369  0.9981586494159171  0.4823329653566275
  0.5000481324278501 -0.0000945244701371  0.4819744990602315
  0.2497050463953571  0.7496150635514561  0.4825178431853533
  0.7499159193323433  0.9999000548273650  0.4819262043746962
  0.2543807150594513  0.2471437141633684  0.4819429978396602
  0.7471491469452195  0.2479364954951384  0.4807855583208630
  0.2509530371912118  0.4999965008271094  0.4823614268803117
  0.4976945842217092  0.5002453057121907  0.4821143229034667
 -0.0013791933942887  0.2512725252583020  0.1660072431034420
  0.4993166775767338  0.2502055654964945  0.1654683874357630
 -0.0010933133352388  0.7504349404527494  0.1654924707884347
  0.4991714512168670  0.7504121695271270  0.1652435904923918
  0.7493573982049990  0.7499915410508881  0.1654749772233061
 -0.0014112972236285  0.5009935725497212  0.1660414137540697
  0.7490458120697620  0.5009117162209710  0.1660283714038328
  0.2486292618888059  0.0010956539585386  0.1657814274486469
 -0.0012247835237501  0.0012539285744094  0.1657953944313217
  0.4992204434909579  0.0005695013994710  0.1653617255933351
  0.2491113448423148  0.7505519251549480  0.1653438585762361
  0.7491014912015188  0.0004664323599915  0.1654649141263983
  0.2484415431318553  0.2510457881987808  0.1657816089801671
  0.7491616063401948  0.2509838060221528  0.1657244631139437
  0.2486950205771692  0.5007841540656148  0.1656321322971914
  0.4992154310052478  0.5007031382602076  0.1654743953581997
  0.9083959316646837  0.4211905817133629  0.5582811917067663
  0.0316947919780045  0.3461674831340535  0.6634064467976655
  0.9101387455364972  0.3985586835642777  0.6304833348788808
  0.7502151783865009  0.4476835223248609  0.6600107098030893
  0.7606801155508566  0.3682126427810200  0.7027800856600047
  0.7011979447407936  0.5669004728009417  0.6818326711859592
  0.6694141571558465  0.4511257779445608  0.6191314669959241
 
  0.00000000E+00  0.00000000E+00  0.00000000E+00
  0.00000000E+00  0.00000000E+00  0.00000000E+00
  0.00000000E+00  0.00000000E+00  0.00000000E+00
  0.00000000E+00  0.00000000E+00  0.00000000E+00
  0.00000000E+00  0.00000000E+00  0.00000000E+00
  0.00000000E+00  0.00000000E+00  0.00000000E+00
  0.00000000E+00  0.00000000E+00  0.00000000E+00
  0.00000000E+00  0.00000000E+00  0.00000000E+00
  0.00000000E+00  0.00000000E+00  0.00000000E+00
  0.00000000E+00  0.00000000E+00  0.00000000E+00
  0.00000000E+00  0.00000000E+00  0.00000000E+00
  0.00000000E+00  0.00000000E+00  0.00000000E+00
  0.00000000E+00  0.00000000E+00  0.00000000E+00
  0.00000000E+00  0.00000000E+00  0.00000000E+00
  0.00000000E+00  0.00000000E+00  0.00000000E+00
  0.00000000E+00  0.00000000E+00  0.00000000E+00
  0.00000000E+00  0.00000000E+00  0.00000000E+00
  0.00000000E+00  0.00000000E+00  0.00000000E+00
  0.00000000E+00  0.00000000E+00  0.00000000E+00
  0.00000000E+00  0.00000000E+00  0.00000000E+00
  0.00000000E+00  0.00000000E+00  0.00000000E+00
  0.00000000E+00  0.00000000E+00  0.00000000E+00
  0.00000000E+00  0.00000000E+00  0.00000000E+00
  0.00000000E+00  0.00000000E+00  0.00000000E+00
  0.00000000E+00  0.00000000E+00  0.00000000E+00
  0.00000000E+00  0.00000000E+00  0.00000000E+00
  0.00000000E+00  0.00000000E+00  0.00000000E+00
  0.00000000E+00  0.00000000E+00  0.00000000E+00
  0.00000000E+00  0.00000000E+00  0.00000000E+00
  0.00000000E+00  0.00000000E+00  0.00000000E+00
  0.00000000E+00  0.00000000E+00  0.00000000E+00
  0.00000000E+00  0.00000000E+00  0.00000000E+00
  0.00000000E+00  0.00000000E+00  0.00000000E+00
  0.00000000E+00  0.00000000E+00  0.00000000E+00
  0.00000000E+00  0.00000000E+00  0.00000000E+00
  0.00000000E+00  0.00000000E+00  0.00000000E+00
  0.00000000E+00  0.00000000E+00  0.00000000E+00
  0.00000000E+00  0.00000000E+00  0.00000000E+00
  0.00000000E+00  0.00000000E+00  0.00000000E+00
  0.00000000E+00  0.00000000E+00  0.00000000E+00
  0.00000000E+00  0.00000000E+00  0.00000000E+00
  0.00000000E+00  0.00000000E+00  0.00000000E+00
  0.00000000E+00  0.00000000E+00  0.00000000E+00
  0.00000000E+00  0.00000000E+00  0.00000000E+00
  0.00000000E+00  0.00000000E+00  0.00000000E+00
  0.00000000E+00  0.00000000E+00  0.00000000E+00
  0.00000000E+00  0.00000000E+00  0.00000000E+00
  0.00000000E+00  0.00000000E+00  0.00000000E+00
  0.00000000E+00  0.00000000E+00  0.00000000E+00
  0.00000000E+00  0.00000000E+00  0.00000000E+00
  0.00000000E+00  0.00000000E+00  0.00000000E+00
  0.00000000E+00  0.00000000E+00  0.00000000E+00
  0.00000000E+00  0.00000000E+00  0.00000000E+00
  0.00000000E+00  0.00000000E+00  0.00000000E+00
  0.00000000E+00  0.00000000E+00  0.00000000E+00
  0.00000000E+00  0.00000000E+00  0.00000000E+00
  0.00000000E+00  0.00000000E+00  0.00000000E+00
  0.00000000E+00  0.00000000E+00  0.00000000E+00
  0.00000000E+00  0.00000000E+00  0.00000000E+00
  0.00000000E+00  0.00000000E+00  0.00000000E+00
  0.00000000E+00  0.00000000E+00  0.00000000E+00
  0.00000000E+00  0.00000000E+00  0.00000000E+00
  0.00000000E+00  0.00000000E+00  0.00000000E+00
  0.00000000E+00  0.00000000E+00  0.00000000E+00
  0.00000000E+00  0.00000000E+00  0.00000000E+00
  0.00000000E+00  0.00000000E+00  0.00000000E+00
  0.00000000E+00  0.00000000E+00  0.00000000E+00
  0.00000000E+00  0.00000000E+00  0.00000000E+00
  0.00000000E+00  0.00000000E+00  0.00000000E+00
  0.00000000E+00  0.00000000E+00  0.00000000E+00
  0.00000000E+00  0.00000000E+00  0.00000000E+00
