 Layer\(9)                              
   1.00000000000000     
     9.8291997910000006    0.0000000000000000    0.0000000000000000
     4.9145998955000003    8.5123367178000002    0.0000000000000000
     0.0000000000000000    0.0000000000000000   30.7147998810000011
   Ni   O    H 
    64    30    60
Selective dynamics
Direct
  0.0717584427936156  0.0814473842423897  0.1231102363427462   T   T   T
  0.3212280126806416  0.0936650884465506  0.1172284943245577   T   T   T
  0.3337649314675871  0.8301388150670664  0.1190492175429049   T   T   T
  0.5711868468173928  0.3441715594836113  0.1174838918892843   T   T   T
  0.3352989671492321  0.5792648621248604  0.1194779004683104   T   T   T
  0.3280409665187461  0.3332623251464045  0.1178489925408556   T   T   T
  0.8258992814134613  0.0892230758256557  0.1186924365660822   T   T   T
  0.5761558724412473  0.0831025010761015  0.1182871218114073   T   T   T
  0.8331003692751827  0.3261544583637700  0.1203613538526585   T   T   T
  0.5729759178978695  0.5925736260184166  0.1192031480831505   T   T   T
  0.0829451106109510  0.8334497809882682  0.1214442955610904   T   T   T
  0.5876298548366266  0.8331530309612536  0.1199486668447144   T   T   T
  0.0711745298741006  0.3473720090056724  0.1190405326224615   T   T   T
  0.8217367768219309  0.5884723983093113  0.1189987013937688   T   T   T
  0.0711636655359600  0.5922727077487244  0.1202868844137946   T   T   T
  0.8276593452175941  0.8370312866381584  0.1216774676659747   T   T   T
  0.1568427542690308  0.1813231643987904  0.1874941148896473   T   T   T
  0.1623498307592534  0.9283159287266618  0.1883811543999582   T   T   T
  0.4302506895622943  0.1655458932050394  0.1869870933177219   T   T   T
  0.4108121120227515  0.9309742367705165  0.1811547033010090   T   T   T
  0.4169188831539785  0.4166725001872655  0.1873843694513274   T   T   T
  0.4207045783276554  0.6792042193012117  0.1896669723384073   T   T   T
  0.9148040015353799  0.1683345676492746  0.1853958346512209   T   T   T
  0.6679364526670282  0.1878084148575088  0.1877687049093724   T   T   T
  0.6637922268281521  0.4239768486968896  0.1850590583042349   T   T   T
  0.1785132983833093  0.6575642886929195  0.1865929542080742   T   T   T
  0.9111445461943732  0.4284009654947338  0.1852540880868327   T   T   T
  0.6668915383992656  0.6693918691475041  0.1841806541357329   T   T   T
  0.9118126105562088  0.9157781989004725  0.1867598102072291   T   T   T
  0.6680602425796126  0.9203211310291923  0.1864797370096125   T   T   T
  0.1826715433117333  0.4125426461513005  0.1849410715121186   T   T   T
  0.9090309229857365  0.6721729509865801  0.1834167838581995   T   T   T
  0.2388250242301108  0.0205060662903523  0.2507177717855373   T   T   T
  0.4859928258433606  0.2649485992019270  0.2532576945961690   T   T   T
  0.4865555971995485  0.5145717735686069  0.2518501325575615   T   T   T
  0.2402053022771773  0.2621994195875231  0.2517511324961020   T   T   T
  0.9970133062668971  0.2603143916986360  0.2547094154332093   T   T   T
  0.7580292739544207  0.2596260024338124  0.2547497719381527   T   T   T
  0.4919520541504233  0.7606796190363126  0.2521920947622625   T   T   T
  0.2434320480202365  0.7600599787968271  0.2590091902195696   T   T   T
  0.4900209936515698  0.0193246330446459  0.2470747255228956   T   T   T
  0.9935478219040190  0.0224815442654369  0.2557371469763562   T   T   T
  0.2336250283244816  0.5146169502866204  0.2561893524529815   T   T   T
  0.7430174899185135  0.5146700527756848  0.2551394691211974   T   T   T
  0.7325789044389694  0.0326586103935087  0.2540176316477706   T   T   T
  0.9860439047413394  0.7646634177745432  0.2523965259003758   T   T   T
  0.7412790396186310  0.7682782946918673  0.2552493848263492   T   T   T
  0.9934609857803454  0.5152676326890624  0.2505493514058835   T   T   T
  0.2488099890000015  0.0018900000000031  0.0530725930000031   F   F   F
  0.4986599900000002  0.2520299789999996  0.0530725930000031   F   F   F
  0.4987100749999982  0.5019500149999985  0.0530725930000031   F   F   F
  0.2486699889999997  0.2519600139999980  0.0530725930000031   F   F   F
  0.9988300199999998  0.2520000100000033  0.0530725930000031   F   F   F
  0.7487000469999998  0.2521199990000014  0.0530725930000031   F   F   F
  0.4986899749999978  0.7520999730000000  0.0530725930000031   F   F   F
  0.2487699630000009  0.7521200280000002  0.0530725930000031   F   F   F
  0.4985999800000016  0.0021100000000018  0.0530725930000031   F   F   F
  0.9987700320000030  0.0022099999999980  0.0530725930000031   F   F   F
  0.2487500120000021  0.5021200269999966  0.0530725930000031   F   F   F
  0.7486699880000032  0.5022699849999981  0.0530725930000031   F   F   F
  0.7485899979999999  0.0024500000000032  0.0530725930000031   F   F   F
  0.9987000519999967  0.7524499689999971  0.0530725930000031   F   F   F
  0.7486699279999982  0.7524300270000026  0.0530725930000031   F   F   F
  0.9986899559999998  0.5022000199999965  0.0530725930000031   F   F   F
  0.1274859318488477  0.7419660400452317  0.5849916970992348   T   T   T
  0.7887245749062750  0.6666654270682633  0.5153391208334909   T   T   T
  0.5322136594757181  0.7326803812587113  0.3649952229927981   T   T   T
  0.1135367742479837  0.0657482873144065  0.4114701816546095   T   T   T
  0.4351697908756404  0.1262047859217491  0.3615941432219539   T   T   T
  0.0817837161588908  0.4867620118981590  0.5463282866045401   T   T   T
  0.9612689223026306  0.6048770977470240  0.3728222035302559   T   T   T
  0.3094767451287982  0.4484635894271034  0.3689764027479616   T   T   T
  0.7455301028765385  0.7635963263870604  0.3174394749315729   T   T   T
  0.4241072962244927  0.6949650749242869  0.4819319504075221   T   T   T
  0.9804909380106829  0.9482471254096061  0.3609995835640698   T   T   T
  0.4018585420582622  0.1538230596023111  0.4906565045034511   T   T   T
  0.3234642918735274  0.0380616020564302  0.5551553609820393   T   T   T
  0.6583385569382009  0.4202929219941000  0.3528430926619459   T   T   T
  0.4845248561041269  0.6597710557030092  0.5684711184908294   T   T   T
  0.5023743632325317  0.4542389225581961  0.4282109179579280   T   T   T
  0.1547662620820789  0.3925845831992300  0.4588582934181487   T   T   T
  0.8100784033147153  0.3970153235936062  0.5174634742865248   T   T   T
  0.0371820052685126  0.2805311334449606  0.6121343179932351   T   T   T
  0.6582950882470939  0.1815794968635583  0.4957498566351211   T   T   T
  0.7016830496739682  0.3916306718527081  0.6009350083340763   T   T   T
  0.6643550275566915  0.8537620405355381  0.5807141857668146   T   T   T
  0.9077346616908136  0.7600040652513658  0.4438670949544462   T   T   T
  0.8030211645013092  0.0452905862017946  0.5703205092368154   T   T   T
  0.4041953065543907  0.9309224883698950  0.4418452625615499   T   T   T
  0.1241815524067393  0.7853504380122002  0.4972111867697089   T   T   T
  0.6944721077966767  0.0349662743015106  0.4126508699837033   T   T   T
  0.0576621095748762  0.0939049538662907  0.5059858413511571   T   T   T
  0.2618915790129105  0.7342882360255608  0.3309934549849264   T   T   T
  0.9704365517782814  0.3355087175798289  0.3624094262035402   T   T   T
  0.2333808214932975  0.7339661673091732  0.5876286424046987   T   T   T
  0.1534429762480152  0.6316260451601664  0.5849658940285823   T   T   T
  0.7820656512269011  0.5674675976919437  0.5118444388034972   T   T   T
  0.8341303088769533  0.6789272104147660  0.4870501709222019   T   T   T
  0.4307372539366215  0.7550510275275704  0.3523754590704602   T   T   T
  0.5950055505081416  0.6174989380879005  0.3603043756714097   T   T   T
  0.0481616755123060  0.0796557026789241  0.4383257193736210   T   T   T
  0.2271358703692831  0.0050417543471597  0.4203600188201259   T   T   T
  0.5507669689805487  0.0617404572694190  0.3704609820136288   T   T   T
  0.4329566617001697  0.1281377416360537  0.3280891301524189   T   T   T
  0.0581048046702139  0.4039423712387394  0.5595427538525117   T   T   T
  0.9717407392987413  0.5600242245118576  0.5393186621492443   T   T   T
  0.9708205115606307  0.5059781259139383  0.3798667802515998   T   T   T
  0.9307697711514985  0.6700398342238061  0.4004958681881671   T   T   T
  0.3591794468670060  0.3388853082658002  0.3589399431005426   T   T   T
  0.1965145813367229  0.4995265765387178  0.3660642483312342   T   T   T
  0.6654314961361442  0.7526423520380809  0.3340687996799871   T   T   T
  0.8422021559445041  0.6905643079467793  0.3340437863742188   T   T   T
  0.4451046619027629  0.7837662838104213  0.4696319641488497   T   T   T
  0.4577004517283704  0.6008566927539858  0.4624813426671146   T   T   T
  0.0110980641044136  0.0225070242050728  0.3725400378422575   T   T   T
  0.9214531340797711  0.0030125119940344  0.3345716080206574   T   T   T
  0.4643604121205604  0.2042431400525540  0.4915188575822380   T   T   T
  0.2995517335520122  0.2428055344722799  0.4764621348181773   T   T   T
  0.2713919188240548  0.0849174907492638  0.5814658663265673   T   T   T
  0.3512855173587003  0.0919585526676461  0.5312199530274064   T   T   T
  0.6340207206519443  0.4059987575122751  0.3239979548138773   T   T   T
  0.7691986071314716  0.3951261636636066  0.3587058371968562   T   T   T
  0.5186807926038830  0.7264346203440617  0.5803526841484405   T   T   T
  0.5014535304859311  0.6512114393069424  0.5359733134493068   T   T   T
  0.5769664029350311  0.4210377157158585  0.4050018047073291   T   T   T
  0.4182580641754224  0.4518207776373237  0.4130277266560134   T   T   T
  0.1506840937041327  0.4650471108223353  0.4379452878949793   T   T   T
  0.1121868746373755  0.4546514019060806  0.4854753099017274   T   T   T
  0.9017733839499191  0.2944613047495742  0.5128811049681907   T   T   T
  0.7823038446818315  0.3878959064822796  0.5484583414358654   T   T   T
  0.0342095004629179  0.1869789758412224  0.6009325978668223   T   T   T
  0.9244293743740715  0.3425613683152802  0.6201335744115886   T   T   T
  0.6721381675107444  0.2753894666010074  0.4906755810665875   T   T   T
  0.7216435737045855  0.1221777496614299  0.5219387081474444   T   T   T
  0.6952670407333210  0.2965325382531689  0.5994824698964423   T   T   T
  0.6024468372089505  0.4820700830500803  0.5867763831421738   T   T   T
  0.5670877631866242  0.9355509772585904  0.5674269234131868   T   T   T
  0.7178926192119199  0.7783680047346671  0.5569049684773588   T   T   T
  0.8191156780125360  0.8698932032337091  0.4394231147781046   T   T   T
  0.9837292737693931  0.7805393618741999  0.4610956276644174   T   T   T
  0.9110071704856746  0.9668467167323452  0.5771699404979997   T   T   T
  0.7374647990179545  0.9935397584103137  0.5795060992479860   T   T   T
  0.4304805008449749  0.0041032296422109  0.4545935634765146   T   T   T
  0.4664956473102166  0.8989098796270155  0.4146318905988648   T   T   T
  0.2396103574556336  0.7331674480234878  0.4899613954120105   T   T   T
  0.1185551414716495  0.7796798437460303  0.5290278883858935   T   T   T
  0.7725083405250925  0.0483589197206565  0.3924515278816347   T   T   T
  0.6455390302652668  0.1198885838471817  0.4328017693430770   T   T   T
  0.1556849487455123  0.0646985471009836  0.5226775412376465   T   T   T
  0.0443090198246217  0.9984887413233388  0.5069149545259256   T   T   T
  0.3043729231483784  0.6216190676643067  0.3403865348458821   T   T   T
  0.1577609558553355  0.7982195406192593  0.3467711578255741   T   T   T
  0.0346207760770004  0.2304217335337305  0.3778974402820116   T   T   T
  0.0197164375427190  0.3397655261246199  0.3340534024624089   T   T   T
 
 -0.68771240E-03 -0.22978252E-02 -0.31137874E-02
 -0.18283590E-03  0.63909403E-03  0.24712589E-02
  0.63775660E-03  0.18272208E-02  0.15428395E-02
  0.10663731E-02 -0.33019880E-03  0.13545031E-02
 -0.64342350E-03 -0.14757785E-02 -0.28599210E-02
 -0.82573138E-03  0.34345135E-02 -0.21733869E-03
 -0.99559356E-03 -0.70240076E-03 -0.24258285E-02
 -0.19514009E-03  0.15579735E-02 -0.43867897E-02
 -0.14304537E-02  0.25899526E-02 -0.35082378E-02
  0.18347891E-02 -0.24839310E-02  0.13839587E-02
 -0.25953163E-02  0.80279470E-03 -0.20018788E-02
  0.11909075E-02  0.24382183E-02  0.13075490E-02
 -0.83556297E-03  0.21255869E-02  0.71996121E-03
 -0.22220091E-03  0.13416044E-02 -0.65890581E-03
 -0.10495249E-02  0.15747984E-02 -0.21030399E-02
 -0.33323646E-02 -0.47404514E-03  0.41120001E-02
 -0.13595204E-02  0.20277098E-02  0.14400596E-02
  0.22854887E-02 -0.18461611E-02  0.35521274E-03
  0.71535020E-03 -0.11979842E-02  0.24625350E-02
 -0.14518687E-02  0.33953612E-03 -0.83541332E-03
 -0.15073382E-02  0.10683496E-02  0.68241976E-03
  0.75957845E-03 -0.18256303E-02  0.67757858E-03
 -0.12549630E-03 -0.20262945E-02  0.13085858E-02
  0.13328888E-03  0.28641122E-02  0.39992231E-02
 -0.48521278E-02 -0.14143104E-02  0.31603175E-02
 -0.68826781E-03 -0.16592973E-02  0.14842408E-03
 -0.18458663E-02 -0.13016757E-02 -0.16999436E-02
  0.38593089E-02 -0.30408970E-02  0.15494884E-02
 -0.24286851E-02  0.16681087E-02 -0.14913805E-02
  0.10916678E-02 -0.15565389E-02 -0.81815069E-03
 -0.22604361E-02  0.89416504E-03 -0.27075504E-02
 -0.27216181E-02 -0.37985486E-02 -0.86105944E-03
  0.13943632E-02  0.28081917E-02  0.58077435E-03
  0.36520157E-03  0.94913795E-03 -0.12794769E-02
  0.13005331E-02 -0.21254196E-02  0.46537854E-04
 -0.12848188E-02  0.12903159E-02 -0.51937955E-03
  0.99139301E-03 -0.21852291E-02 -0.16524467E-02
  0.16992838E-02 -0.30087183E-03 -0.24910981E-03
 -0.44008140E-03  0.12007752E-02 -0.12590179E-02
 -0.10006591E-02  0.17208439E-02 -0.83436736E-03
 -0.27440916E-02 -0.37425128E-02 -0.20449366E-03
  0.37266276E-02  0.19137926E-03 -0.19143543E-02
  0.12147666E-02  0.16370209E-02 -0.24556382E-02
  0.50858878E-02 -0.25038331E-02 -0.28321850E-03
 -0.10588719E-02  0.21101505E-02  0.15426105E-02
 -0.17397746E-02 -0.13135032E-02  0.35551950E-02
  0.35898341E-02  0.12986519E-02  0.66767154E-03
 -0.11107694E-02 -0.96898927E-03  0.92957274E-03
  0.00000000E+00  0.00000000E+00  0.00000000E+00
  0.00000000E+00  0.00000000E+00  0.00000000E+00
  0.00000000E+00  0.00000000E+00  0.00000000E+00
  0.00000000E+00  0.00000000E+00  0.00000000E+00
  0.00000000E+00  0.00000000E+00  0.00000000E+00
  0.00000000E+00  0.00000000E+00  0.00000000E+00
  0.00000000E+00  0.00000000E+00  0.00000000E+00
  0.00000000E+00  0.00000000E+00  0.00000000E+00
  0.00000000E+00  0.00000000E+00  0.00000000E+00
  0.00000000E+00  0.00000000E+00  0.00000000E+00
  0.00000000E+00  0.00000000E+00  0.00000000E+00
  0.00000000E+00  0.00000000E+00  0.00000000E+00
  0.00000000E+00  0.00000000E+00  0.00000000E+00
  0.00000000E+00  0.00000000E+00  0.00000000E+00
  0.00000000E+00  0.00000000E+00  0.00000000E+00
  0.00000000E+00  0.00000000E+00  0.00000000E+00
 -0.70063148E-02 -0.56129944E-02  0.17351725E-02
 -0.48462420E-02 -0.58341897E-03 -0.35057047E-02
 -0.55271600E-03 -0.17613941E-02  0.89222133E-02
 -0.18787401E-02  0.74826679E-02  0.18087650E-02
  0.34306065E-02 -0.14065122E-02  0.25748685E-03
  0.59177054E-02  0.22437756E-02 -0.31479704E-02
 -0.25234933E-02 -0.60395704E-02 -0.34142430E-02
  0.46328370E-02 -0.12388145E-02  0.94295520E-03
  0.15954551E-02 -0.44929884E-02  0.17355304E-02
 -0.31431563E-02  0.52024584E-03  0.18203164E-03
 -0.57363013E-02 -0.35611127E-02 -0.44171481E-03
  0.25374566E-02  0.59278792E-03 -0.34653714E-02
 -0.85294059E-03  0.12988610E-02 -0.17640679E-02
  0.19420502E-02  0.18789528E-02 -0.32569695E-02
  0.85578519E-03 -0.40148534E-02  0.37824224E-02
  0.40637474E-02  0.99669301E-02  0.73074446E-02
 -0.28838166E-02 -0.11622017E-02 -0.10219937E-01
 -0.46305415E-02 -0.30533675E-02 -0.16204583E-02
 -0.62324594E-02  0.19661139E-02 -0.38346558E-02
  0.14028921E-02 -0.35279607E-02 -0.30508362E-02
  0.36937902E-04  0.35997550E-02 -0.34631949E-02
 -0.46891404E-02  0.47433228E-02 -0.18833920E-02
  0.41526109E-02  0.38396114E-02 -0.19523418E-02
  0.23835403E-02  0.64470904E-02 -0.29780890E-03
 -0.62336638E-02  0.39218464E-02 -0.44547311E-02
  0.81907639E-02  0.41362773E-02 -0.24034621E-02
  0.15972325E-02 -0.72554938E-03 -0.10242393E-01
  0.38070236E-02 -0.18911751E-03  0.64619261E-03
  0.22928351E-02  0.10934441E-02  0.63970181E-03
  0.51917784E-03 -0.33934216E-02 -0.67616948E-02
  0.44716727E-02  0.44031195E-03 -0.12376749E-01
  0.17691829E-01 -0.54606064E-02  0.78888637E-03
 -0.27606382E-01  0.11645368E-01 -0.20715636E-01
 -0.30738152E-02  0.47102910E-03  0.16595135E-01
 -0.65787885E-02 -0.48890462E-02 -0.30085416E-01
  0.16039425E-01  0.22764851E-01  0.54593425E-02
  0.18785534E-01 -0.18374860E-01  0.36960033E-01
 -0.23976010E-01  0.20865835E-02 -0.15978245E-01
  0.26751141E-02  0.95154484E-02  0.13102880E-01
 -0.11914503E-01 -0.82500286E-02 -0.15995096E-01
 -0.15910180E-01 -0.17425060E-01 -0.16944704E-02
 -0.17722131E-01 -0.60526499E-02 -0.68967008E-04
 -0.52410656E-02  0.13355173E-01 -0.41526035E-02
 -0.31251306E-01  0.12090478E-01 -0.10062839E-01
  0.21278664E-01  0.25677656E-03  0.43296674E-02
 -0.13504066E-01  0.18221110E-01  0.18604931E-02
  0.87342158E-02 -0.21388957E-01  0.15309400E-01
 -0.60949395E-02 -0.23431988E-01  0.85575429E-02
 -0.10464046E-01  0.34181825E-01 -0.61594263E-02
 -0.94627488E-02 -0.11716412E-01 -0.12251572E-01
 -0.16002657E-01  0.30275376E-02 -0.32790323E-02
  0.19227384E-01  0.15661387E-01  0.20730394E-02
 -0.66967459E-02 -0.81024115E-03 -0.26690525E-02
 -0.11193290E-01 -0.12064023E-01  0.74057600E-02
 -0.67649774E-02 -0.16595266E-01  0.91739568E-02
 -0.46188920E-02  0.33085084E-02 -0.26351621E-02
  0.42247809E-02  0.94449754E-02  0.34452623E-01
 -0.13195150E-01  0.14988409E-01  0.24058992E-02
  0.64958218E-02  0.41640908E-01 -0.23112719E-01
 -0.69385076E-02 -0.16156978E-01 -0.24131190E-01
 -0.21351567E-01 -0.12582692E-01  0.14315336E-01
  0.28871016E-01  0.17338915E-01 -0.15289741E-01
 -0.38806390E-01 -0.10887159E-01  0.48568082E-02
 -0.84925719E-02 -0.15359712E-01  0.18432643E-01
 -0.63327707E-02  0.30252851E-01 -0.60402148E-02
  0.41888230E-02 -0.28513900E-03  0.17700233E-03
  0.11384959E-01  0.64168254E-02  0.47971423E-02
 -0.44578441E-02  0.18171334E-02  0.14204900E-01
  0.21469554E-01  0.33315423E-01  0.12251638E-01
 -0.18179606E-03 -0.25559717E-01 -0.14057377E-01
 -0.65786456E-02  0.75692568E-02 -0.10925390E-01
 -0.17106966E-01  0.23184895E-01  0.25925037E-01
  0.40261794E-02 -0.12270713E-02 -0.10897627E-01
  0.80218150E-03  0.37722762E-01  0.15445379E-01
 -0.42826984E-02 -0.16094926E-01  0.10831953E-01
 -0.22367841E-01 -0.34043591E-02  0.81352991E-02
 -0.30719648E-02  0.18524732E-01 -0.28244791E-01
 -0.89898655E-02  0.78473917E-03 -0.16945746E-01
  0.10525320E-01  0.59773669E-03  0.16820877E-02
 -0.10201397E-01  0.32561765E-01 -0.21542833E-01
 -0.58773203E-02 -0.36053593E-02  0.39517920E-02
  0.12515783E-01  0.11514654E-01  0.45579184E-01
 -0.11061026E-01  0.18474592E-01  0.20206500E-01
 -0.10786925E-01 -0.28222929E-01 -0.33432106E-02
 -0.95335550E-04  0.23703404E-01  0.18210585E-01
 -0.79709732E-02 -0.16668172E-01 -0.23145309E-02
 -0.18094603E-01  0.37727051E-02 -0.17061994E-01
  0.19197530E-01  0.22607641E-02  0.21341542E-01
  0.10604207E-01  0.19695446E-01  0.55582235E-02
  0.80192839E-02  0.33071609E-03 -0.90043078E-02
 
           1
   1.00000000000000     
 -0.50711429E-01 -0.12146996E-01 -0.11701492E-01 -0.38787185E-01
  0.71758443E-01  0.81447384E-01  0.12311024E+00
  0.32122801E+00  0.93665088E-01  0.11722849E+00
  0.33376493E+00  0.83013882E+00  0.11904922E+00
  0.57118685E+00  0.34417156E+00  0.11748389E+00
  0.33529897E+00  0.57926486E+00  0.11947790E+00
  0.32804097E+00  0.33326233E+00  0.11784899E+00
  0.82589928E+00  0.89223076E-01  0.11869244E+00
  0.57615587E+00  0.83102501E-01  0.11828712E+00
  0.83310037E+00  0.32615446E+00  0.12036135E+00
  0.57297592E+00  0.59257363E+00  0.11920315E+00
  0.82945111E-01  0.83344978E+00  0.12144430E+00
  0.58762985E+00  0.83315303E+00  0.11994867E+00
  0.71174530E-01  0.34737201E+00  0.11904053E+00
  0.82173678E+00  0.58847240E+00  0.11899870E+00
  0.71163666E-01  0.59227271E+00  0.12028688E+00
  0.82765935E+00  0.83703129E+00  0.12167747E+00
  0.15684275E+00  0.18132316E+00  0.18749411E+00
  0.16234983E+00  0.92831593E+00  0.18838115E+00
  0.43025069E+00  0.16554589E+00  0.18698709E+00
  0.41081211E+00  0.93097424E+00  0.18115470E+00
  0.41691888E+00  0.41667250E+00  0.18738437E+00
  0.42070458E+00  0.67920422E+00  0.18966697E+00
  0.91480400E+00  0.16833457E+00  0.18539583E+00
  0.66793645E+00  0.18780841E+00  0.18776870E+00
  0.66379223E+00  0.42397685E+00  0.18505906E+00
  0.17851330E+00  0.65756429E+00  0.18659295E+00
  0.91114455E+00  0.42840097E+00  0.18525409E+00
  0.66689154E+00  0.66939187E+00  0.18418065E+00
  0.91181261E+00  0.91577820E+00  0.18675981E+00
  0.66806024E+00  0.92032113E+00  0.18647974E+00
  0.18267154E+00  0.41254265E+00  0.18494107E+00
  0.90903092E+00  0.67217295E+00  0.18341678E+00
  0.23882502E+00  0.20506066E-01  0.25071777E+00
  0.48599283E+00  0.26494860E+00  0.25325769E+00
  0.48655560E+00  0.51457177E+00  0.25185013E+00
  0.24020530E+00  0.26219942E+00  0.25175113E+00
  0.99701331E+00  0.26031439E+00  0.25470942E+00
  0.75802927E+00  0.25962600E+00  0.25474977E+00
  0.49195205E+00  0.76067962E+00  0.25219209E+00
  0.24343205E+00  0.76005998E+00  0.25900919E+00
  0.49002099E+00  0.19324633E-01  0.24707473E+00
  0.99354782E+00  0.22481544E-01  0.25573715E+00
  0.23362503E+00  0.51461695E+00  0.25618935E+00
  0.74301749E+00  0.51467005E+00  0.25513947E+00
  0.73257890E+00  0.32658610E-01  0.25401763E+00
  0.98604390E+00  0.76466342E+00  0.25239653E+00
  0.74127904E+00  0.76827829E+00  0.25524938E+00
  0.99346099E+00  0.51526763E+00  0.25054935E+00
  0.24880999E+00  0.18900000E-02  0.53072593E-01
  0.49865999E+00  0.25202998E+00  0.53072593E-01
  0.49871007E+00  0.50195001E+00  0.53072593E-01
  0.24866999E+00  0.25196001E+00  0.53072593E-01
  0.99883002E+00  0.25200001E+00  0.53072593E-01
  0.74870005E+00  0.25212000E+00  0.53072593E-01
  0.49868997E+00  0.75209997E+00  0.53072593E-01
  0.24876996E+00  0.75212003E+00  0.53072593E-01
  0.49859998E+00  0.21100000E-02  0.53072593E-01
  0.99877003E+00  0.22100000E-02  0.53072593E-01
  0.24875001E+00  0.50212003E+00  0.53072593E-01
  0.74866999E+00  0.50226998E+00  0.53072593E-01
  0.74859000E+00  0.24500000E-02  0.53072593E-01
  0.99870005E+00  0.75244997E+00  0.53072593E-01
  0.74866993E+00  0.75243003E+00  0.53072593E-01
  0.99868996E+00  0.50220002E+00  0.53072593E-01
  0.12748593E+00  0.74196604E+00  0.58499170E+00
  0.78872457E+00  0.66666543E+00  0.51533912E+00
  0.53221366E+00  0.73268038E+00  0.36499522E+00
  0.11353677E+00  0.65748287E-01  0.41147018E+00
  0.43516979E+00  0.12620479E+00  0.36159414E+00
  0.81783716E-01  0.48676201E+00  0.54632829E+00
  0.96126892E+00  0.60487710E+00  0.37282220E+00
  0.30947675E+00  0.44846359E+00  0.36897640E+00
  0.74553010E+00  0.76359633E+00  0.31743947E+00
  0.42410730E+00  0.69496507E+00  0.48193195E+00
  0.98049094E+00  0.94824713E+00  0.36099958E+00
  0.40185854E+00  0.15382306E+00  0.49065650E+00
  0.32346429E+00  0.38061602E-01  0.55515536E+00
  0.65833856E+00  0.42029292E+00  0.35284309E+00
  0.48452486E+00  0.65977106E+00  0.56847112E+00
  0.50237436E+00  0.45423892E+00  0.42821092E+00
  0.15476626E+00  0.39258458E+00  0.45885829E+00
  0.81007840E+00  0.39701532E+00  0.51746347E+00
  0.37182005E-01  0.28053113E+00  0.61213432E+00
  0.65829509E+00  0.18157950E+00  0.49574986E+00
  0.70168305E+00  0.39163067E+00  0.60093501E+00
  0.66435503E+00  0.85376204E+00  0.58071419E+00
  0.90773466E+00  0.76000407E+00  0.44386709E+00
  0.80302116E+00  0.45290586E-01  0.57032051E+00
  0.40419531E+00  0.93092249E+00  0.44184526E+00
  0.12418155E+00  0.78535044E+00  0.49721119E+00
  0.69447211E+00  0.34966274E-01  0.41265087E+00
  0.57662110E-01  0.93904954E-01  0.50598584E+00
  0.26189158E+00  0.73428824E+00  0.33099345E+00
  0.97043655E+00  0.33550872E+00  0.36240943E+00
  0.23338082E+00  0.73396617E+00  0.58762864E+00
  0.15344298E+00  0.63162605E+00  0.58496589E+00
  0.78206565E+00  0.56746760E+00  0.51184444E+00
  0.83413031E+00  0.67892721E+00  0.48705017E+00
  0.43073725E+00  0.75505103E+00  0.35237546E+00
  0.59500555E+00  0.61749894E+00  0.36030438E+00
  0.48161676E-01  0.79655703E-01  0.43832572E+00
  0.22713587E+00  0.50417543E-02  0.42036002E+00
  0.55076697E+00  0.61740457E-01  0.37046098E+00
  0.43295666E+00  0.12813774E+00  0.32808913E+00
  0.58104805E-01  0.40394237E+00  0.55954275E+00
  0.97174074E+00  0.56002422E+00  0.53931866E+00
  0.97082051E+00  0.50597813E+00  0.37986678E+00
  0.93076977E+00  0.67003983E+00  0.40049587E+00
  0.35917945E+00  0.33888531E+00  0.35893994E+00
  0.19651458E+00  0.49952658E+00  0.36606425E+00
  0.66543150E+00  0.75264235E+00  0.33406880E+00
  0.84220216E+00  0.69056431E+00  0.33404379E+00
  0.44510466E+00  0.78376628E+00  0.46963196E+00
  0.45770045E+00  0.60085669E+00  0.46248134E+00
  0.11098064E-01  0.22507024E-01  0.37254004E+00
  0.92145313E+00  0.30125120E-02  0.33457161E+00
  0.46436041E+00  0.20424314E+00  0.49151886E+00
  0.29955173E+00  0.24280553E+00  0.47646213E+00
  0.27139192E+00  0.84917491E-01  0.58146587E+00
  0.35128552E+00  0.91958553E-01  0.53121995E+00
  0.63402072E+00  0.40599876E+00  0.32399795E+00
  0.76919861E+00  0.39512616E+00  0.35870584E+00
  0.51868079E+00  0.72643462E+00  0.58035268E+00
  0.50145353E+00  0.65121144E+00  0.53597331E+00
  0.57696640E+00  0.42103772E+00  0.40500180E+00
  0.41825806E+00  0.45182078E+00  0.41302773E+00
  0.15068409E+00  0.46504711E+00  0.43794529E+00
  0.11218687E+00  0.45465140E+00  0.48547531E+00
  0.90177338E+00  0.29446130E+00  0.51288110E+00
  0.78230384E+00  0.38789591E+00  0.54845834E+00
  0.34209500E-01  0.18697898E+00  0.60093260E+00
  0.92442937E+00  0.34256137E+00  0.62013357E+00
  0.67213817E+00  0.27538947E+00  0.49067558E+00
  0.72164357E+00  0.12217775E+00  0.52193871E+00
  0.69526704E+00  0.29653254E+00  0.59948247E+00
  0.60244684E+00  0.48207008E+00  0.58677638E+00
  0.56708776E+00  0.93555098E+00  0.56742692E+00
  0.71789262E+00  0.77836800E+00  0.55690497E+00
  0.81911568E+00  0.86989320E+00  0.43942311E+00
  0.98372927E+00  0.78053936E+00  0.46109563E+00
  0.91100717E+00  0.96684672E+00  0.57716994E+00
  0.73746480E+00  0.99353976E+00  0.57950610E+00
  0.43048050E+00  0.41032296E-02  0.45459356E+00
  0.46649565E+00  0.89890988E+00  0.41463189E+00
  0.23961036E+00  0.73316745E+00  0.48996140E+00
  0.11855514E+00  0.77967984E+00  0.52902789E+00
  0.77250834E+00  0.48358920E-01  0.39245153E+00
  0.64553903E+00  0.11988858E+00  0.43280177E+00
  0.15568495E+00  0.64698547E-01  0.52267754E+00
  0.44309020E-01  0.99848874E+00  0.50691495E+00
  0.30437292E+00  0.62161907E+00  0.34038653E+00
  0.15776096E+00  0.79821954E+00  0.34677116E+00
  0.34620776E-01  0.23042173E+00  0.37789744E+00
  0.19716438E-01  0.33976553E+00  0.33405340E+00
  0.00000000E+00  0.00000000E+00  0.00000000E+00
  0.00000000E+00  0.00000000E+00  0.00000000E+00
  0.00000000E+00  0.00000000E+00  0.00000000E+00
  0.00000000E+00  0.00000000E+00  0.00000000E+00
  0.00000000E+00  0.00000000E+00  0.00000000E+00
  0.00000000E+00  0.00000000E+00  0.00000000E+00
  0.00000000E+00  0.00000000E+00  0.00000000E+00
  0.00000000E+00  0.00000000E+00  0.00000000E+00
  0.00000000E+00  0.00000000E+00  0.00000000E+00
  0.00000000E+00  0.00000000E+00  0.00000000E+00
  0.00000000E+00  0.00000000E+00  0.00000000E+00
  0.00000000E+00  0.00000000E+00  0.00000000E+00
  0.00000000E+00  0.00000000E+00  0.00000000E+00
  0.00000000E+00  0.00000000E+00  0.00000000E+00
  0.00000000E+00  0.00000000E+00  0.00000000E+00
  0.00000000E+00  0.00000000E+00  0.00000000E+00
  0.00000000E+00  0.00000000E+00  0.00000000E+00
  0.00000000E+00  0.00000000E+00  0.00000000E+00
  0.00000000E+00  0.00000000E+00  0.00000000E+00
  0.00000000E+00  0.00000000E+00  0.00000000E+00
  0.00000000E+00  0.00000000E+00  0.00000000E+00
  0.00000000E+00  0.00000000E+00  0.00000000E+00
  0.00000000E+00  0.00000000E+00  0.00000000E+00
  0.00000000E+00  0.00000000E+00  0.00000000E+00
  0.00000000E+00  0.00000000E+00  0.00000000E+00
  0.00000000E+00  0.00000000E+00  0.00000000E+00
  0.00000000E+00  0.00000000E+00  0.00000000E+00
  0.00000000E+00  0.00000000E+00  0.00000000E+00
  0.00000000E+00  0.00000000E+00  0.00000000E+00
  0.00000000E+00  0.00000000E+00  0.00000000E+00
  0.00000000E+00  0.00000000E+00  0.00000000E+00
  0.00000000E+00  0.00000000E+00  0.00000000E+00
  0.00000000E+00  0.00000000E+00  0.00000000E+00
  0.00000000E+00  0.00000000E+00  0.00000000E+00
  0.00000000E+00  0.00000000E+00  0.00000000E+00
  0.00000000E+00  0.00000000E+00  0.00000000E+00
  0.00000000E+00  0.00000000E+00  0.00000000E+00
  0.00000000E+00  0.00000000E+00  0.00000000E+00
  0.00000000E+00  0.00000000E+00  0.00000000E+00
  0.00000000E+00  0.00000000E+00  0.00000000E+00
  0.00000000E+00  0.00000000E+00  0.00000000E+00
  0.00000000E+00  0.00000000E+00  0.00000000E+00
  0.00000000E+00  0.00000000E+00  0.00000000E+00
  0.00000000E+00  0.00000000E+00  0.00000000E+00
  0.00000000E+00  0.00000000E+00  0.00000000E+00
  0.00000000E+00  0.00000000E+00  0.00000000E+00
  0.00000000E+00  0.00000000E+00  0.00000000E+00
  0.00000000E+00  0.00000000E+00  0.00000000E+00
  0.00000000E+00  0.00000000E+00  0.00000000E+00
  0.00000000E+00  0.00000000E+00  0.00000000E+00
  0.00000000E+00  0.00000000E+00  0.00000000E+00
  0.00000000E+00  0.00000000E+00  0.00000000E+00
  0.00000000E+00  0.00000000E+00  0.00000000E+00
  0.00000000E+00  0.00000000E+00  0.00000000E+00
  0.00000000E+00  0.00000000E+00  0.00000000E+00
  0.00000000E+00  0.00000000E+00  0.00000000E+00
  0.00000000E+00  0.00000000E+00  0.00000000E+00
  0.00000000E+00  0.00000000E+00  0.00000000E+00
  0.00000000E+00  0.00000000E+00  0.00000000E+00
  0.00000000E+00  0.00000000E+00  0.00000000E+00
  0.00000000E+00  0.00000000E+00  0.00000000E+00
  0.00000000E+00  0.00000000E+00  0.00000000E+00
  0.00000000E+00  0.00000000E+00  0.00000000E+00
  0.00000000E+00  0.00000000E+00  0.00000000E+00
  0.00000000E+00  0.00000000E+00  0.00000000E+00