 Ni\(1\1\1)                             
   1.00000000000000     
     9.8291997910000006    0.0000000000000000    0.0000000000000000
     4.9145998955000003    8.5123367178000002    0.0000000000000000
     0.0000000000000000    0.0000000000000000   19.0128002167000005
   Ni   O    C    O    C    H 
    64     3     1     1     1     1
Selective dynamics
Direct
  0.8335309966454582  0.5842171225139572  0.2712936496976603   T   T   T
  0.3332129373598726  0.0835194053926035  0.2696125414391886   T   T   T
  0.8333764328991901  0.0842828258178995  0.2703174752714135   T   T   T
  0.3336956112059851  0.5843769757144582  0.2706107075437736   T   T   T
  0.5839725503652247  0.8341337707983163  0.2708337957625835   T   T   T
  0.8334133076137664  0.8344236377108424  0.2706445021287583   T   T   T
  0.0833339638638922  0.3344519363591480  0.2710955261330829   T   T   T
  0.8325321742578567  0.3343039868172574  0.2716622580644690   T   T   T
  0.5840516412523772  0.5828971163874337  0.2719799204424846   T   T   T
  0.0834177055709099  0.5840902601563005  0.2709845100695441   T   T   T
  0.0826531445622570  0.0855243569728993  0.2700700565034372   T   T   T
  0.5830409760990597  0.0842447792873956  0.2716543811722512   T   T   T
  0.3346942012525849  0.8337454226873819  0.2700829411385687   T   T   T
  0.0832683115750181  0.8343685157881323  0.2701740561168181   T   T   T
  0.3335020661437232  0.3340791222903916  0.2715635084107905   T   T   T
  0.5833059775638146  0.3338950556666522  0.2721433581182344   T   T   T
  0.9173100545269040  0.6666748095790724  0.3756743474309400   T   T   T
  0.9165937720430557  0.4170020202643120  0.3755718883918868   T   T   T
  0.6679071480421802  0.6658193706006381  0.3758281589524478   T   T   T
  0.1666561056004688  0.1679000155367256  0.3758214660194973   T   T   T
  0.9167938227213979  0.1674363390197149  0.3763908802604566   T   T   T
  0.9176379726343581  0.9176596683649647  0.3752086076203207   T   T   T
  0.4176051148970629  0.9169911039143001  0.3754809511387954   T   T   T
  0.4159745196925362  0.1667420714893973  0.3760279845509864   T   T   T
  0.6683470068549681  0.1662845744927065  0.3766115779688956   T   T   T
  0.1672111628434969  0.6679363809538849  0.3752947765495758   T   T   T
  0.4173960880500012  0.6665494641713757  0.3762989354680038   T   T   T
  0.4158927102768346  0.4184741212703372  0.3768409883520086   T   T   T
  0.6666049601465697  0.9184485119007322  0.3777742547813790   T   T   T
  0.1678672207370153  0.4166918914280610  0.3781212487882271   T   T   T
  0.6661321404731277  0.4156663653638617  0.3806538698351902   T   T   T
  0.1678414706487955  0.9184065427748493  0.3760535502176792   T   T   T
 -0.0016604478968320  0.2551632237126673  0.4830942326246748   T   T   T
  0.5007111316575646  0.2500602544461696  0.4826991181356959   T   T   T
  0.9976873995002992  0.7473665100967918  0.4794929288709238   T   T   T
  0.5059295609227591  0.7471517425666394  0.4796542352645685   T   T   T
  0.7492002029191732  0.7511192382057283  0.4804132855270336   T   T   T
  0.9988064046447543  0.5012549126066806  0.4839516231735758   T   T   T
  0.7513205589549217  0.5021239215958255  0.4852680221842058   T   T   T
  0.2502828779673372  0.0001307016101295  0.4838946309792195   T   T   T
  0.0083822786534122  0.9978830344489640  0.4820439697236009   T   T   T
  0.5051093175588596  0.9975620969800878  0.4857105922372721   T   T   T
  0.2479983615059686  0.7583571972284461  0.4822217885430197   T   T   T
  0.7524629269762360  0.9932999691421757  0.4859704312013265   T   T   T
  0.2519062633925180  0.2530669075325293  0.4851978059286971   T   T   T
  0.7522088919472016  0.2474508861388734  0.4933190943396962   T   T   T
  0.2434618431736504  0.5028184137942397  0.4860910322065647   T   T   T
  0.4992826902276938  0.5030269185332557  0.4935251820736785   T   T   T
  0.9970724670000024  0.2558556729999992  0.1637003960000030   F   F   F
  0.4999617989999976  0.2500875830000027  0.1643123180000003   F   F   F
  0.9968841629999972  0.7476992069999966  0.1643590660000029   F   F   F
  0.5054474789999972  0.7476858750000019  0.1651548480000002   F   F   F
  0.7507219769999978  0.7486395119999969  0.1651830500000031   F   F   F
  0.9979410790000003  0.5014025589999989  0.1651978470000017   F   F   F
  0.7507272960000009  0.5014379059999996  0.1654730480000026   F   F   F
  0.2484077359999972  0.9989653640000000  0.1655050250000016   F   F   F
  0.0026835399999996  0.9989392600000002  0.1655775309999967   F   F   F
  0.5037179199999997  0.9979203070000011  0.1655856309999990   F   F   F
  0.2483221529999966  0.7533767729999994  0.1658259459999982   F   F   F
  0.7484137009999969  0.9978805350000002  0.1658943890000018   F   F   F
  0.2473094730000014  0.2543786680000011  0.1660089160000027   F   F   F
  0.7483561820000020  0.2543461500000035  0.1660180820000008   F   F   F
  0.2472921950000000  0.4989472700000022  0.1662971330000005   F   F   F
  0.5037960519999984  0.4989156760000029  0.1664085250000014   F   F   F
  0.3348088445913835  0.0827354481169313  0.5443807161520586   T   T   T
  0.8529966406910006  0.0604286761320098  0.5456680621955172   T   T   T
  0.3125838572073281  0.6020403200377553  0.5457227973903632   T   T   T
  0.9172149920713991  0.4200209875187261  0.5548316948940520   T   T   T
  0.9203289576975259  0.4141878407534095  0.6174536932784587   T   T   T
  0.5769982311063695  0.3275305054098551  0.5482314717673683   T   T   T
  0.5683453585694658  0.3185263732754843  0.6055869830862810   T   T   T
 
  0.00000000E+00  0.00000000E+00  0.00000000E+00
  0.00000000E+00  0.00000000E+00  0.00000000E+00
  0.00000000E+00  0.00000000E+00  0.00000000E+00
  0.00000000E+00  0.00000000E+00  0.00000000E+00
  0.00000000E+00  0.00000000E+00  0.00000000E+00
  0.00000000E+00  0.00000000E+00  0.00000000E+00
  0.00000000E+00  0.00000000E+00  0.00000000E+00
  0.00000000E+00  0.00000000E+00  0.00000000E+00
  0.00000000E+00  0.00000000E+00  0.00000000E+00
  0.00000000E+00  0.00000000E+00  0.00000000E+00
  0.00000000E+00  0.00000000E+00  0.00000000E+00
  0.00000000E+00  0.00000000E+00  0.00000000E+00
  0.00000000E+00  0.00000000E+00  0.00000000E+00
  0.00000000E+00  0.00000000E+00  0.00000000E+00
  0.00000000E+00  0.00000000E+00  0.00000000E+00
  0.00000000E+00  0.00000000E+00  0.00000000E+00
  0.00000000E+00  0.00000000E+00  0.00000000E+00
  0.00000000E+00  0.00000000E+00  0.00000000E+00
  0.00000000E+00  0.00000000E+00  0.00000000E+00
  0.00000000E+00  0.00000000E+00  0.00000000E+00
  0.00000000E+00  0.00000000E+00  0.00000000E+00
  0.00000000E+00  0.00000000E+00  0.00000000E+00
  0.00000000E+00  0.00000000E+00  0.00000000E+00
  0.00000000E+00  0.00000000E+00  0.00000000E+00
  0.00000000E+00  0.00000000E+00  0.00000000E+00
  0.00000000E+00  0.00000000E+00  0.00000000E+00
  0.00000000E+00  0.00000000E+00  0.00000000E+00
  0.00000000E+00  0.00000000E+00  0.00000000E+00
  0.00000000E+00  0.00000000E+00  0.00000000E+00
  0.00000000E+00  0.00000000E+00  0.00000000E+00
  0.00000000E+00  0.00000000E+00  0.00000000E+00
  0.00000000E+00  0.00000000E+00  0.00000000E+00
  0.00000000E+00  0.00000000E+00  0.00000000E+00
  0.00000000E+00  0.00000000E+00  0.00000000E+00
  0.00000000E+00  0.00000000E+00  0.00000000E+00
  0.00000000E+00  0.00000000E+00  0.00000000E+00
  0.00000000E+00  0.00000000E+00  0.00000000E+00
  0.00000000E+00  0.00000000E+00  0.00000000E+00
  0.00000000E+00  0.00000000E+00  0.00000000E+00
  0.00000000E+00  0.00000000E+00  0.00000000E+00
  0.00000000E+00  0.00000000E+00  0.00000000E+00
  0.00000000E+00  0.00000000E+00  0.00000000E+00
  0.00000000E+00  0.00000000E+00  0.00000000E+00
  0.00000000E+00  0.00000000E+00  0.00000000E+00
  0.00000000E+00  0.00000000E+00  0.00000000E+00
  0.00000000E+00  0.00000000E+00  0.00000000E+00
  0.00000000E+00  0.00000000E+00  0.00000000E+00
  0.00000000E+00  0.00000000E+00  0.00000000E+00
  0.00000000E+00  0.00000000E+00  0.00000000E+00
  0.00000000E+00  0.00000000E+00  0.00000000E+00
  0.00000000E+00  0.00000000E+00  0.00000000E+00
  0.00000000E+00  0.00000000E+00  0.00000000E+00
  0.00000000E+00  0.00000000E+00  0.00000000E+00
  0.00000000E+00  0.00000000E+00  0.00000000E+00
  0.00000000E+00  0.00000000E+00  0.00000000E+00
  0.00000000E+00  0.00000000E+00  0.00000000E+00
  0.00000000E+00  0.00000000E+00  0.00000000E+00
  0.00000000E+00  0.00000000E+00  0.00000000E+00
  0.00000000E+00  0.00000000E+00  0.00000000E+00
  0.00000000E+00  0.00000000E+00  0.00000000E+00
  0.00000000E+00  0.00000000E+00  0.00000000E+00
  0.00000000E+00  0.00000000E+00  0.00000000E+00
  0.00000000E+00  0.00000000E+00  0.00000000E+00
  0.00000000E+00  0.00000000E+00  0.00000000E+00
  0.00000000E+00  0.00000000E+00  0.00000000E+00
  0.00000000E+00  0.00000000E+00  0.00000000E+00
  0.00000000E+00  0.00000000E+00  0.00000000E+00
  0.00000000E+00  0.00000000E+00  0.00000000E+00
  0.00000000E+00  0.00000000E+00  0.00000000E+00
  0.00000000E+00  0.00000000E+00  0.00000000E+00
  0.00000000E+00  0.00000000E+00  0.00000000E+00
