 Ni_O                                   
   1.00000000000000     
     9.8292000000000002    0.0000000000000000    0.0000000000000000
     4.9146000000000001    8.5123370000000005    0.0000000000000000
     0.0000000000000000    0.0000000000000000   33.0128020000000006
   Ni   O    H    C 
    64    35    62     2
Selective dynamics
Direct
  0.8161304599999966  0.5889720300000008  0.1200248399999992   F   F   F
  0.3267620199999968  0.0893950099999969  0.1211907300000021   F   F   F
  0.8281435399999992  0.0930463300000000  0.1197676299999983   F   F   F
  0.3295063099999993  0.5878229699999977  0.1215391799999992   F   F   F
  0.5760458099999965  0.8344787999999994  0.1202235299999970   F   F   F
  0.8191150399999998  0.8479825300000030  0.1227014700000026   F   F   F
  0.0724901800000026  0.3403221100000025  0.1244834100000034   F   F   F
  0.8360156999999973  0.3349392399999971  0.1203170300000025   F   F   F
  0.5719467400000013  0.5928171899999981  0.1215288300000026   F   F   F
  0.0639449900000031  0.5965508800000023  0.1207646699999998   F   F   F
  0.0879175800000027  0.0802031899999989  0.1190218400000020   F   F   F
  0.5738104599999971  0.0977474800000024  0.1218458600000005   F   F   F
  0.3280706099999975  0.8348992499999994  0.1225252200000000   F   F   F
  0.0801046300000010  0.8404303200000030  0.1228029800000030   F   F   F
  0.3222068800000031  0.3505104500000016  0.1209987599999991   F   F   F
  0.5919944600000022  0.3370575900000006  0.1200636499999987   F   F   F
  0.8915405366744407  0.6941330573684317  0.1835331124820527   T   T   T
  0.9152362436303884  0.4239269448580489  0.1830796509014891   T   T   T
  0.6600037004559249  0.6839184516682438  0.1823863603836058   T   T   T
  0.1534480622232515  0.1736106604228204  0.1833532609882158   T   T   T
  0.9117877043157793  0.1706127853414505  0.1843574979629417   T   T   T
  0.8988251949240521  0.9330380619050787  0.1813391883375137   T   T   T
  0.4064676914031835  0.9334803681635169  0.1831149329804810   T   T   T
  0.3918402801816744  0.1914288397928739  0.1806604220865871   T   T   T
  0.6603228552338097  0.1782979190466442  0.1810061430807298   T   T   T
  0.1537301727682345  0.6800438399758070  0.1841485108850667   T   T   T
  0.4206263519948266  0.6733462209098348  0.1820493094291438   T   T   T
  0.4039404352524812  0.4346078553205573  0.1823454791204765   T   T   T
  0.6478074118625032  0.9470659775129562  0.1814971242274815   T   T   T
  0.1479275961200543  0.4467184946054392  0.1844244193305321   T   T   T
  0.6698617863814956  0.4137022315403078  0.1797233857465606   T   T   T
  0.1691160074294370  0.9208483397595999  0.1876320633284092   T   T   T
  1.0043539723919637  0.2621378266819476  0.2492955240372874   T   T   T
  0.4889683014559529  0.2735164536759503  0.2424661365066577   T   T   T
  0.9943666845401331  0.7640006965930625  0.2437513980353183   T   T   T
  0.4987648780336459  0.7489021620974591  0.2469838231664686   T   T   T
  0.7401084486771613  0.7596428958316805  0.2418418148339588   T   T   T
  0.9762750323343996  0.5277779084968230  0.2509906593155955   T   T   T
  0.7480454040125256  0.5062437856895710  0.2404307475661508   T   T   T
  0.2528149859548574  0.0020691859921839  0.2518998252528493   T   T   T
  0.9945487464919809  0.0091069788893206  0.2452407426883663   T   T   T
  0.4862003433148877  1.0252148518297173  0.2491821070491010   T   T   T
  0.2373561843504610  0.7610917976127365  0.2502863675222067   T   T   T
  0.7397858555385444  0.0179013174858260  0.2452760513610520   T   T   T
  0.2372621572917143  0.2643821215836203  0.2420668506394493   T   T   T
  0.7536658237144771  0.2599036646429176  0.2435530763361853   T   T   T
  0.2411356857736900  0.5127854088403536  0.2466252407875424   T   T   T
  0.4965681166208860  0.5224598996116290  0.2471257829067344   T   T   T
  0.9970724599999983  0.2558556800000034  0.0591330299999981   F   F   F
  0.4999617900000004  0.2500875899999997  0.0594854499999968   F   F   F
  0.9968841700000013  0.7476991999999996  0.0595123700000002   F   F   F
  0.5054474499999984  0.7476859100000013  0.0599706799999993   F   F   F
  0.7507219900000024  0.7486395199999976  0.0599869200000001   F   F   F
  0.9979410799999968  0.5014025600000025  0.0599954500000024   F   F   F
  0.7507273000000012  0.5014378999999991  0.0601539399999993   F   F   F
  0.2484077800000009  0.9989653800000013  0.0601723600000028   F   F   F
  0.0026835399999996  0.9989392800000019  0.0602141099999969   F   F   F
  0.5037178999999981  0.9979203299999995  0.0602187799999996   F   F   F
  0.2483221600000007  0.7533767799999964  0.0603571799999969   F   F   F
  0.7484136200000009  0.9978805200000025  0.0603965999999971   F   F   F
  0.2473094799999984  0.2543786800000021  0.0604625599999977   F   F   F
  0.7483561600000002  0.2543461599999972  0.0604678400000012   F   F   F
  0.2472921900000031  0.4989472600000013  0.0606285499999970   F   F   F
  0.5037960399999974  0.4989156700000024  0.0606926999999970   F   F   F
  0.4361704545195021  0.9025235228878095  0.2851446102931360   T   T   T
  0.8279056558676201  0.0977573159168263  0.2843040551963614   T   T   T
  0.3403750120362586  0.5961098226545252  0.2847135523266424   T   T   T
  0.2148978597962223  0.4879825919130573  0.5327714325633962   T   T   T
  0.5440722931840889  0.8849908613185177  0.4978507106660554   T   T   T
  0.4210732195286860  0.7038005205466841  0.4831814886594524   T   T   T
  0.1311156126492776 -0.1108284115421629  0.4557723284577804   T   T   T
  0.8806625097376032  0.8372920308408788  0.3340666544103910   T   T   T
  0.3866048429751319  0.0405514379508004  0.5727929061546588   T   T   T
  0.9158871052920112  0.5474763351388631  0.3091511659165033   T   T   T
  0.1740506800352126  0.6901590060120150  0.3687090239466432   T   T   T
  0.6407202964306316  0.7352713295594581  0.4134717368634607   T   T   T
  0.9384215015264031  0.1102502598403183  0.5030249608125471   T   T   T
  0.1062165247431786  0.6053967105865510  0.4600708292764107   T   T   T
  0.6965470657494481  0.9624045137717258  0.5981355478865522   T   T   T
  0.3362638970577105  0.6739258157122858  0.5580826576415437   T   T   T
  0.6547907785672024  1.0640283816582328  0.3805030249757250   T   T   T
  0.8077290532096237  0.8219047664488184  0.4384756853453168   T   T   T
  0.3099332944972412  0.3708197629116418  0.4119337289726746   T   T   T
  1.0446146600489854  0.2887350060676270  0.3932724057473858   T   T   T
  0.7633198060128087  0.4858082881439859  0.3643304582968849   T   T   T
  0.1655320991149570  0.2391349804047632  0.5146396059631307   T   T   T
  0.8179793136340797  0.4147187144973650  0.4639328790845976   T   T   T
  0.7317286585654139  0.4225090631230463  0.5539195568103944   T   T   T
  0.8481820330819572  0.1154590355986537  0.5877301089685411   T   T   T
  0.3297686272241261  0.1044729590344028  0.4446475665079608   T   T   T
  0.1185438023180717 -0.0064846793744400  0.3734585020520452   T   T   T
  0.6138853794423005  0.3373687606198501  0.3370080179034311   T   T   T
  0.5076484624323390  0.2560930479754256  0.4989122789076257   T   T   T
  0.8148378966661403  0.6178633848833374  0.5209779030307575   T   T   T
  0.1830951585478684  0.9233984408484175  0.6104784085754726   T   T   T
  0.5427723164915917  0.4413974662418156  0.4352009805846103   T   T   T
  0.4158609936582453  0.9371967869762707  0.3634205844602183   T   T   T
  0.2111430466846732  0.3780822251881936  0.3287150914409782   T   T   T
  0.4357716878536438  0.1725307554373034  0.3066174900025980   T   T   T
  0.2050602178169213  0.3953545936438019  0.5272159356381030   T   T   T
  0.1697554510055410  0.5542443431266078  0.5079962552930151   T   T   T
  0.4781082573852248  0.9094578233238862  0.5219348593577349   T   T   T
  0.6497673240380031  0.7935431098326514  0.5053257849108269   T   T   T
  0.3119045266989625  0.7789694322857331  0.4720708518145899   T   T   T
  0.4809010217223636  0.7580650893290667  0.4828758999517678   T   T   T
  0.1543119303792994 -0.0655317778788667  0.4298305204255499   T   T   T
  1.0514808243916494 -0.0221273920350892  0.4725412155218280   T   T   T
 -0.0057207362056144  0.7781520409158643  0.3415960096432125   T   T   T
  0.8531265676198395  0.9254879535325138  0.3136752740320466   T   T   T
  0.3198645253372571  0.1228268156435837  0.5530941187208948   T   T   T
  0.3071764739867596  0.0313121756778512  0.5884515902322375   T   T   T
  0.0337862430860743  0.4533455174242760  0.3164996266388804   T   T   T
  0.9129501063688396  0.6492541719800552  0.3218365552409947   T   T   T
  0.2291239232268779  0.6791633382486694  0.3443166372489888   T   T   T
  0.1503868619579425  0.7975268731118388  0.3782045232611858   T   T   T
  0.5578246412288951  0.8145397577312719  0.3959137674892631   T   T   T
  0.7175346352566591  0.7721405541612487  0.4256033294506913   T   T   T
  0.8749578570332175  0.2218482868456367  0.4915402147082178   T   T   T
  0.8947090473701990  0.1166049755822966  0.5308737893047135   T   T   T
  0.1250550729847694  0.6900829478428145  0.4485460325063328   T   T   T
  0.1597800320735214  0.5100721692829833  0.4437433633984028   T   T   T
  0.5821960960884455  1.0106488767806665  0.5958906213121709   T   T   T
  0.7294566913717451  0.8949579025717410  0.5742126755644960   T   T   T
  0.3692898117182036  0.6912412191631403  0.5290893867063102   T   T   T
  0.2867624460022246  0.6080922747857783  0.5551029852731129   T   T   T
  0.7226457265547920  0.9864478808313648  0.3611689257322953   T   T   T
  0.6282135693467429  0.1636448711520974  0.3692220621986426   T   T   T
  0.7894664190254383  0.9280486270983406  0.4318179009230229   T   T   T
  0.9187909043854456  0.7479251909897413  0.4423395254705918   T   T   T
  0.3846956699868345  0.4156231320517935  0.4115629275349613   T   T   T
  0.2549231388245152  0.4025393809045908  0.3861055593833571   T   T   T
  0.0257012488491058  0.3045952042135209  0.4225232475237450   T   T   T
  0.9378114291333315  0.3417693891156723  0.3809499562263302   T   T   T
  0.6875025049076614  0.6347777085255543  0.3937269041318402   T   T   T
  0.7016007700583032  0.4285455940806867  0.3570643227130382   T   T   T
  0.0915747141049767  0.1998546690065248  0.5109166202286864   T   T   T
  0.2410629607150488  0.1939118445962709  0.4904065499066513   T   T   T
  0.7915791017931882  0.4901782904682686  0.4857304033308468   T   T   T
  0.7182311843921108  0.4242517420671592  0.4521034853581112   T   T   T
  0.6179603959170687  0.4836485189695762  0.5576411562719993   T   T   T
  0.7525621578213048  0.3240539241556220  0.5658435789278830   T   T   T
  0.9568158909599992  0.0549526806762807  0.6014600987450415   T   T   T
  0.7794603692384287  1.0700756700433123  0.5925135441329274   T   T   T
  0.4366850792236494  0.0387266504723512  0.4545484163383935   T   T   T
  0.3478797528456869  0.1849666726234346  0.4315340615935945   T   T   T
  0.2256028764518686 -0.0349969081374868  0.3645218229663324   T   T   T
  1.0709772309164511  0.1096709352703072  0.3816281957447777   T   T   T
  0.5161357696012092  0.3954650758092686  0.3221511548744492   T   T   T
  0.6898262119228858  0.2614458876030695  0.3189895138962358   T   T   T
  0.4130760168557172  0.3464069374456921  0.5109622744297172   T   T   T
  0.5773606411439892  0.1930450486760626  0.5206269067665468   T   T   T
  0.8056654571373021  0.5549119344518096  0.5428341807103256   T   T   T
  0.9199559284922457  0.5879441795069981  0.5113462218824504   T   T   T
  0.2190889837202736  0.8838722865363932  0.6376139243504555   T   T   T
  0.2331412724416933  0.8354071078433410  0.5906864813218952   T   T   T
  0.5356147728597019  0.3823331073127072  0.4587337729421191   T   T   T
  0.4882917976431828  0.5554597061892639  0.4494338703414283   T   T   T
  0.4428688773221724  0.0184535518726102  0.3650526979552639   T   T   T
  0.4232764325108627  0.9153940940916048  0.3344185900972873   T   T   T
  0.7845069038189688  0.5224228667283057  0.3381239678185909   T   T   T
  0.1159526464175555  0.1743041285756277  0.3156461876845916   T   T   T
  0.2892123648727368  0.2464953686208721  0.3113270169129913   T   T   T
  0.1757956717170249  0.1835664681502568  0.2889203023362851   T   T   T
 
  0.00000000E+00  0.00000000E+00  0.00000000E+00
  0.00000000E+00  0.00000000E+00  0.00000000E+00
  0.00000000E+00  0.00000000E+00  0.00000000E+00
  0.00000000E+00  0.00000000E+00  0.00000000E+00
  0.00000000E+00  0.00000000E+00  0.00000000E+00
  0.00000000E+00  0.00000000E+00  0.00000000E+00
  0.00000000E+00  0.00000000E+00  0.00000000E+00
  0.00000000E+00  0.00000000E+00  0.00000000E+00
  0.00000000E+00  0.00000000E+00  0.00000000E+00
  0.00000000E+00  0.00000000E+00  0.00000000E+00
  0.00000000E+00  0.00000000E+00  0.00000000E+00
  0.00000000E+00  0.00000000E+00  0.00000000E+00
  0.00000000E+00  0.00000000E+00  0.00000000E+00
  0.00000000E+00  0.00000000E+00  0.00000000E+00
  0.00000000E+00  0.00000000E+00  0.00000000E+00
  0.00000000E+00  0.00000000E+00  0.00000000E+00
 -0.20850783E-02  0.15510092E-02 -0.32484766E-02
 -0.12863990E-02 -0.11987845E-02  0.76671373E-03
 -0.30097752E-02  0.15666672E-02 -0.46828986E-04
  0.53285723E-03 -0.34112297E-02  0.20408534E-02
  0.29794967E-02  0.16241178E-02 -0.30126588E-02
  0.36782430E-02 -0.10120933E-02  0.40209680E-03
 -0.16176107E-02  0.17320212E-02  0.14255708E-02
 -0.86629535E-03 -0.28359835E-02 -0.10854409E-03
 -0.49979569E-03  0.16714983E-02  0.36110232E-03
 -0.25805621E-03 -0.90314409E-03 -0.16195136E-02
 -0.12958403E-02 -0.21123866E-02  0.10775630E-02
  0.27831899E-02  0.41346084E-02 -0.30306051E-02
 -0.31142447E-02  0.12365782E-02 -0.38034235E-03
  0.29113490E-02 -0.33010307E-02 -0.75246556E-03
  0.20398035E-02 -0.20434242E-02  0.35067286E-03
  0.13119729E-02  0.28968299E-02 -0.38870204E-03
  0.11629633E-02 -0.21294605E-02  0.27557249E-03
 -0.14913594E-02  0.22247088E-02 -0.25556552E-02
  0.24757604E-02  0.34359582E-03 -0.25017426E-02
  0.31086181E-02  0.12041227E-02  0.14053210E-02
 -0.23774688E-02  0.16790172E-02 -0.39301970E-02
 -0.24003618E-02 -0.52675431E-03 -0.12103406E-02
  0.12732597E-02  0.11946596E-02 -0.16621375E-02
  0.44144808E-02  0.25599180E-02 -0.25390744E-03
 -0.29144726E-03 -0.26140300E-02  0.12157668E-02
  0.54048975E-03 -0.13678021E-02 -0.97748849E-03
  0.19907352E-02 -0.14224454E-02 -0.26834018E-02
  0.20879694E-02  0.31060426E-02  0.35360404E-02
 -0.99304248E-04  0.36917681E-03  0.94841778E-03
 -0.11613273E-02 -0.48446012E-03 -0.36201584E-02
 -0.90427043E-03  0.16214777E-02 -0.76332509E-03
  0.15891271E-02 -0.15000645E-02 -0.32129856E-02
  0.00000000E+00  0.00000000E+00  0.00000000E+00
  0.00000000E+00  0.00000000E+00  0.00000000E+00
  0.00000000E+00  0.00000000E+00  0.00000000E+00
  0.00000000E+00  0.00000000E+00  0.00000000E+00
  0.00000000E+00  0.00000000E+00  0.00000000E+00
  0.00000000E+00  0.00000000E+00  0.00000000E+00
  0.00000000E+00  0.00000000E+00  0.00000000E+00
  0.00000000E+00  0.00000000E+00  0.00000000E+00
  0.00000000E+00  0.00000000E+00  0.00000000E+00
  0.00000000E+00  0.00000000E+00  0.00000000E+00
  0.00000000E+00  0.00000000E+00  0.00000000E+00
  0.00000000E+00  0.00000000E+00  0.00000000E+00
  0.00000000E+00  0.00000000E+00  0.00000000E+00
  0.00000000E+00  0.00000000E+00  0.00000000E+00
  0.00000000E+00  0.00000000E+00  0.00000000E+00
  0.00000000E+00  0.00000000E+00  0.00000000E+00
 -0.23556806E-02  0.25038043E-02 -0.27161154E-02
 -0.58952102E-02  0.99159285E-03  0.28629359E-02
 -0.15628237E-02 -0.53834925E-02  0.80632403E-02
 -0.27838833E-02 -0.30084855E-02  0.13746113E-02
  0.53752826E-02 -0.97572886E-02 -0.18416980E-02
 -0.19902137E-02 -0.43840083E-02 -0.42483375E-02
  0.72900010E-02 -0.35365094E-02 -0.14290427E-03
 -0.91766697E-03 -0.48069353E-04  0.11622604E-02
 -0.47877814E-03  0.16487502E-02 -0.50353282E-03
 -0.11929683E-02 -0.39214446E-02 -0.26607174E-02
  0.51003015E-03 -0.42587561E-02 -0.44294971E-02
  0.62471218E-03  0.40780944E-02  0.41279131E-02
  0.13670033E-02  0.29175582E-02  0.27317071E-02
 -0.38307294E-03  0.24775907E-02  0.53320901E-02
  0.32393414E-02 -0.40250503E-02  0.56727358E-02
 -0.63724438E-03 -0.31648714E-03 -0.88445813E-02
  0.15077848E-02 -0.10487835E-02 -0.98725919E-03
  0.92747539E-03  0.10551128E-02 -0.25657246E-02
  0.28695534E-02  0.75682533E-02 -0.74027206E-03
  0.23931809E-03  0.53704810E-02  0.91716432E-03
 -0.59893309E-02  0.73339840E-03  0.44901134E-03
 -0.63166691E-03  0.97419856E-03  0.97364079E-03
  0.16525134E-02  0.13479684E-02 -0.24658567E-02
  0.14166739E-02 -0.95776249E-03  0.21012581E-04
  0.21143423E-02  0.94942659E-02  0.38895201E-03
  0.30030510E-02  0.31245080E-02 -0.63158307E-02
  0.98901348E-03 -0.37250453E-02 -0.15262621E-02
  0.91624481E-03  0.48957363E-03  0.22807141E-02
 -0.31926694E-02 -0.71869718E-03 -0.99126817E-02
  0.15038284E-02 -0.30059034E-02 -0.11219839E-02
  0.45634796E-03 -0.33665709E-02  0.73702187E-03
  0.20701808E-02 -0.33913753E-02 -0.43972755E-02
  0.83106662E-02  0.47941914E-02  0.55467424E-02
 -0.52173662E-02  0.28727197E-02 -0.22666762E-02
 -0.26678218E-02  0.15986226E-03  0.26227131E-02
 -0.32265672E-02  0.94532215E-02 -0.16103028E-01
 -0.10975766E-01 -0.71094766E-03  0.20541657E-02
 -0.10234414E-01  0.54224605E-02 -0.82548501E-03
 -0.23005395E-01  0.77537268E-02 -0.55826552E-02
 -0.96672557E-02  0.19466084E-01  0.14108909E-02
  0.34725782E-01  0.41697831E-02 -0.11672919E-02
 -0.53820448E-02  0.21676280E-01 -0.14441311E-02
  0.72228557E-02 -0.14848702E-03  0.18995540E-01
  0.68982292E-02 -0.26626521E-01  0.40396511E-02
  0.68114815E-02  0.35868345E-03  0.68225275E-02
 -0.10204832E-01  0.13640076E-01 -0.13127512E-01
  0.17035190E-02 -0.11270773E-01 -0.46189748E-02
 -0.39968487E-02 -0.88397054E-02 -0.12199952E-01
 -0.59488501E-02  0.32179491E-01  0.15425464E-02
 -0.33249291E-03 -0.13037852E-01 -0.29069563E-01
 -0.26485111E-01  0.13126789E-01  0.10480129E-02
 -0.23460674E-01 -0.45920008E-02 -0.21149157E-01
  0.17778620E-01 -0.20451498E-01 -0.90496849E-03
 -0.19346711E-02 -0.32643088E-01  0.51126906E-02
 -0.55673294E-02 -0.42130514E-03  0.17023237E-01
  0.30310234E-01  0.72798328E-02 -0.10529736E-01
 -0.17906204E-01  0.38623226E-02  0.15083627E-01
  0.13998789E-02  0.16918683E-01 -0.15838308E-01
 -0.11971025E-01 -0.14776031E-01  0.96679766E-02
 -0.12744992E-01 -0.76675739E-02  0.12612768E-01
  0.24583543E-02 -0.57247474E-03 -0.26976384E-01
  0.20655258E-01 -0.27507716E-01  0.10244758E-01
  0.31084140E-02  0.23203580E-01  0.10377342E-02
 -0.16386218E-01  0.17787069E-01 -0.25301818E-01
 -0.34417630E-01 -0.27241408E-01  0.52930033E-02
  0.46626638E-02  0.64647391E-02 -0.11883073E-01
  0.18121681E-01  0.28691235E-03 -0.14538736E-03
 -0.41338562E-01  0.35113020E-02  0.56609436E-02
 -0.23611905E-02 -0.39974098E-01  0.68619866E-02
  0.45730269E-02  0.92390582E-02  0.15236467E-01
  0.83944855E-02 -0.56620449E-02 -0.88647499E-02
  0.75975800E-02  0.28832069E-01  0.12368706E-01
  0.12223326E-01 -0.81942997E-02  0.16085772E-02
  0.46633305E-02  0.52988701E-02  0.14592297E-01
 -0.51845659E-02  0.15975347E-01 -0.68145367E-02
  0.50883845E-02  0.49156398E-02 -0.19361906E-01
  0.40873388E-01 -0.97198975E-02  0.20414809E-01
 -0.50074908E-02  0.31215762E-02 -0.10403113E-03
 -0.11520472E-01  0.49273393E-02 -0.11485325E-01
  0.43952263E-01  0.19657147E-02 -0.92899165E-02
 -0.18801582E-01 -0.89181442E-02  0.20176364E-01
  0.44033559E-02 -0.57640728E-02 -0.10082374E-01
  0.15243375E-01  0.11231787E-01  0.95520237E-02
 -0.25108749E-01 -0.38093511E-03 -0.12418622E-01
  0.29464185E-01  0.11646381E-01  0.14434901E-01
 -0.12482835E-01 -0.13730193E-01  0.14533337E-01
 -0.10098974E-01  0.16230058E-01 -0.33265670E-02
  0.14105831E-01 -0.77125272E-02  0.13615597E-01
  0.13299997E-01 -0.87573584E-02  0.14123422E-01
 -0.78776084E-02 -0.19154110E-01  0.13855705E-03
 -0.36030226E-02  0.20271867E-02 -0.15690792E-01
 -0.45171444E-01  0.54044379E-02 -0.57377087E-03
  0.51406663E-02 -0.23338370E-01 -0.43790271E-02
  0.30145693E-02 -0.99790804E-02  0.15593442E-01
  0.10679666E-01 -0.98476851E-02  0.10010988E-01
 -0.96881613E-03  0.11814238E-01  0.40623011E-02
  0.64478338E-03 -0.12244073E-01  0.10770742E-01
  0.31290370E-02 -0.23533324E-02 -0.11120711E-01
 -0.36110945E-02  0.21959759E-02  0.52614443E-03
 
           1
   1.00000000000000     
  0.74558065E-01 -0.38605270E-02 -0.27081442E-02  0.77842400E-01
  0.81613046E+00  0.58897203E+00  0.12002484E+00
  0.32676202E+00  0.89395010E-01  0.12119073E+00
  0.82814354E+00  0.93046330E-01  0.11976763E+00
  0.32950631E+00  0.58782297E+00  0.12153918E+00
  0.57604581E+00  0.83447880E+00  0.12022353E+00
  0.81911504E+00  0.84798253E+00  0.12270147E+00
  0.72490180E-01  0.34032211E+00  0.12448341E+00
  0.83601570E+00  0.33493924E+00  0.12031703E+00
  0.57194674E+00  0.59281719E+00  0.12152883E+00
  0.63944990E-01  0.59655088E+00  0.12076467E+00
  0.87917580E-01  0.80203190E-01  0.11902184E+00
  0.57381046E+00  0.97747480E-01  0.12184586E+00
  0.32807061E+00  0.83489925E+00  0.12252522E+00
  0.80104630E-01  0.84043032E+00  0.12280298E+00
  0.32220688E+00  0.35051045E+00  0.12099876E+00
  0.59199446E+00  0.33705759E+00  0.12006365E+00
  0.89123730E+00  0.69431526E+00  0.18343471E+00
  0.91517578E+00  0.42378612E+00  0.18310288E+00
  0.65960547E+00  0.68410250E+00  0.18238494E+00
  0.15370264E+00  0.17320992E+00  0.18341508E+00
  0.91199543E+00  0.17080358E+00  0.18426624E+00
  0.89925886E+00  0.93291916E+00  0.18135137E+00
  0.40620138E+00  0.93368384E+00  0.18315812E+00
  0.39191873E+00  0.19109568E+00  0.18065713E+00
  0.66017383E+00  0.17849428E+00  0.18101708E+00
  0.15375697E+00  0.67993774E+00  0.18409945E+00
  0.42061859E+00  0.67309807E+00  0.18208195E+00
  0.40398073E+00  0.43509357E+00  0.18225368E+00
  0.64741794E+00  0.94721125E+00  0.18148560E+00
  0.14841769E+00  0.44633070E+00  0.18440163E+00
  0.67018934E+00  0.41346218E+00  0.17973401E+00
  0.16907933E+00  0.92118865E+00  0.18762029E+00
  0.45973704E-02  0.26188767E+00  0.24930387E+00
  0.48868590E+00  0.27377780E+00  0.24238872E+00
  0.99459838E+00  0.76404106E+00  0.24367562E+00
  0.49901041E+00  0.74904362E+00  0.24702639E+00
  0.73976795E+00  0.75984014E+00  0.24172276E+00
  0.97606177E+00  0.52771603E+00  0.25095400E+00
  0.74810477E+00  0.50638413E+00  0.24038040E+00
  0.25311374E+00  0.23699163E-02  0.25189213E+00
  0.99467264E+00  0.87998917E-02  0.24527757E+00
  0.48633567E+00  0.25054167E-01  0.24915250E+00
  0.23764227E+00  0.76092469E+00  0.25020508E+00
  0.73981584E+00  0.18266205E-01  0.24538316E+00
  0.23723037E+00  0.26442549E+00  0.24209558E+00
  0.75357613E+00  0.25984675E+00  0.24344342E+00
  0.24094844E+00  0.51297589E+00  0.24660212E+00
  0.49681790E+00  0.52228368E+00  0.24702846E+00
  0.99707246E+00  0.25585568E+00  0.59133030E-01
  0.49996179E+00  0.25008759E+00  0.59485450E-01
  0.99688417E+00  0.74769920E+00  0.59512370E-01
  0.50544745E+00  0.74768591E+00  0.59970680E-01
  0.75072199E+00  0.74863952E+00  0.59986920E-01
  0.99794108E+00  0.50140256E+00  0.59995450E-01
  0.75072730E+00  0.50143790E+00  0.60153940E-01
  0.24840778E+00  0.99896538E+00  0.60172360E-01
  0.26835400E-02  0.99893928E+00  0.60214110E-01
  0.50371790E+00  0.99792033E+00  0.60218780E-01
  0.24832216E+00  0.75337678E+00  0.60357180E-01
  0.74841362E+00  0.99788052E+00  0.60396600E-01
  0.24730948E+00  0.25437868E+00  0.60462560E-01
  0.74835616E+00  0.25434616E+00  0.60467840E-01
  0.24729219E+00  0.49894726E+00  0.60628550E-01
  0.50379604E+00  0.49891567E+00  0.60692700E-01
  0.43578372E+00  0.90281766E+00  0.28506234E+00
  0.82724765E+00  0.97873805E-01  0.28439078E+00
  0.34053223E+00  0.59547739E+00  0.28495780E+00
  0.21479135E+00  0.48762917E+00  0.53281307E+00
  0.54519229E+00  0.88384461E+00  0.49779492E+00
  0.42112825E+00  0.70328550E+00  0.48305280E+00
  0.13206501E+00  0.88875613E+00  0.45576800E+00
  0.88057197E+00  0.83728638E+00  0.33410186E+00
  0.38645929E+00  0.40745127E-01  0.57277765E+00
  0.91599607E+00  0.54701566E+00  0.30907057E+00
  0.17435272E+00  0.68965870E+00  0.36857485E+00
  0.64054431E+00  0.73575041E+00  0.41359678E+00
  0.93838920E+00  0.11059300E+00  0.50310771E+00
  0.10603202E+00  0.60568777E+00  0.46023235E+00
  0.69711305E+00  0.96193166E+00  0.59830738E+00
  0.33621766E+00  0.67388864E+00  0.55781474E+00
  0.65500578E+00  0.63905174E-01  0.38047312E+00
  0.80776144E+00  0.82202872E+00  0.43839797E+00
  0.30978069E+00  0.37170886E+00  0.41191131E+00
  0.44323555E-01  0.28936591E+00  0.39330019E+00
  0.76266739E+00  0.48589445E+00  0.36434406E+00
  0.16541061E+00  0.23924943E+00  0.51466910E+00
  0.81806826E+00  0.41487707E+00  0.46385819E+00
  0.73192904E+00  0.42239655E+00  0.55392019E+00
  0.84783946E+00  0.11657439E+00  0.58774189E+00
  0.32989062E+00  0.10484002E+00  0.44445625E+00
  0.11886322E+00  0.99307772E+00  0.37341227E+00
  0.61394984E+00  0.33742627E+00  0.33707710E+00
  0.50736586E+00  0.25600862E+00  0.49861201E+00
  0.81516745E+00  0.61751026E+00  0.52094392E+00
  0.18333933E+00  0.92300295E+00  0.61050073E+00
  0.54318214E+00  0.44099906E+00  0.43506778E+00
  0.41642490E+00  0.93775999E+00  0.36358860E+00
  0.21044351E+00  0.37841970E+00  0.32864643E+00
  0.43549088E+00  0.17254954E+00  0.30669694E+00
  0.20417669E+00  0.39646513E+00  0.52672815E+00
  0.16868056E+00  0.55416082E+00  0.50805848E+00
  0.47674853E+00  0.91009484E+00  0.52190985E+00
  0.64697137E+00  0.79445399E+00  0.50515668E+00
  0.30977760E+00  0.78125624E+00  0.47211359E+00
  0.48418902E+00  0.75855494E+00  0.48284054E+00
  0.15249115E+00  0.93701468E+00  0.42978678E+00
  0.52224383E-01  0.97785516E+00  0.47311661E+00
  0.99654507E+00  0.77502405E+00  0.34171838E+00
  0.85379848E+00  0.92553009E+00  0.31388194E+00
  0.31802511E+00  0.12442920E+00  0.55269647E+00
  0.30801181E+00  0.29988124E-01  0.58831168E+00
  0.33898842E-01  0.45230706E+00  0.31613007E+00
  0.91045472E+00  0.65303451E+00  0.32188328E+00
  0.22985592E+00  0.67763170E+00  0.34343608E+00
  0.14692128E+00  0.79906896E+00  0.37823627E+00
  0.55570753E+00  0.81400031E+00  0.39527313E+00
  0.72054468E+00  0.76973798E+00  0.42557592E+00
  0.87667843E+00  0.21801349E+00  0.49169508E+00
  0.89416739E+00  0.11655548E+00  0.53138944E+00
  0.12771116E+00  0.69093816E+00  0.44822707E+00
  0.15773143E+00  0.51052590E+00  0.44420027E+00
  0.58134474E+00  0.12636425E-01  0.59541086E+00
  0.72910671E+00  0.89322207E+00  0.57450553E+00
  0.36844355E+00  0.69034046E+00  0.52947144E+00
  0.28704618E+00  0.60802502E+00  0.55428584E+00
  0.72636290E+00  0.98321637E+00  0.36147925E+00
  0.62716687E+00  0.16637075E+00  0.36925350E+00
  0.78675454E+00  0.93013819E+00  0.43105148E+00
  0.91688945E+00  0.74472496E+00  0.44249986E+00
  0.38479031E+00  0.41638259E+00  0.41120297E+00
  0.25674994E+00  0.40257309E+00  0.38610116E+00
  0.21289312E-01  0.30500770E+00  0.42269472E+00
  0.93991922E+00  0.33707337E+00  0.38115781E+00
  0.68742507E+00  0.63586308E+00  0.39418844E+00
  0.70278738E+00  0.42788044E+00  0.35679580E+00
  0.90654128E-01  0.20324176E+00  0.51129128E+00
  0.24278785E+00  0.19294921E+00  0.49045528E+00
  0.79174229E+00  0.49080078E+00  0.48617242E+00
  0.71676535E+00  0.42612847E+00  0.45189706E+00
  0.61818934E+00  0.48422599E+00  0.55705466E+00
  0.75729145E+00  0.32291206E+00  0.56646197E+00
  0.95612308E+00  0.55319393E-01  0.60145695E+00
  0.77799888E+00  0.70654517E-01  0.59216564E+00
  0.44104122E+00  0.38957576E-01  0.45426701E+00
  0.34649076E+00  0.18391900E+00  0.43214523E+00
  0.22638944E+00  0.96432595E+00  0.36421641E+00
  0.71868321E-01  0.11099041E+00  0.38191754E+00
  0.51360364E+00  0.39542032E+00  0.32177498E+00
  0.69213974E+00  0.26281406E+00  0.31942677E+00
  0.41261253E+00  0.34479396E+00  0.51140251E+00
  0.57537987E+00  0.19495170E+00  0.52052614E+00
  0.80755357E+00  0.55400589E+00  0.54324661E+00
  0.92182343E+00  0.58691540E+00  0.51177404E+00
  0.21941261E+00  0.88162213E+00  0.63761812E+00
  0.23265564E+00  0.83564525E+00  0.59021119E+00
  0.53070169E+00  0.38296800E+00  0.45871639E+00
  0.49018565E+00  0.55271799E+00  0.44930122E+00
  0.44376173E+00  0.17281244E-01  0.36552504E+00
  0.42494139E+00  0.91423722E+00  0.33472184E+00
  0.78371439E+00  0.52381076E+00  0.33824702E+00
  0.11673744E+00  0.17286574E+00  0.31597245E+00
  0.28966894E+00  0.24621891E+00  0.31099016E+00
  0.17529930E+00  0.18382444E+00  0.28893624E+00
  0.00000000E+00  0.00000000E+00  0.00000000E+00
  0.00000000E+00  0.00000000E+00  0.00000000E+00
  0.00000000E+00  0.00000000E+00  0.00000000E+00
  0.00000000E+00  0.00000000E+00  0.00000000E+00
  0.00000000E+00  0.00000000E+00  0.00000000E+00
  0.00000000E+00  0.00000000E+00  0.00000000E+00
  0.00000000E+00  0.00000000E+00  0.00000000E+00
  0.00000000E+00  0.00000000E+00  0.00000000E+00
  0.00000000E+00  0.00000000E+00  0.00000000E+00
  0.00000000E+00  0.00000000E+00  0.00000000E+00
  0.00000000E+00  0.00000000E+00  0.00000000E+00
  0.00000000E+00  0.00000000E+00  0.00000000E+00
  0.00000000E+00  0.00000000E+00  0.00000000E+00
  0.00000000E+00  0.00000000E+00  0.00000000E+00
  0.00000000E+00  0.00000000E+00  0.00000000E+00
  0.00000000E+00  0.00000000E+00  0.00000000E+00
  0.00000000E+00  0.00000000E+00  0.00000000E+00
  0.00000000E+00  0.00000000E+00  0.00000000E+00
  0.00000000E+00  0.00000000E+00  0.00000000E+00
  0.00000000E+00  0.00000000E+00  0.00000000E+00
  0.00000000E+00  0.00000000E+00  0.00000000E+00
  0.00000000E+00  0.00000000E+00  0.00000000E+00
  0.00000000E+00  0.00000000E+00  0.00000000E+00
  0.00000000E+00  0.00000000E+00  0.00000000E+00
  0.00000000E+00  0.00000000E+00  0.00000000E+00
  0.00000000E+00  0.00000000E+00  0.00000000E+00
  0.00000000E+00  0.00000000E+00  0.00000000E+00
  0.00000000E+00  0.00000000E+00  0.00000000E+00
  0.00000000E+00  0.00000000E+00  0.00000000E+00
  0.00000000E+00  0.00000000E+00  0.00000000E+00
  0.00000000E+00  0.00000000E+00  0.00000000E+00
  0.00000000E+00  0.00000000E+00  0.00000000E+00
  0.00000000E+00  0.00000000E+00  0.00000000E+00
  0.00000000E+00  0.00000000E+00  0.00000000E+00