 Ni_COOH_CO                              
   1.00000000000000     
     9.8291997910000006    0.0000000000000000    0.0000000000000000
     4.9145998955000003    8.5123367178000002    0.0000000000000000
     0.0000000000000000    0.0000000000000000   30.7147998810000011
   Ni   O    H    C    O    O    H 
    64    30    60     1     1     1     1
Selective dynamics
Direct
  0.0793274918167234  0.0816708815739226  0.1185959782444375   T   T   T
  0.3408496646603594  0.0800617266487768  0.1210798703505382   T   T   T
  0.3327851424427933  0.8384323883884638  0.1234991590293036   T   T   T
  0.5761827904632966  0.3426393599047374  0.1224269028683008   T   T   T
  0.3413440205768456  0.5814182298539747  0.1239646324107734   T   T   T
  0.3442623970949403  0.3362491919805174  0.1204490268314782   T   T   T
  0.8333817827632483  0.0833358244624580  0.1172982292949467   T   T   T
  0.5966810581137159  0.0907335160892708  0.1212159664599751   T   T   T
  0.8245898382695278  0.3297858361463520  0.1216957860757341   T   T   T
  0.5903711681267071  0.5919103197377064  0.1198584020516423   T   T   T
  0.0871776697604707  0.8308352147538353  0.1215374223389601   T   T   T
  0.5794744355322506  0.8375811510053099  0.1196373612197068   T   T   T
  0.0908154711829113  0.3300716565201047  0.1235457737761826   T   T   T
  0.8342666019256627  0.5820512413964781  0.1209309055041137   T   T   T
  0.0832810714137005  0.5788058277295220  0.1219269995916806   T   T   T
  0.8412548662766546  0.8286951098783949  0.1198261854653811   T   T   T
  0.1608315182568092  0.1675846822504316  0.1867202248731702   T   T   T
  0.1680446276310666  0.9031954554539964  0.1867560486957083   T   T   T
  0.4128900698783545  0.1768745727924523  0.1865106683455740   T   T   T
  0.4147277226115587  0.9202092206444153  0.1904518122907252   T   T   T
  0.4126276411334919  0.4304494249735313  0.1905977867498927   T   T   T
  0.4267895711854460  0.6621348057757299  0.1849060958700368   T   T   T
  0.9131007246490100  0.1704984333186848  0.1877852345250047   T   T   T
  0.6707921645881767  0.1658071273817547  0.1872843596249522   T   T   T
  0.6692881952765164  0.4138230376645646  0.1881572958206996   T   T   T
  0.1645330693344321  0.6613135038783213  0.1880162637451191   T   T   T
  0.9170885959452835  0.4224983672789780  0.1868358654996985   T   T   T
  0.6737151833509052  0.6638455951667219  0.1858565545963221   T   T   T
  0.9112525385485671  0.9165053934613329  0.1915661957359850   T   T   T
  0.6612830577237112  0.9229488095096235  0.1864785807945924   T   T   T
  0.1701292530691626  0.4158190817865144  0.1906240288934946   T   T   T
  0.9211329049419975  0.6660676261603887  0.1877625621817954   T   T   T
  0.2528386163605736  0.9919567892207026  0.2547156206445016   T   T   T
  0.5043121483259959  0.2463148295877434  0.2528445400048226   T   T   T
  0.5058109642876918  0.4969595989425946  0.2572032239652474   T   T   T
  0.2446070834428979  0.2585279156562486  0.2572349678890336   T   T   T
  0.0056617985621974  0.2376448674954199  0.2573148685270421   T   T   T
  0.7421926602422595  0.2525868315023323  0.2524156046176700   T   T   T
  0.5197520036482498  0.7449266904596987  0.2514085938263919   T   T   T
  0.2513133196102545  0.7634842862360642  0.2555461055814782   T   T   T
  0.5086044009735220  0.9880986283514223  0.2562342348587053   T   T   T
  0.9892074271584591  0.0104622393761485  0.2529992441747112   T   T   T
  0.2361602194634063  0.5141108993734211  0.2553229091429744   T   T   T
  0.7593722937717484  0.4882853339847594  0.2547095038130920   T   T   T
  0.7461715732230884  0.0062498162384172  0.2625105953763339   T   T   T
  0.9909000820195554  0.7518811147898034  0.2635885367291492   T   T   T
  0.7587429791417866  0.7383054028545543  0.2518734185033742   T   T   T
  0.9884026682072635  0.5007596131033268  0.2567974314505021   T   T   T
  0.2488099899999980  0.0018900000000031  0.0530725930000031   F   F   F
  0.4986599900000002  0.2520299800000032  0.0530725930000031   F   F   F
  0.4987100700000013  0.5019500100000016  0.0530725930000031   F   F   F
  0.2486699900000033  0.2519600099999977  0.0530725930000031   F   F   F
  0.9988300199999998  0.2520000100000033  0.0530725930000031   F   F   F
  0.7487000499999965  0.2521199999999979  0.0530725930000031   F   F   F
  0.4986899700000009  0.7520999700000033  0.0530725930000031   F   F   F
  0.2487699599999971  0.7521200300000004  0.0530725930000031   F   F   F
  0.4985999800000016  0.0021100000000018  0.0530725930000031   F   F   F
  0.9987700300000029  0.0022099999999980  0.0530725930000031   F   F   F
  0.2487500100000020  0.5021200300000004  0.0530725930000031   F   F   F
  0.7486699900000033  0.5022699800000012  0.0530725930000031   F   F   F
  0.7485900000000001  0.0024500000000032  0.0530725930000031   F   F   F
  0.9987000499999965  0.7524499700000007  0.0530725930000031   F   F   F
  0.7486699299999984  0.7524300299999993  0.0530725930000031   F   F   F
  0.9986899600000001  0.5022000199999965  0.0530725930000031   F   F   F
  0.4113407972466674  0.8794578641427336  0.5730986586835742   T   T   T
  0.4825287669023307  0.2728261745547558  0.6454352097926902   T   T   T
  0.7642567013303458  0.3552421626011745  0.3568735114934862   T   T   T
  0.5570814113991487  0.1715462126248408  0.4318211638179573   T   T   T
  0.0268481332600892  0.0456363238457021  0.3597932281104074   T   T   T
  0.4927029002472574  0.5505031457005785  0.5767195321557536   T   T   T
  0.9448814096095512  0.4304241359855062  0.4351226131995490   T   T   T
  0.2423738447190405  0.5939461683215798  0.3799738509631521   T   T   T
  0.7478031901180712  0.0418065689362272  0.3264516639269720   T   T   T
  0.5121844505588330  0.4507669001590304  0.4177762685538847   T   T   T
  0.3972178014174947  0.7843698616664780  0.4440984019353509   T   T   T
  0.7905619528834854  0.3155811161192597  0.5569985051683924   T   T   T
  0.6358543609051883  0.1219116672760093  0.5587064292355719   T   T   T
  0.9229161508728141  0.2063920797701914  0.4849746656133092   T   T   T
  0.0226916418719322  0.5788254319724437  0.5893326774592886   T   T   T
  0.8537675285788227  0.0490774952313365  0.4351466695818657   T   T   T
  0.1154216999696180  0.7708831067494606  0.4561958734771383   T   T   T
  0.2326646102281609  0.5730115872074049  0.5275089701792458   T   T   T
  0.3259268106105726  0.6332390055220505  0.6549447964211473   T   T   T
  0.0689117142311340  0.2938405248404207  0.5870274641116301   T   T   T
  0.0108559437377649  0.8024222612559685  0.6451722159747771   T   T   T
  0.7283925214883782  0.8184510590636916  0.5580992775405320   T   T   T
  0.7373315065691736  0.6718460690491611  0.3505111375077800   T   T   T
  0.2788846552034562  0.0998353036005295  0.6400944946698521   T   T   T
  0.6784718819389399  0.7486721733115179  0.4682214326032677   T   T   T
  0.2473550938738082  0.0934341526939859  0.5125411088790387   T   T   T
  0.3367718299982325  0.9321915188092422  0.3568215361550813   T   T   T
  0.3864258877164893  0.2781343173394003  0.5069254642051867   T   T   T
  0.3200436161858149  0.6034049046642581  0.3012039575606882   T   T   T
  0.4457300357094393  0.1517707403658654  0.3540695728651309   T   T   T
  0.5185480091088671  0.8706185683456149  0.5736029166554580   T   T   T
  0.4393032777580756  0.7670096856876520  0.5746727117288301   T   T   T
  0.5235591921606128  0.2594886398871346  0.6165818915525396   T   T   T
  0.3939287665239149  0.3816252296349845  0.6480017456092022   T   T   T
  0.7371746190929451  0.3302934906428339  0.3274708239389456   T   T   T
  0.8735262848701485  0.2573397041926077  0.3598965749265284   T   T   T
  0.5106435667788463  0.1789772686537109  0.4605116021058267   T   T   T
  0.6744346802974642  0.1171936403397119  0.4354218763441022   T   T   T
  0.1382901883148508  0.0221096054588514  0.3544851076129144   T   T   T
  0.9874852083034743  0.0467386358092085  0.3303840671873844   T   T   T
  0.4419565061037158  0.5631098412727379  0.6070739369589478   T   T   T
  0.4148401587216838  0.5581691558952278  0.5539531794470632   T   T   T
  0.8534085505097158  0.5320726536681044  0.4421556272716423   T   T   T
  0.9867041032301346  0.4268106753786801  0.4056788460282836   T   T   T
  0.1870126234285803  0.6459828303289987  0.4059562055651622   T   T   T
  0.3497299155346891  0.5267101909248117  0.3899405058383172   T   T   T
  0.6341423784101154  0.0911230134208028  0.3349948609876447   T   T   T
  0.8140446730879949  0.9354168172658770  0.3363436593298583   T   T   T
  0.6055179043463551  0.4298809420906113  0.4001486686595052   T   T   T
  0.5409269333069789  0.3370944503286510  0.4245687102990024   T   T   T
  0.3743631278227655  0.8189003558673479  0.4123079897323954   T   T   T
  0.4412274717350978  0.6619353443340273  0.4438574440905056   T   T   T
  0.8828169891569638  0.3095196365578079  0.5715773323263470   T   T   T
  0.6904632005221129  0.4014736541487868  0.5672130260038336   T   T   T
  0.5350293660221330  0.1889445095470370  0.5397861868591076   T   T   T
  0.7066300468548842  0.1642524856776089  0.5637049164298492   T   T   T
  0.8367387982654135  0.2832385067284091  0.5044637552452812   T   T   T
  0.9613650064564647  0.2729486206503096  0.4679474615327381   T   T   T
  0.9142146818934781  0.6482868423518905  0.5783452582994688   T   T   T
  0.0308339884064531  0.4750039339548264  0.5938568263855064   T   T   T
  0.9133271217164414  0.0551590489772570  0.4101239141277418   T   T   T
  0.8858947597814003  0.0935345827764307  0.4611757823445867   T   T   T
  0.0142386276459113  0.8554502435627743  0.4441512146212827   T   T   T
  0.1799442977238460  0.8225300283946188  0.4580134029727548   T   T   T
  0.1560001768652912  0.6485433641031600  0.5057207938471276   T   T   T
  0.1625715994693684  0.5666952108104321  0.5513365169565612   T   T   T
  0.3629123724613096  0.6173211838135031  0.6849787323995349   T   T   T
  0.2058353908398483  0.7121866139252977  0.6541243712280992   T   T   T
  0.1374190643109439  0.2407251918831850  0.5615720043693110   T   T   T
  0.1227309519186536  0.2333794301553249  0.6140880845954062   T   T   T
  0.9648534981090435  0.8070220393037782  0.6737866259607463   T   T   T
  0.0071342687091728  0.7117500731525038  0.6311922112941943   T   T   T
  0.7306849637551420  0.9202077736689447  0.5596950971036276   T   T   T
  0.7454635855629352  0.7970550752318416  0.5269990737091124   T   T   T
  0.7672470760944862  0.5609901444341959  0.3495510994368284   T   T   T
  0.6777033898279254  0.7116392323612251  0.3225350418928291   T   T   T
  0.3289941912341083  0.0039957701458535  0.6223406013027245   T   T   T
  0.3580059377494705  0.1287102186007357  0.6478447423609313   T   T   T
  0.5605699031200418  0.7767238712580545  0.4642794179006368   T   T   T
  0.6937788011185684  0.8087534704185979  0.4434924787986959   T   T   T
  0.1404007019100235  0.1095493494969064  0.5081385816821521   T   T   T
  0.3009535548737658  0.0012457939985204  0.5345007635143363   T   T   T
  0.3650272430705440  0.8629186808685669  0.3306749168673893   T   T   T
  0.3782238450341867  0.0032480434402272  0.3521579547224564   T   T   T
  0.3227128045741106  0.3989336386951784  0.5117053808835016   T   T   T
  0.3191629726548171  0.2297677329870779  0.5111828028249795   T   T   T
  0.2769639310697285  0.6186078139177374  0.3298862837768916   T   T   T
  0.0782845277418834  0.6650936962454597  0.3428131304660967   T   T   T
  0.3855390902904992  0.2546657217745096  0.3389475806989131   T   T   T
  0.4710290448203353  0.1636994238613945  0.3850720595555527   T   T   T
  0.0822856928638272  0.3261110051578173  0.3007126958815278   T   T   T
  0.0794089897107107  0.3349498332748674  0.3401236412216511   T   T   T
  0.9736746418142189  0.7402566188805233  0.3306731719594885   T   T   T
  0.8996938692813494  0.7032171302117445  0.3384152067062588   T   T   T
 
 -0.14539496E-02 -0.40661134E-02 -0.11420926E-02
  0.79134676E-03  0.11868440E-02  0.27841503E-02
  0.36404187E-03  0.26047220E-03  0.16007959E-02
 -0.19392905E-02 -0.88827308E-03 -0.25133361E-02
 -0.73867108E-04  0.32080044E-02  0.15535384E-02
 -0.21667701E-02 -0.51779254E-03  0.18039534E-02
 -0.77368717E-03  0.73393916E-03 -0.59643614E-04
 -0.21098059E-02 -0.26526247E-02  0.11888230E-02
 -0.82415898E-03 -0.82964842E-03  0.81723324E-03
  0.46832072E-02 -0.14071790E-02 -0.14671093E-02
 -0.88166194E-03  0.51709359E-03 -0.10958188E-02
  0.85449421E-03 -0.46941170E-04 -0.25233487E-02
  0.22750440E-02 -0.17503165E-02 -0.21436904E-02
  0.15047852E-03  0.89338897E-04  0.11795828E-02
  0.12433102E-02  0.30071848E-02 -0.15352236E-02
 -0.10781796E-02  0.37006118E-02  0.24392750E-02
  0.16041638E-02  0.16391380E-02 -0.31625820E-02
  0.56043840E-03 -0.49573287E-02 -0.19402725E-02
 -0.17473993E-02  0.26346537E-04  0.18666917E-02
 -0.24945281E-02  0.48539922E-04 -0.30898139E-03
  0.89387107E-03 -0.12479210E-02 -0.28571118E-02
  0.48430968E-03 -0.11790071E-02  0.11304275E-03
 -0.40950412E-02 -0.45285926E-03  0.44118884E-03
  0.47692343E-02  0.48300617E-03  0.67052046E-03
 -0.56514705E-03 -0.19431165E-02  0.23896811E-02
 -0.47233349E-03 -0.13103214E-02 -0.51490923E-02
 -0.90005385E-03  0.58996652E-03 -0.26880851E-02
  0.19416979E-02 -0.13470786E-02  0.17346775E-02
 -0.35043389E-03  0.81951884E-03 -0.77182629E-04
  0.26152877E-02 -0.17493680E-02  0.26148347E-02
 -0.10336053E-02 -0.11435424E-02 -0.25465368E-02
 -0.10412104E-02  0.89472637E-04  0.23993755E-02
  0.23487382E-03  0.22641230E-02 -0.41412076E-03
  0.58206536E-03 -0.31613193E-02 -0.30776114E-03
 -0.43726926E-03 -0.12062984E-02 -0.31912555E-03
 -0.55153053E-03 -0.55133112E-05 -0.52256349E-03
 -0.23720113E-02  0.18136083E-02 -0.51849881E-03
 -0.11673647E-02 -0.19178183E-02  0.20682514E-02
  0.21684099E-02  0.91206784E-03  0.16403591E-02
  0.26794094E-02 -0.30148376E-02  0.26721446E-02
  0.31936401E-02 -0.21099596E-02  0.12278886E-02
  0.19545626E-02  0.35933529E-03  0.25612202E-02
 -0.27227798E-02  0.15277765E-02 -0.24318804E-02
  0.59381377E-03  0.36096434E-03 -0.81318432E-03
  0.23218777E-02  0.66440818E-03 -0.90842168E-03
 -0.51892590E-03  0.13394728E-02 -0.51792205E-02
  0.18385383E-03 -0.14581169E-02 -0.12482462E-03
 -0.11664396E-02 -0.15439605E-02  0.11756049E-02
  0.00000000E+00  0.00000000E+00  0.00000000E+00
  0.00000000E+00  0.00000000E+00  0.00000000E+00
  0.00000000E+00  0.00000000E+00  0.00000000E+00
  0.00000000E+00  0.00000000E+00  0.00000000E+00
  0.00000000E+00  0.00000000E+00  0.00000000E+00
  0.00000000E+00  0.00000000E+00  0.00000000E+00
  0.00000000E+00  0.00000000E+00  0.00000000E+00
  0.00000000E+00  0.00000000E+00  0.00000000E+00
  0.00000000E+00  0.00000000E+00  0.00000000E+00
  0.00000000E+00  0.00000000E+00  0.00000000E+00
  0.00000000E+00  0.00000000E+00  0.00000000E+00
  0.00000000E+00  0.00000000E+00  0.00000000E+00
  0.00000000E+00  0.00000000E+00  0.00000000E+00
  0.00000000E+00  0.00000000E+00  0.00000000E+00
  0.00000000E+00  0.00000000E+00  0.00000000E+00
  0.00000000E+00  0.00000000E+00  0.00000000E+00
 -0.37594162E-02 -0.24718681E-02  0.20254348E-02
  0.86896886E-02 -0.48327817E-02  0.13107762E-02
 -0.15033625E-02 -0.11161395E-02  0.64163053E-02
  0.19489792E-02  0.92066695E-02 -0.49359953E-02
 -0.48061364E-02 -0.16837007E-02 -0.69308750E-03
  0.80451098E-03  0.63958978E-02  0.38736885E-02
 -0.69337234E-02  0.32820559E-02 -0.15881517E-02
 -0.14062747E-02 -0.91775818E-03 -0.48042645E-02
 -0.12171261E-02  0.14886007E-02 -0.68990625E-03
  0.22838885E-02 -0.57007495E-02  0.25727383E-02
  0.79549526E-02  0.27873971E-03  0.36936648E-02
  0.54054330E-02  0.85354086E-03 -0.21781112E-02
 -0.50818083E-02 -0.41216853E-03  0.47812889E-02
  0.17101261E-02  0.15762137E-02 -0.18517153E-02
  0.33804664E-02  0.22179969E-02  0.77984078E-03
 -0.28420806E-02 -0.32267533E-02  0.18004053E-03
  0.30913501E-02  0.25176243E-02 -0.67313739E-03
  0.98489443E-03 -0.45469417E-02 -0.13579628E-02
 -0.32456346E-02  0.45272896E-02 -0.64330016E-02
  0.45983823E-02  0.22182631E-02  0.38191609E-02
  0.31252256E-02 -0.32656939E-02  0.45946955E-03
  0.67919532E-03 -0.28672107E-03 -0.35453841E-02
 -0.65235748E-02 -0.75561820E-02 -0.67131303E-02
  0.26601123E-02 -0.53608280E-02  0.65524328E-02
  0.95213166E-02 -0.22090824E-02 -0.13677357E-02
  0.78377484E-03  0.15863590E-02 -0.27335657E-02
  0.17319388E-03  0.70770130E-03  0.33099601E-03
  0.53590873E-02  0.13312754E-02 -0.73882952E-03
 -0.13258072E-02 -0.51862253E-02  0.85993705E-03
  0.12920825E-02  0.33496322E-02 -0.31103902E-02
  0.15003707E-01 -0.13319441E-01 -0.52945216E-02
  0.38998296E-01 -0.17627764E-01 -0.82574033E-02
 -0.15497080E-01  0.10427147E-01  0.90561983E-02
  0.11235541E-01  0.16041038E-01 -0.24625112E-01
  0.11330453E-01  0.15846363E-01 -0.23932074E-01
  0.57499390E-02  0.97897759E-02 -0.16019687E-01
 -0.11076542E-01 -0.22733567E-01  0.24576335E-02
 -0.11892749E-01 -0.15043671E-01  0.45634122E-02
 -0.17067631E-01 -0.21084746E-01  0.13024300E-02
  0.76088486E-03 -0.38460926E-01  0.17481534E-01
 -0.88111560E-02 -0.13487492E-01  0.26034592E-01
 -0.35312773E-02 -0.88679585E-03 -0.14054018E-01
 -0.32649814E-02 -0.29480687E-01 -0.74805530E-02
  0.20525398E-01  0.75177400E-02 -0.29348483E-02
 -0.82729063E-02 -0.71008693E-02  0.54334612E-02
  0.98497750E-02  0.74717498E-02  0.16911129E-02
 -0.87609555E-02 -0.12896769E-02 -0.26844116E-02
  0.24457098E-02  0.11917078E-01 -0.64482364E-02
 -0.11343075E-01  0.68517882E-02 -0.24453540E-02
  0.31983489E-01  0.13544653E-02 -0.13464249E-01
 -0.17713543E-01  0.24718997E-01 -0.44381201E-02
 -0.21103971E-01 -0.81030537E-02  0.39137642E-02
  0.18702248E-01  0.22830318E-01 -0.17058284E-01
  0.19555658E-02 -0.31430428E-01  0.22845661E-01
  0.86992899E-02 -0.65090430E-02 -0.28405608E-01
 -0.62233334E-02  0.20400453E-01  0.13703429E-01
  0.18818787E-01  0.61044648E-04  0.17469882E-01
 -0.11309841E-02  0.30849273E-01  0.19322931E-01
  0.87668287E-02 -0.22970839E-02  0.16308009E-01
 -0.59740847E-02  0.20860631E-01 -0.18078338E-01
 -0.80924549E-02 -0.82560470E-03 -0.29228927E-01
 -0.15927957E-01 -0.15100769E-01  0.63903525E-02
 -0.92116436E-02  0.11880400E-01  0.44903007E-02
 -0.27070588E-02  0.10115540E-01 -0.15047520E-01
 -0.19467059E-02 -0.33567024E-02  0.19413337E-01
  0.34092028E-03  0.85369885E-02  0.14195362E-02
  0.80596038E-02 -0.21347795E-01  0.25945119E-02
  0.40396332E-02 -0.21435065E-01  0.65729500E-02
  0.13230210E-01  0.13372903E-01 -0.16797405E-01
  0.12970170E-01  0.73284122E-02  0.24188357E-02
 -0.28328160E-01  0.74675635E-02  0.83095857E-02
 -0.15677845E-01 -0.33964631E-02 -0.49649113E-02
  0.90025977E-02 -0.52161642E-02 -0.28664157E-01
  0.19790435E-03 -0.11600917E-01 -0.80532850E-02
 -0.22137145E-01 -0.89069531E-02 -0.17260610E-02
 -0.37718336E-02 -0.32703049E-02 -0.18515736E-01
 -0.17099943E-01 -0.31603932E-01 -0.54735189E-02
  0.22895406E-01 -0.12685794E-01  0.12329271E-01
  0.32883706E-02  0.19617123E-01  0.16735610E-01
 -0.81894251E-02  0.22344337E-01  0.77157763E-02
  0.62889462E-02 -0.32819307E-02 -0.11926529E-01
 -0.20816875E-02 -0.46673263E-02  0.81590494E-02
  0.10500295E-01  0.94825218E-02 -0.22314069E-01
  0.54072482E-02  0.21273324E-01 -0.40472342E-03
  0.70748984E-02  0.14672789E-01  0.21414320E-01
 -0.33550978E-02  0.11629297E-01  0.26240230E-01
 -0.12555256E-02 -0.94122868E-02 -0.76211187E-03
  0.23169686E-01  0.20429252E-01 -0.36662871E-02
  0.19948718E-01  0.35326355E-01 -0.13795790E-01
 -0.15368225E-03  0.79400111E-02 -0.86555987E-02
 -0.55942793E-02 -0.12646672E-01  0.19485848E-02
 -0.22509220E-02  0.75956419E-03  0.40466673E-02
 -0.36927983E-02 -0.79902268E-02 -0.32108905E-02
 -0.12072137E-01 -0.43364912E-02  0.17554867E-01
 
           1
   1.00000000000000     
  0.17015401E+00 -0.44462186E-02 -0.31715791E-02  0.17396291E+00
  0.79327492E-01  0.81670882E-01  0.11859598E+00
  0.34084966E+00  0.80061727E-01  0.12107987E+00
  0.33278514E+00  0.83843239E+00  0.12349916E+00
  0.57618279E+00  0.34263936E+00  0.12242690E+00
  0.34134402E+00  0.58141823E+00  0.12396463E+00
  0.34426240E+00  0.33624919E+00  0.12044903E+00
  0.83338178E+00  0.83335824E-01  0.11729823E+00
  0.59668106E+00  0.90733516E-01  0.12121597E+00
  0.82458984E+00  0.32978584E+00  0.12169579E+00
  0.59037117E+00  0.59191032E+00  0.11985840E+00
  0.87177670E-01  0.83083521E+00  0.12153742E+00
  0.57947444E+00  0.83758115E+00  0.11963736E+00
  0.90815471E-01  0.33007166E+00  0.12354577E+00
  0.83426660E+00  0.58205124E+00  0.12093091E+00
  0.83281071E-01  0.57880583E+00  0.12192700E+00
  0.84125487E+00  0.82869511E+00  0.11982619E+00
  0.16083152E+00  0.16758468E+00  0.18672022E+00
  0.16804463E+00  0.90319546E+00  0.18675605E+00
  0.41289007E+00  0.17687457E+00  0.18651067E+00
  0.41472772E+00  0.92020922E+00  0.19045181E+00
  0.41262764E+00  0.43044942E+00  0.19059779E+00
  0.42678957E+00  0.66213481E+00  0.18490610E+00
  0.91310072E+00  0.17049843E+00  0.18778523E+00
  0.67079216E+00  0.16580713E+00  0.18728436E+00
  0.66928820E+00  0.41382304E+00  0.18815730E+00
  0.16453307E+00  0.66131350E+00  0.18801626E+00
  0.91708860E+00  0.42249837E+00  0.18683587E+00
  0.67371518E+00  0.66384560E+00  0.18585655E+00
  0.91125254E+00  0.91650539E+00  0.19156620E+00
  0.66128306E+00  0.92294881E+00  0.18647858E+00
  0.17012925E+00  0.41581908E+00  0.19062403E+00
  0.92113290E+00  0.66606763E+00  0.18776256E+00
  0.25283862E+00  0.99195679E+00  0.25471562E+00
  0.50431215E+00  0.24631483E+00  0.25284454E+00
  0.50581096E+00  0.49695960E+00  0.25720322E+00
  0.24460708E+00  0.25852792E+00  0.25723497E+00
  0.56617986E-02  0.23764487E+00  0.25731487E+00
  0.74219266E+00  0.25258683E+00  0.25241560E+00
  0.51975200E+00  0.74492669E+00  0.25140859E+00
  0.25131332E+00  0.76348429E+00  0.25554611E+00
  0.50860440E+00  0.98809863E+00  0.25623423E+00
  0.98920743E+00  0.10462239E-01  0.25299924E+00
  0.23616022E+00  0.51411090E+00  0.25532291E+00
  0.75937229E+00  0.48828533E+00  0.25470950E+00
  0.74617157E+00  0.62498162E-02  0.26251060E+00
  0.99090008E+00  0.75188111E+00  0.26358854E+00
  0.75874298E+00  0.73830540E+00  0.25187342E+00
  0.98840267E+00  0.50075961E+00  0.25679743E+00
  0.24880999E+00  0.18900000E-02  0.53072593E-01
  0.49865999E+00  0.25202998E+00  0.53072593E-01
  0.49871007E+00  0.50195001E+00  0.53072593E-01
  0.24866999E+00  0.25196001E+00  0.53072593E-01
  0.99883002E+00  0.25200001E+00  0.53072593E-01
  0.74870005E+00  0.25212000E+00  0.53072593E-01
  0.49868997E+00  0.75209997E+00  0.53072593E-01
  0.24876996E+00  0.75212003E+00  0.53072593E-01
  0.49859998E+00  0.21100000E-02  0.53072593E-01
  0.99877003E+00  0.22100000E-02  0.53072593E-01
  0.24875001E+00  0.50212003E+00  0.53072593E-01
  0.74866999E+00  0.50226998E+00  0.53072593E-01
  0.74859000E+00  0.24500000E-02  0.53072593E-01
  0.99870005E+00  0.75244997E+00  0.53072593E-01
  0.74866993E+00  0.75243003E+00  0.53072593E-01
  0.99868996E+00  0.50220002E+00  0.53072593E-01
  0.41134080E+00  0.87945786E+00  0.57309866E+00
  0.48252877E+00  0.27282617E+00  0.64543521E+00
  0.76425670E+00  0.35524216E+00  0.35687351E+00
  0.55708141E+00  0.17154621E+00  0.43182116E+00
  0.26848133E-01  0.45636324E-01  0.35979323E+00
  0.49270290E+00  0.55050315E+00  0.57671953E+00
  0.94488141E+00  0.43042414E+00  0.43512261E+00
  0.24237384E+00  0.59394617E+00  0.37997385E+00
  0.74780319E+00  0.41806569E-01  0.32645166E+00
  0.51218445E+00  0.45076690E+00  0.41777627E+00
  0.39721780E+00  0.78436986E+00  0.44409840E+00
  0.79056195E+00  0.31558112E+00  0.55699851E+00
  0.63585436E+00  0.12191167E+00  0.55870643E+00
  0.92291615E+00  0.20639208E+00  0.48497467E+00
  0.22691642E-01  0.57882543E+00  0.58933268E+00
  0.85376753E+00  0.49077495E-01  0.43514667E+00
  0.11542170E+00  0.77088311E+00  0.45619587E+00
  0.23266461E+00  0.57301159E+00  0.52750897E+00
  0.32592681E+00  0.63323901E+00  0.65494480E+00
  0.68911714E-01  0.29384052E+00  0.58702746E+00
  0.10855944E-01  0.80242226E+00  0.64517222E+00
  0.72839252E+00  0.81845106E+00  0.55809928E+00
  0.73733151E+00  0.67184607E+00  0.35051114E+00
  0.27888466E+00  0.99835304E-01  0.64009449E+00
  0.67847188E+00  0.74867217E+00  0.46822143E+00
  0.24735509E+00  0.93434153E-01  0.51254111E+00
  0.33677183E+00  0.93219152E+00  0.35682154E+00
  0.38642589E+00  0.27813432E+00  0.50692546E+00
  0.32004362E+00  0.60340490E+00  0.30120396E+00
  0.44573004E+00  0.15177074E+00  0.35406957E+00
  0.51854801E+00  0.87061857E+00  0.57360292E+00
  0.43930328E+00  0.76700969E+00  0.57467271E+00
  0.52355919E+00  0.25948864E+00  0.61658189E+00
  0.39392877E+00  0.38162523E+00  0.64800175E+00
  0.73717462E+00  0.33029349E+00  0.32747082E+00
  0.87352628E+00  0.25733970E+00  0.35989657E+00
  0.51064357E+00  0.17897727E+00  0.46051160E+00
  0.67443468E+00  0.11719364E+00  0.43542188E+00
  0.13829019E+00  0.22109605E-01  0.35448511E+00
  0.98748521E+00  0.46738636E-01  0.33038407E+00
  0.44195651E+00  0.56310984E+00  0.60707394E+00
  0.41484016E+00  0.55816916E+00  0.55395318E+00
  0.85340855E+00  0.53207265E+00  0.44215563E+00
  0.98670410E+00  0.42681068E+00  0.40567885E+00
  0.18701262E+00  0.64598283E+00  0.40595621E+00
  0.34972992E+00  0.52671019E+00  0.38994051E+00
  0.63414238E+00  0.91123013E-01  0.33499486E+00
  0.81404467E+00  0.93541682E+00  0.33634366E+00
  0.60551790E+00  0.42988094E+00  0.40014867E+00
  0.54092693E+00  0.33709445E+00  0.42456871E+00
  0.37436313E+00  0.81890036E+00  0.41230799E+00
  0.44122747E+00  0.66193534E+00  0.44385744E+00
  0.88281699E+00  0.30951964E+00  0.57157733E+00
  0.69046320E+00  0.40147365E+00  0.56721303E+00
  0.53502937E+00  0.18894451E+00  0.53978619E+00
  0.70663005E+00  0.16425249E+00  0.56370492E+00
  0.83673880E+00  0.28323851E+00  0.50446376E+00
  0.96136501E+00  0.27294862E+00  0.46794746E+00
  0.91421468E+00  0.64828684E+00  0.57834526E+00
  0.30833988E-01  0.47500393E+00  0.59385683E+00
  0.91332712E+00  0.55159049E-01  0.41012391E+00
  0.88589476E+00  0.93534583E-01  0.46117578E+00
  0.14238628E-01  0.85545024E+00  0.44415121E+00
  0.17994430E+00  0.82253003E+00  0.45801340E+00
  0.15600018E+00  0.64854336E+00  0.50572079E+00
  0.16257160E+00  0.56669521E+00  0.55133652E+00
  0.36291237E+00  0.61732118E+00  0.68497873E+00
  0.20583539E+00  0.71218661E+00  0.65412437E+00
  0.13741906E+00  0.24072519E+00  0.56157200E+00
  0.12273095E+00  0.23337943E+00  0.61408808E+00
  0.96485350E+00  0.80702204E+00  0.67378663E+00
  0.71342687E-02  0.71175007E+00  0.63119221E+00
  0.73068496E+00  0.92020777E+00  0.55969510E+00
  0.74546359E+00  0.79705508E+00  0.52699907E+00
  0.76724708E+00  0.56099014E+00  0.34955110E+00
  0.67770339E+00  0.71163923E+00  0.32253504E+00
  0.32899419E+00  0.39957701E-02  0.62234060E+00
  0.35800594E+00  0.12871022E+00  0.64784474E+00
  0.56056990E+00  0.77672387E+00  0.46427942E+00
  0.69377880E+00  0.80875347E+00  0.44349248E+00
  0.14040070E+00  0.10954935E+00  0.50813858E+00
  0.30095355E+00  0.12457940E-02  0.53450076E+00
  0.36502724E+00  0.86291868E+00  0.33067492E+00
  0.37822385E+00  0.32480434E-02  0.35215795E+00
  0.32271280E+00  0.39893364E+00  0.51170538E+00
  0.31916297E+00  0.22976773E+00  0.51118280E+00
  0.27696393E+00  0.61860781E+00  0.32988628E+00
  0.78284528E-01  0.66509370E+00  0.34281313E+00
  0.38553909E+00  0.25466572E+00  0.33894758E+00
  0.47102904E+00  0.16369942E+00  0.38507206E+00
  0.82285693E-01  0.32611101E+00  0.30071270E+00
  0.79408990E-01  0.33494983E+00  0.34012364E+00
  0.97367464E+00  0.74025662E+00  0.33067317E+00
  0.89969387E+00  0.70321713E+00  0.33841521E+00
  0.00000000E+00  0.00000000E+00  0.00000000E+00
  0.00000000E+00  0.00000000E+00  0.00000000E+00
  0.00000000E+00  0.00000000E+00  0.00000000E+00
  0.00000000E+00  0.00000000E+00  0.00000000E+00
  0.00000000E+00  0.00000000E+00  0.00000000E+00
  0.00000000E+00  0.00000000E+00  0.00000000E+00
  0.00000000E+00  0.00000000E+00  0.00000000E+00
  0.00000000E+00  0.00000000E+00  0.00000000E+00
  0.00000000E+00  0.00000000E+00  0.00000000E+00
  0.00000000E+00  0.00000000E+00  0.00000000E+00
  0.00000000E+00  0.00000000E+00  0.00000000E+00
  0.00000000E+00  0.00000000E+00  0.00000000E+00
  0.00000000E+00  0.00000000E+00  0.00000000E+00
  0.00000000E+00  0.00000000E+00  0.00000000E+00
  0.00000000E+00  0.00000000E+00  0.00000000E+00
  0.00000000E+00  0.00000000E+00  0.00000000E+00
  0.00000000E+00  0.00000000E+00  0.00000000E+00
  0.00000000E+00  0.00000000E+00  0.00000000E+00
  0.00000000E+00  0.00000000E+00  0.00000000E+00
  0.00000000E+00  0.00000000E+00  0.00000000E+00
  0.00000000E+00  0.00000000E+00  0.00000000E+00
  0.00000000E+00  0.00000000E+00  0.00000000E+00
  0.00000000E+00  0.00000000E+00  0.00000000E+00
  0.00000000E+00  0.00000000E+00  0.00000000E+00
  0.00000000E+00  0.00000000E+00  0.00000000E+00
  0.00000000E+00  0.00000000E+00  0.00000000E+00
  0.00000000E+00  0.00000000E+00  0.00000000E+00
  0.00000000E+00  0.00000000E+00  0.00000000E+00
  0.00000000E+00  0.00000000E+00  0.00000000E+00
  0.00000000E+00  0.00000000E+00  0.00000000E+00
  0.00000000E+00  0.00000000E+00  0.00000000E+00
  0.00000000E+00  0.00000000E+00  0.00000000E+00
  0.00000000E+00  0.00000000E+00  0.00000000E+00
  0.00000000E+00  0.00000000E+00  0.00000000E+00
  0.00000000E+00  0.00000000E+00  0.00000000E+00
  0.00000000E+00  0.00000000E+00  0.00000000E+00
  0.00000000E+00  0.00000000E+00  0.00000000E+00
  0.00000000E+00  0.00000000E+00  0.00000000E+00
  0.00000000E+00  0.00000000E+00  0.00000000E+00
  0.00000000E+00  0.00000000E+00  0.00000000E+00
  0.00000000E+00  0.00000000E+00  0.00000000E+00
  0.00000000E+00  0.00000000E+00  0.00000000E+00
  0.00000000E+00  0.00000000E+00  0.00000000E+00
  0.00000000E+00  0.00000000E+00  0.00000000E+00
  0.00000000E+00  0.00000000E+00  0.00000000E+00
  0.00000000E+00  0.00000000E+00  0.00000000E+00
  0.00000000E+00  0.00000000E+00  0.00000000E+00
  0.00000000E+00  0.00000000E+00  0.00000000E+00
  0.00000000E+00  0.00000000E+00  0.00000000E+00
  0.00000000E+00  0.00000000E+00  0.00000000E+00
  0.00000000E+00  0.00000000E+00  0.00000000E+00