Pd                                      
   1.00000000000000     
    10.9451000000000001    0.0000000000000000    0.0000000000000007
    -5.4725499999999991    9.4787346469610601    0.0000000000000007
     0.0000000000000000    0.0000000000000000   21.7025000000000006
   Pd   H 
    64     1
Selective dynamics
Direct
  0.9999991999999978  0.0000008000000022  0.9976446000000010   F   F   F
  0.3333354000000028  0.1666679000000002  0.1027069000000012   F   F   F
  0.1669314361576892  0.3337346291934821  0.2067992864689213   T   T   T
  0.0000366949282228 -0.0000056215771635  0.3120085493786113   T   T   T
  0.2499991999999978  0.0000008000000022  0.9976446000000010   F   F   F
  0.0833320999999998  0.1666679000000002  0.1027069000000012   F   F   F
  0.4168076462648256  0.3333516371123715  0.2065937194697775   T   T   T
  0.2500761851806467  0.0003499927539175  0.3119739643134728   T   T   T
  0.2499991999999978  0.2500008000000022  0.9976446000000010   F   F   F
  0.0833320999999998  0.4166679000000002  0.1027069000000012   F   F   F
  0.4167508849545763  0.0832782356262699  0.2065959880144932   T   T   T
  0.2501262189299652  0.2495903577779098  0.3119373718673253   T   T   T
  0.9999991999999978  0.2500008000000022  0.9976446000000010   F   F   F
  0.3333354000000028  0.4166679000000002  0.1027069000000012   F   F   F
  0.1667238397476387  0.0833161964369332  0.2064287196540336   T   T   T
 -0.0002547694041461  0.2495462341896276  0.3119495228231628   T   T   T
  0.4999991999999978  0.0000008000000022  0.9976446000000010   F   F   F
  0.8333320999999998  0.1666679000000002  0.1027069000000012   F   F   F
  0.6667669073049164  0.3332943499291151  0.2066573620922969   T   T   T
  0.5012093627078787  0.0021808961726279  0.3122549378904177   T   T   T
  0.7499991999999978  0.0000008000000022  0.9976446000000010   F   F   F
  0.5833320999999998  0.1666679000000002  0.1027069000000012   F   F   F
  0.9167726608449975  0.3333614162857246  0.2066137368186286   T   T   T
  0.7504550955502883  0.0002936651500500  0.3119474879334759   T   T   T
  0.7499991999999978  0.2500008000000022  0.9976446000000010   F   F   F
  0.5833320999999998  0.4166679000000002  0.1027069000000012   F   F   F
  0.9166692078059347  0.0833366495012948  0.2064516234300825   T   T   T
  0.7501785613547032  0.2498444216375178  0.3120853217631698   T   T   T
  0.4999991999999978  0.2500008000000022  0.9976446000000010   F   F   F
  0.8333320999999998  0.4166679000000002  0.1027069000000012   F   F   F
  0.6666601924549439  0.0832681698136232  0.2066133685981433   T   T   T
  0.5000231357775804  0.2498464774030589  0.3120037125810609   T   T   T
  0.9999991999999978  0.5000008000000022  0.9976446000000010   F   F   F
  0.3333354000000028  0.6666645999999972  0.1027069000000012   F   F   F
  0.1669062566046926  0.8331188521980498  0.2067999787304954   T   T   T
 -0.0021212912904303  0.4988294220218810  0.3122456201509020   T   T   T
  0.2499991999999978  0.5000008000000022  0.9976446000000010   F   F   F
  0.0833320999999998  0.6666645999999972  0.1027069000000012   F   F   F
  0.4166909746770400  0.8331621158050468  0.2073007381892421   T   T   T
  0.2485789835102283  0.4969387896340570  0.3135756338000207   T   T   T
  0.2499991999999978  0.7500008000000022  0.9976446000000010   F   F   F
  0.0833320999999998  0.9166679000000002  0.1027069000000012   F   F   F
  0.4166534926133512  0.5833839126757081  0.2073154410949382   T   T   T
  0.2485145423797936  0.7515170565434454  0.3134993954684593   T   T   T
  0.9999991999999978  0.7500008000000022  0.9976446000000010   F   F   F
  0.3333354000000028  0.9166679000000002  0.1027069000000012   F   F   F
  0.1668571756951105  0.5833518429748157  0.2073052725261645   T   T   T
 -0.0002946405375951  0.7499729681645770  0.3119822286981009   T   T   T
  0.4999991999999978  0.5000008000000022  0.9976446000000010   F   F   F
  0.8333320999999998  0.6666645999999972  0.1027069000000012   F   F   F
  0.6662643499544099  0.8330707553077855  0.2067973676533327   T   T   T
  0.5012056420468002  0.4988064024955588  0.3122394918221591   T   T   T
  0.7499991999999978  0.5000008000000022  0.9976446000000010   F   F   F
  0.5833320999999998  0.6666645999999972  0.1027069000000012   F   F   F
  0.9167037411442778  0.8332970382337099  0.2064326764844609   T   T   T
  0.7501731975052172  0.5000610017085981  0.3120397175775277   T   T   T
  0.7499991999999978  0.7500008000000022  0.9976446000000010   F   F   F
  0.5833320999999998  0.9166679000000002  0.1027069000000012   F   F   F
  0.9167831820269379  0.5832881325255208  0.2065988556460812   T   T   T
  0.7504166926623915  0.7499300335352009  0.3119418825666158   T   T   T
  0.4999991999999978  0.7500008000000022  0.9976446000000010   F   F   F
  0.8333320999999998  0.9166679000000002  0.1027069000000012   F   F   F
  0.6666872194150807  0.5832211595101665  0.2065958524666471   T   T   T
  0.5030429289627657  0.7514340171460380  0.3136061013693326   T   T   T
  0.3332956110628880  0.6666446556584974  0.3515421157529350   T   T   T
 
  0.00000000E+00  0.00000000E+00  0.00000000E+00
  0.00000000E+00  0.00000000E+00  0.00000000E+00
  0.00000000E+00  0.00000000E+00  0.00000000E+00
  0.00000000E+00  0.00000000E+00  0.00000000E+00
  0.00000000E+00  0.00000000E+00  0.00000000E+00
  0.00000000E+00  0.00000000E+00  0.00000000E+00
  0.00000000E+00  0.00000000E+00  0.00000000E+00
  0.00000000E+00  0.00000000E+00  0.00000000E+00
  0.00000000E+00  0.00000000E+00  0.00000000E+00
  0.00000000E+00  0.00000000E+00  0.00000000E+00
  0.00000000E+00  0.00000000E+00  0.00000000E+00
  0.00000000E+00  0.00000000E+00  0.00000000E+00
  0.00000000E+00  0.00000000E+00  0.00000000E+00
  0.00000000E+00  0.00000000E+00  0.00000000E+00
  0.00000000E+00  0.00000000E+00  0.00000000E+00
  0.00000000E+00  0.00000000E+00  0.00000000E+00
  0.00000000E+00  0.00000000E+00  0.00000000E+00
  0.00000000E+00  0.00000000E+00  0.00000000E+00
  0.00000000E+00  0.00000000E+00  0.00000000E+00
  0.00000000E+00  0.00000000E+00  0.00000000E+00
  0.00000000E+00  0.00000000E+00  0.00000000E+00
  0.00000000E+00  0.00000000E+00  0.00000000E+00
  0.00000000E+00  0.00000000E+00  0.00000000E+00
  0.00000000E+00  0.00000000E+00  0.00000000E+00
  0.00000000E+00  0.00000000E+00  0.00000000E+00
  0.00000000E+00  0.00000000E+00  0.00000000E+00
  0.00000000E+00  0.00000000E+00  0.00000000E+00
  0.00000000E+00  0.00000000E+00  0.00000000E+00
  0.00000000E+00  0.00000000E+00  0.00000000E+00
  0.00000000E+00  0.00000000E+00  0.00000000E+00
  0.00000000E+00  0.00000000E+00  0.00000000E+00
  0.00000000E+00  0.00000000E+00  0.00000000E+00
  0.00000000E+00  0.00000000E+00  0.00000000E+00
  0.00000000E+00  0.00000000E+00  0.00000000E+00
  0.00000000E+00  0.00000000E+00  0.00000000E+00
  0.00000000E+00  0.00000000E+00  0.00000000E+00
  0.00000000E+00  0.00000000E+00  0.00000000E+00
  0.00000000E+00  0.00000000E+00  0.00000000E+00
  0.00000000E+00  0.00000000E+00  0.00000000E+00
  0.00000000E+00  0.00000000E+00  0.00000000E+00
  0.00000000E+00  0.00000000E+00  0.00000000E+00
  0.00000000E+00  0.00000000E+00  0.00000000E+00
  0.00000000E+00  0.00000000E+00  0.00000000E+00
  0.00000000E+00  0.00000000E+00  0.00000000E+00
  0.00000000E+00  0.00000000E+00  0.00000000E+00
  0.00000000E+00  0.00000000E+00  0.00000000E+00
  0.00000000E+00  0.00000000E+00  0.00000000E+00
  0.00000000E+00  0.00000000E+00  0.00000000E+00
  0.00000000E+00  0.00000000E+00  0.00000000E+00
  0.00000000E+00  0.00000000E+00  0.00000000E+00
  0.00000000E+00  0.00000000E+00  0.00000000E+00
  0.00000000E+00  0.00000000E+00  0.00000000E+00
  0.00000000E+00  0.00000000E+00  0.00000000E+00
  0.00000000E+00  0.00000000E+00  0.00000000E+00
  0.00000000E+00  0.00000000E+00  0.00000000E+00
  0.00000000E+00  0.00000000E+00  0.00000000E+00
  0.00000000E+00  0.00000000E+00  0.00000000E+00
  0.00000000E+00  0.00000000E+00  0.00000000E+00
  0.00000000E+00  0.00000000E+00  0.00000000E+00
  0.00000000E+00  0.00000000E+00  0.00000000E+00
  0.00000000E+00  0.00000000E+00  0.00000000E+00
  0.00000000E+00  0.00000000E+00  0.00000000E+00
  0.00000000E+00  0.00000000E+00  0.00000000E+00
  0.00000000E+00  0.00000000E+00  0.00000000E+00
  0.00000000E+00  0.00000000E+00  0.00000000E+00
