Zr                                      
   1.00000000000000     
    12.8199000000000005    0.0000000000000000    0.0000000000000008
    -6.4099499999999985   11.1023590739761264    0.0000000000000008
     0.0000000000000000    0.0000000000000000   17.5865000000000009
   Zr   H 
    64     1
Selective dynamics
Direct
  0.0833299999999966  0.1666700000000034  0.0000000000000000   F   F   F
  0.0832288349978643  0.1662778537175380  0.2927278238597845   T   T   T
  0.1666700000000034  0.0833299999999966  0.1437900000000027   F   F   F
  0.1659172096210016  0.0827452839094187  0.4316214972031599   T   T   T
  0.3333332999999996  0.1666700000000034  0.0000000000000000   F   F   F
  0.3340701880564078  0.1668161417118988  0.2944384847460628   T   T   T
  0.4166700000000034  0.0833299999999966  0.1437900000000027   F   F   F
  0.4170994989995216  0.0825329909572932  0.4329976317065218   T   T   T
  0.5833299999999966  0.1666700000000034  0.0000000000000000   F   F   F
  0.5826161787715999  0.1650478044094128  0.2938932053494939   T   T   T
  0.6666667000000004  0.0833299999999966  0.1437900000000027   F   F   F
  0.6655864165549272  0.0824663199287766  0.4329708736901164   T   T   T
  0.8333299999999966  0.1666700000000034  0.0000000000000000   F   F   F
  0.8329865356519047  0.1667043399088977  0.2943231484734020   T   T   T
  0.9166700000000034  0.0833299999999966  0.1437900000000027   F   F   F
  0.9169642406672933  0.0827841714589818  0.4316772550200345   T   T   T
  0.0833299999999966  0.4166700000000034  0.0000000000000000   F   F   F
  0.0836277440399557  0.4164570637705581  0.2939423896504147   T   T   T
  0.1666700000000034  0.3333332999999996  0.1437900000000027   F   F   F
  0.1656054347328821  0.3309094951212350  0.4316748417435511   T   T   T
  0.3333332999999996  0.4166700000000034  0.0000000000000000   F   F   F
  0.3330882733017315  0.4165299542087839  0.2940766375892823   T   T   T
  0.4166700000000034  0.3333332999999996  0.1437900000000027   F   F   F
  0.4173493991081019  0.3344422555844081  0.4328084128245365   T   T   T
  0.5833299999999966  0.4166700000000034  0.0000000000000000   F   F   F
  0.5826754656948685  0.4169492322125889  0.2937397307928079   T   T   T
  0.6666667000000004  0.3333332999999996  0.1437900000000027   F   F   F
  0.6666071691054541  0.3329223027022585  0.4310320458789493   T   T   T
  0.8333299999999966  0.4166700000000034  0.0000000000000000   F   F   F
  0.8344785812436905  0.4169612940266860  0.2938394034326808   T   T   T
  0.9166700000000034  0.3333332999999996  0.1437900000000027   F   F   F
  0.9172607118052731  0.3343705500855089  0.4329047730939198   T   T   T
  0.0833299999999966  0.6666667000000004  0.0000000000000000   F   F   F
  0.0837514509070730  0.6664926625810839  0.2940347896312342   T   T   T
  0.1666700000000034  0.5833299999999966  0.1437900000000027   F   F   F
  0.1704862953509367  0.5848901129956662  0.4340822986391182   T   T   T
  0.3333332999999996  0.6666667000000004  0.0000000000000000   F   F   F
  0.3332972604846622  0.6662220760678824  0.2923446867285864   T   T   T
  0.4166700000000034  0.5833299999999966  0.1437900000000027   F   F   F
  0.4144014124661871  0.5851174821503839  0.4341566827922769   T   T   T
  0.5833299999999966  0.6666667000000004  0.0000000000000000   F   F   F
  0.5830171507668913  0.6664917770655122  0.2941433016805456   T   T   T
  0.6666667000000004  0.5833299999999966  0.1437900000000027   F   F   F
  0.6654486517587612  0.5825149887483034  0.4328431710967665   T   T   T
  0.8333299999999966  0.6666667000000004  0.0000000000000000   F   F   F
  0.8328005167662200  0.6655295861016229  0.2945390233542720   T   T   T
  0.9166700000000034  0.5833299999999966  0.1437900000000027   F   F   F
  0.9171332849375806  0.5825121874666611  0.4329602757305829   T   T   T
  0.0833299999999966  0.9166700000000034  0.0000000000000000   F   F   F
  0.0831614003659908  0.9164733712621264  0.2926476430189574   T   T   T
  0.1666700000000034  0.8333299999999966  0.1437900000000027   F   F   F
  0.1658014275765534  0.8341681996209150  0.4315784141694106   T   T   T
  0.3333332999999996  0.9166700000000034  0.0000000000000000   F   F   F
  0.3331913503686880  0.9159271094565665  0.2938629299859671   T   T   T
  0.4166700000000034  0.8333299999999966  0.1437900000000027   F   F   F
  0.4146839303659174  0.8291485560358095  0.4340536433405389   T   T   T
  0.5833299999999966  0.9166700000000034  0.0000000000000000   F   F   F
  0.5831352164939775  0.9160288434821418  0.2938362983212442   T   T   T
  0.6666667000000004  0.8333299999999966  0.1437900000000027   F   F   F
  0.6686359125482323  0.8341635549630885  0.4315658566851552   T   T   T
  0.8333299999999966  0.9166700000000034  0.0000000000000000   F   F   F
  0.8333837380576696  0.9164336582559952  0.2926693026350268   T   T   T
  0.9166700000000034  0.8333299999999966  0.1437900000000027   F   F   F
  0.9171969740391028  0.8341991511467062  0.4316001552221496   T   T   T
  0.3332665124865534  0.6658822564672298  0.4972129869076469   T   T   T
 
  0.00000000E+00  0.00000000E+00  0.00000000E+00
  0.00000000E+00  0.00000000E+00  0.00000000E+00
  0.00000000E+00  0.00000000E+00  0.00000000E+00
  0.00000000E+00  0.00000000E+00  0.00000000E+00
  0.00000000E+00  0.00000000E+00  0.00000000E+00
  0.00000000E+00  0.00000000E+00  0.00000000E+00
  0.00000000E+00  0.00000000E+00  0.00000000E+00
  0.00000000E+00  0.00000000E+00  0.00000000E+00
  0.00000000E+00  0.00000000E+00  0.00000000E+00
  0.00000000E+00  0.00000000E+00  0.00000000E+00
  0.00000000E+00  0.00000000E+00  0.00000000E+00
  0.00000000E+00  0.00000000E+00  0.00000000E+00
  0.00000000E+00  0.00000000E+00  0.00000000E+00
  0.00000000E+00  0.00000000E+00  0.00000000E+00
  0.00000000E+00  0.00000000E+00  0.00000000E+00
  0.00000000E+00  0.00000000E+00  0.00000000E+00
  0.00000000E+00  0.00000000E+00  0.00000000E+00
  0.00000000E+00  0.00000000E+00  0.00000000E+00
  0.00000000E+00  0.00000000E+00  0.00000000E+00
  0.00000000E+00  0.00000000E+00  0.00000000E+00
  0.00000000E+00  0.00000000E+00  0.00000000E+00
  0.00000000E+00  0.00000000E+00  0.00000000E+00
  0.00000000E+00  0.00000000E+00  0.00000000E+00
  0.00000000E+00  0.00000000E+00  0.00000000E+00
  0.00000000E+00  0.00000000E+00  0.00000000E+00
  0.00000000E+00  0.00000000E+00  0.00000000E+00
  0.00000000E+00  0.00000000E+00  0.00000000E+00
  0.00000000E+00  0.00000000E+00  0.00000000E+00
  0.00000000E+00  0.00000000E+00  0.00000000E+00
  0.00000000E+00  0.00000000E+00  0.00000000E+00
  0.00000000E+00  0.00000000E+00  0.00000000E+00
  0.00000000E+00  0.00000000E+00  0.00000000E+00
  0.00000000E+00  0.00000000E+00  0.00000000E+00
  0.00000000E+00  0.00000000E+00  0.00000000E+00
  0.00000000E+00  0.00000000E+00  0.00000000E+00
  0.00000000E+00  0.00000000E+00  0.00000000E+00
  0.00000000E+00  0.00000000E+00  0.00000000E+00
  0.00000000E+00  0.00000000E+00  0.00000000E+00
  0.00000000E+00  0.00000000E+00  0.00000000E+00
  0.00000000E+00  0.00000000E+00  0.00000000E+00
  0.00000000E+00  0.00000000E+00  0.00000000E+00
  0.00000000E+00  0.00000000E+00  0.00000000E+00
  0.00000000E+00  0.00000000E+00  0.00000000E+00
  0.00000000E+00  0.00000000E+00  0.00000000E+00
  0.00000000E+00  0.00000000E+00  0.00000000E+00
  0.00000000E+00  0.00000000E+00  0.00000000E+00
  0.00000000E+00  0.00000000E+00  0.00000000E+00
  0.00000000E+00  0.00000000E+00  0.00000000E+00
  0.00000000E+00  0.00000000E+00  0.00000000E+00
  0.00000000E+00  0.00000000E+00  0.00000000E+00
  0.00000000E+00  0.00000000E+00  0.00000000E+00
  0.00000000E+00  0.00000000E+00  0.00000000E+00
  0.00000000E+00  0.00000000E+00  0.00000000E+00
  0.00000000E+00  0.00000000E+00  0.00000000E+00
  0.00000000E+00  0.00000000E+00  0.00000000E+00
  0.00000000E+00  0.00000000E+00  0.00000000E+00
  0.00000000E+00  0.00000000E+00  0.00000000E+00
  0.00000000E+00  0.00000000E+00  0.00000000E+00
  0.00000000E+00  0.00000000E+00  0.00000000E+00
  0.00000000E+00  0.00000000E+00  0.00000000E+00
  0.00000000E+00  0.00000000E+00  0.00000000E+00
  0.00000000E+00  0.00000000E+00  0.00000000E+00
  0.00000000E+00  0.00000000E+00  0.00000000E+00
  0.00000000E+00  0.00000000E+00  0.00000000E+00
  0.00000000E+00  0.00000000E+00  0.00000000E+00
