1/16_ML_O               
   1.00000000000000     
     9.8291997910000006    0.0000000000000000    0.0000000000000000
     4.9145998955000003    8.5123367178000002    0.0000000000000000
     0.0000000000000000    0.0000000000000000   19.0128002167000005
   Ni   O 
    64     2
Selective dynamics
Direct
  0.8327397700000034  0.5848465560000022  0.2711432870000010   F   F   F
  0.3327867980000008  0.0844697879999998  0.2704246639999965   F   F   F
  0.8330972790000004  0.0844843389999994  0.2705219090000028   F   F   F
  0.3327105939999981  0.5848667619999972  0.2707228960000023   F   F   F
  0.5829190019999970  0.8349167109999982  0.2711634930000031   F   F   F
  0.8327777980000022  0.8347151279999991  0.2711151239999978   F   F   F
  0.0826775880000028  0.3346015210000033  0.2708706559999996   F   F   F
  0.8330727219999972  0.3345142300000035  0.2709999679999981   F   F   F
  0.5830215809999970  0.5844401120000029  0.2713987529999997   F   F   F
  0.0826841149999993  0.5845832230000028  0.2711662050000001   F   F   F
  0.0827012580000002  0.0848529559999989  0.2705956100000009   F   F   F
  0.5829693680000005  0.0844429140000003  0.2714003030000001   F   F   F
  0.3330761189999976  0.8346145750000034  0.2709240020000010   F   F   F
  0.0825572310000027  0.8344835640000028  0.2708239849999998   F   F   F
  0.3327263890000012  0.3345220980000008  0.2714989779999968   F   F   F
  0.5831073519999990  0.3344676489999969  0.2715477650000011   F   F   F
  0.9160137396983962  0.6681114354319908  0.3759037747101016   T   T   T
  0.9163057105101300  0.4177398845675532  0.3756710089161510   T   T   T
  0.6662326296229948  0.6681517563169447  0.3759227445822492   T   T   T
  0.1670179147796233  0.1666986235161154  0.3761438897856998   T   T   T
  0.9165329051534227  0.1666925435615232  0.3761969020160945   T   T   T
  0.9160268524572995  0.9184714876978833  0.3763774201470958   T   T   T
  0.4158000585257068  0.9184776411536719  0.3763647569299123   T   T   T
  0.4163597442392859  0.1667269929459812  0.3763454688355636   T   T   T
  0.6671981285690423  0.1666960182994355  0.3764064249487596   T   T   T
  0.1662920742035965  0.6681047879299995  0.3758313635912608   T   T   T
  0.4158182924437147  0.6681235550638320  0.3758848797887850   T   T   T
  0.4161588707337471  0.4179378276622119  0.3759278606338217   T   T   T
  0.6658553780943526  0.9185918624925260  0.3782406985957849   T   T   T
  0.1669741137072022  0.4160639111885088  0.3775027385070807   T   T   T
  0.6671261498492310  0.4161109241269271  0.3775974216193531   T   T   T
  0.1657249518249638  0.9187328016525620  0.3780257309115087   T   T   T
  0.9971702446883381  0.2557856278506478  0.4799680758308081   T   T   T
  0.4972399157464343  0.2555926893065001  0.4801767231730118   T   T   T
  0.0028320161418852  0.7444178435703699  0.4808281223428182   T   T   T
  0.5029680398556385  0.7443483473814649  0.4808353986395550   T   T   T
  0.7506342298428021  0.7489619015079441  0.4815449748466721   T   T   T
  0.9989910826160364  0.5010406428778530  0.4816637535757001   T   T   T
  0.7501164265518646  0.5010498138983989  0.4816788429735240   T   T   T
  0.2489290952259611  0.9974610956218011  0.4860835799312523   T   T   T
  0.0037566096482062  0.9974825262323125  0.4861463945930201   T   T   T
  0.5037567042045268  0.9973893918051103  0.4863176090824835   T   T   T
  0.2505461933983910  0.7490140127727665  0.4813660454822111   T   T   T
  0.7490106428708970  0.9973587137942770  0.4863313338737385   T   T   T
  0.2475009912218404  0.2547958043303029  0.4868402221053046   T   T   T
  0.7478216243883165  0.2547837018263260  0.4868997878975457   T   T   T
  0.2499021897793742  0.5009413483479584  0.4817793366320438   T   T   T
  0.4992896909598458  0.5009215167132740  0.4818433653964568   T   T   T
  0.9970725180000031  0.2558556800000034  0.1637004020000035   F   F   F
  0.4999617639999983  0.2500875890000032  0.1643123180000003   F   F   F
  0.9968841080000033  0.7476992010000032  0.1643590629999991   F   F   F
  0.5054475669999974  0.7476858500000034  0.1651548450000035   F   F   F
  0.7507219310000011  0.7486395239999979  0.1651830520000033   F   F   F
  0.9979411360000014  0.5014025569999987  0.1651978490000019   F   F   F
  0.7507272960000009  0.5014379019999993  0.1654730440000023   F   F   F
  0.2484077510000020  0.9989653230000002  0.1655050219999978   F   F   F
  0.0026835649999981  0.9989392760000015  0.1655775309999967   F   F   F
  0.5037178990000015  0.9979203339999998  0.1655856369999995   F   F   F
  0.2483221740000019  0.7533767819999966  0.1658259479999984   F   F   F
  0.7484136819999989  0.9978805780000002  0.1658943890000018   F   F   F
  0.2473094610000004  0.2543786760000017  0.1660089189999994   F   F   F
  0.7483561640000005  0.2543461619999974  0.1660180840000010   F   F   F
  0.2472922059999973  0.4989472629999980  0.1662971379999973   F   F   F
  0.5037960410000011  0.4989156720000025  0.1664085239999977   F   F   F
  0.3332795722109775  0.0833362199900233  0.5452633196537473   T   T   T
  0.8334604700808635  0.0833114222745378  0.5452887266224425   T   T   T
 
  0.00000000E+00  0.00000000E+00  0.00000000E+00
  0.00000000E+00  0.00000000E+00  0.00000000E+00
  0.00000000E+00  0.00000000E+00  0.00000000E+00
  0.00000000E+00  0.00000000E+00  0.00000000E+00
  0.00000000E+00  0.00000000E+00  0.00000000E+00
  0.00000000E+00  0.00000000E+00  0.00000000E+00
  0.00000000E+00  0.00000000E+00  0.00000000E+00
  0.00000000E+00  0.00000000E+00  0.00000000E+00
  0.00000000E+00  0.00000000E+00  0.00000000E+00
  0.00000000E+00  0.00000000E+00  0.00000000E+00
  0.00000000E+00  0.00000000E+00  0.00000000E+00
  0.00000000E+00  0.00000000E+00  0.00000000E+00
  0.00000000E+00  0.00000000E+00  0.00000000E+00
  0.00000000E+00  0.00000000E+00  0.00000000E+00
  0.00000000E+00  0.00000000E+00  0.00000000E+00
  0.00000000E+00  0.00000000E+00  0.00000000E+00
  0.00000000E+00  0.00000000E+00  0.00000000E+00
  0.00000000E+00  0.00000000E+00  0.00000000E+00
  0.00000000E+00  0.00000000E+00  0.00000000E+00
  0.00000000E+00  0.00000000E+00  0.00000000E+00
  0.00000000E+00  0.00000000E+00  0.00000000E+00
  0.00000000E+00  0.00000000E+00  0.00000000E+00
  0.00000000E+00  0.00000000E+00  0.00000000E+00
  0.00000000E+00  0.00000000E+00  0.00000000E+00
  0.00000000E+00  0.00000000E+00  0.00000000E+00
  0.00000000E+00  0.00000000E+00  0.00000000E+00
  0.00000000E+00  0.00000000E+00  0.00000000E+00
  0.00000000E+00  0.00000000E+00  0.00000000E+00
  0.00000000E+00  0.00000000E+00  0.00000000E+00
  0.00000000E+00  0.00000000E+00  0.00000000E+00
  0.00000000E+00  0.00000000E+00  0.00000000E+00
  0.00000000E+00  0.00000000E+00  0.00000000E+00
  0.00000000E+00  0.00000000E+00  0.00000000E+00
  0.00000000E+00  0.00000000E+00  0.00000000E+00
  0.00000000E+00  0.00000000E+00  0.00000000E+00
  0.00000000E+00  0.00000000E+00  0.00000000E+00
  0.00000000E+00  0.00000000E+00  0.00000000E+00
  0.00000000E+00  0.00000000E+00  0.00000000E+00
  0.00000000E+00  0.00000000E+00  0.00000000E+00
  0.00000000E+00  0.00000000E+00  0.00000000E+00
  0.00000000E+00  0.00000000E+00  0.00000000E+00
  0.00000000E+00  0.00000000E+00  0.00000000E+00
  0.00000000E+00  0.00000000E+00  0.00000000E+00
  0.00000000E+00  0.00000000E+00  0.00000000E+00
  0.00000000E+00  0.00000000E+00  0.00000000E+00
  0.00000000E+00  0.00000000E+00  0.00000000E+00
  0.00000000E+00  0.00000000E+00  0.00000000E+00
  0.00000000E+00  0.00000000E+00  0.00000000E+00
  0.00000000E+00  0.00000000E+00  0.00000000E+00
  0.00000000E+00  0.00000000E+00  0.00000000E+00
  0.00000000E+00  0.00000000E+00  0.00000000E+00
  0.00000000E+00  0.00000000E+00  0.00000000E+00
  0.00000000E+00  0.00000000E+00  0.00000000E+00
  0.00000000E+00  0.00000000E+00  0.00000000E+00
  0.00000000E+00  0.00000000E+00  0.00000000E+00
  0.00000000E+00  0.00000000E+00  0.00000000E+00
  0.00000000E+00  0.00000000E+00  0.00000000E+00
  0.00000000E+00  0.00000000E+00  0.00000000E+00
  0.00000000E+00  0.00000000E+00  0.00000000E+00
  0.00000000E+00  0.00000000E+00  0.00000000E+00
  0.00000000E+00  0.00000000E+00  0.00000000E+00
  0.00000000E+00  0.00000000E+00  0.00000000E+00
  0.00000000E+00  0.00000000E+00  0.00000000E+00
  0.00000000E+00  0.00000000E+00  0.00000000E+00
  0.00000000E+00  0.00000000E+00  0.00000000E+00
  0.00000000E+00  0.00000000E+00  0.00000000E+00
