Ni_CO2CH
   1.00000000000000     
     9.8291997910000006    0.0000000000000000    0.0000000000000000
     4.9145998955000003    8.5123367178000002    0.0000000000000000
     0.0000000000000000    0.0000000000000000   19.0128002167000005
   Ni   O    C    H 
    64     2     2     1
Selective dynamics
Direct
      0.8327613603569607      0.5867441045723429      0.2714625974653725   T T T
      0.3319654055078391      0.0873907956528687      0.2706892960848974   T T T
      0.8326960678199191      0.0874623438836879      0.2715589037503181   T T T
      0.3323892592257154      0.5870902316507447      0.2708001663672372   T T T
      0.5823128528916357      0.8373090866668739      0.2702669951117013   T T T
      0.8323908067194929      0.8373380799914143      0.2702853267860464   T T T
      0.0825822933121542      0.3369579698375913      0.2714324889713008   T T T
      0.8333352168909770      0.3366090810744475      0.2718112148684618   T T T
      0.5822948381751905      0.5874904562425929      0.2706446393902989   T T T
      0.0823107414700532      0.5871242018796982      0.2708685193909253   T T T
      0.0820497399469541      0.0874045881724373      0.2713134032803340   T T T
      0.5822401125431567      0.0872977949903571      0.2705665404468274   T T T
      0.3322074977699001      0.8373368910787796      0.2701663430536970   T T T
      0.0822861097976204      0.8372011260558030      0.2705404708882472   T T T
      0.3321054913876387      0.3372683957386662      0.2700429721320293   T T T
      0.5822648944249961      0.3368911089669782      0.2709814366636501   T T T
      0.9158924664105740      0.6696016587816919      0.3763256040665873   T T T
      0.9165009714341218      0.4200643810339793      0.3783415713018831   T T T
      0.6656313823052226      0.6702043020961954      0.3758118150644602   T T T
      0.1648973073758816      0.1708544317867089      0.3767048672666969   T T T
      0.9168846542881783      0.1720848698160022      0.3789213280182800   T T T
      0.9156807965068020      0.9207177480849615      0.3760215083425891   T T T
      0.4158639762477702      0.9202686939996571      0.3754535511585446   T T T
      0.4153273759133302      0.1708053018321550      0.3754855381256210   T T T
      0.6655629697146462      0.1709001323710352      0.3761906797041984   T T T
      0.1660848108730170      0.6700605380314131      0.3759482696482882   T T T
      0.4164057768069546      0.6700687133878941      0.3760110641361162   T T T
      0.4158060704759216      0.4202301479914731      0.3761154920564642   T T T
      0.6663090559937842      0.9200307668207225      0.3755877085261020   T T T
      0.1648762568297720      0.4210522052993776      0.3764706968652423   T T T
      0.6660330291647243      0.4202045809416317      0.3751774381706620   T T T
      0.1654092832867056      0.9202850808882028      0.3758398556139326   T T T
      0.0039950360403068      0.2491825472968941      0.4886783909780043   T T T
      0.4980276181666629      0.2518232231915370      0.4815611645149182   T T T
     -0.0008074160256976      0.7530338724540058      0.4814680609159590   T T T
      0.4981585747524896      0.7560989637194055      0.4812708258856062   T T T
      0.7488822661491996      0.7538904832201702      0.4811351371997411   T T T
      0.9990996854531413      0.5038061138167851      0.4874177718263671   T T T
      0.7470414227882203      0.5061635674525722      0.4845219894205691   T T T
      0.2514970068767270      0.0001297313350371      0.4806612535017595   T T T
      0.0000035839251008      0.0003322868761532      0.4819798237125298   T T T
      0.5000344715564291      0.0029546653078058      0.4809863799482366   T T T
      0.2489076752627423      0.7532780327459037      0.4816812271004045   T T T
      0.7493980749750372      0.0026532068111313      0.4815571654165322   T T T
      0.2527543155680119      0.2517594467379056      0.4804524914375231   T T T
      0.7493627428221132      0.2499302187570274      0.4850392298614252   T T T
      0.2491443884727313      0.5040455410390475      0.4816999414056100   T T T
      0.4946275489754071      0.5054684203516522      0.4852549745006707   T T T
     -0.0010862260584936      0.2539730560553907      0.1658488195240311   F F F
      0.4994719677551167      0.2537391186292038      0.1651445748113006   F F F
     -0.0003456613884809      0.7534274163318355      0.1649422977750385   F F F
      0.4992869659134974      0.7534280183187957      0.1649936638382192   F F F
      0.7497751496213917      0.7531218365267269      0.1651683642978928   F F F
     -0.0008329322984093      0.5037902944917727      0.1655399188108356   F F F
      0.7496735413612212      0.5034719714155277      0.1656880941673756   F F F
      0.2488194376983155      0.0039060389255231      0.1653078495774267   F F F
     -0.0007821537979768      0.0038403967162081      0.1654938912829018   F F F
      0.4992543169109928      0.0035903104156792      0.1652111842130861   F F F
      0.2492839671983453      0.7536629071196528      0.1648095513101988   F F F
      0.7493777064816067      0.0037782929424379      0.1651862051624586   F F F
      0.2488683273129429      0.2538505297273247      0.1652615181606176   F F F
      0.7494791161802032      0.2536619356428129      0.1659114895227875   F F F
      0.2492592152807147      0.5039023602670677      0.1648471345524793   F F F
      0.4993894684546420      0.5036383594387021      0.1654052021835414   F F F
      0.9962405427122406      0.5321526145830753      0.6274018531741284   T T T
      0.0287781580353925      0.2956407437580525      0.5876694756330414   T T T
      0.0093487859912025      0.4341429609194897      0.5847443197109634   T T T
      0.6636085626214953      0.4194254276950957      0.5444050379266219   T T T
      0.6703296973878159      0.4164710823481985      0.6023177450221783   T T T
 
  0.00000000E+00  0.00000000E+00  0.00000000E+00
  0.00000000E+00  0.00000000E+00  0.00000000E+00
  0.00000000E+00  0.00000000E+00  0.00000000E+00
  0.00000000E+00  0.00000000E+00  0.00000000E+00
  0.00000000E+00  0.00000000E+00  0.00000000E+00
  0.00000000E+00  0.00000000E+00  0.00000000E+00
  0.00000000E+00  0.00000000E+00  0.00000000E+00
  0.00000000E+00  0.00000000E+00  0.00000000E+00
  0.00000000E+00  0.00000000E+00  0.00000000E+00
  0.00000000E+00  0.00000000E+00  0.00000000E+00
  0.00000000E+00  0.00000000E+00  0.00000000E+00
  0.00000000E+00  0.00000000E+00  0.00000000E+00
  0.00000000E+00  0.00000000E+00  0.00000000E+00
  0.00000000E+00  0.00000000E+00  0.00000000E+00
  0.00000000E+00  0.00000000E+00  0.00000000E+00
  0.00000000E+00  0.00000000E+00  0.00000000E+00
  0.00000000E+00  0.00000000E+00  0.00000000E+00
  0.00000000E+00  0.00000000E+00  0.00000000E+00
  0.00000000E+00  0.00000000E+00  0.00000000E+00
  0.00000000E+00  0.00000000E+00  0.00000000E+00
  0.00000000E+00  0.00000000E+00  0.00000000E+00
  0.00000000E+00  0.00000000E+00  0.00000000E+00
  0.00000000E+00  0.00000000E+00  0.00000000E+00
  0.00000000E+00  0.00000000E+00  0.00000000E+00
  0.00000000E+00  0.00000000E+00  0.00000000E+00
  0.00000000E+00  0.00000000E+00  0.00000000E+00
  0.00000000E+00  0.00000000E+00  0.00000000E+00
  0.00000000E+00  0.00000000E+00  0.00000000E+00
  0.00000000E+00  0.00000000E+00  0.00000000E+00
  0.00000000E+00  0.00000000E+00  0.00000000E+00
  0.00000000E+00  0.00000000E+00  0.00000000E+00
  0.00000000E+00  0.00000000E+00  0.00000000E+00
  0.00000000E+00  0.00000000E+00  0.00000000E+00
  0.00000000E+00  0.00000000E+00  0.00000000E+00
  0.00000000E+00  0.00000000E+00  0.00000000E+00
  0.00000000E+00  0.00000000E+00  0.00000000E+00
  0.00000000E+00  0.00000000E+00  0.00000000E+00
  0.00000000E+00  0.00000000E+00  0.00000000E+00
  0.00000000E+00  0.00000000E+00  0.00000000E+00
  0.00000000E+00  0.00000000E+00  0.00000000E+00
  0.00000000E+00  0.00000000E+00  0.00000000E+00
  0.00000000E+00  0.00000000E+00  0.00000000E+00
  0.00000000E+00  0.00000000E+00  0.00000000E+00
  0.00000000E+00  0.00000000E+00  0.00000000E+00
  0.00000000E+00  0.00000000E+00  0.00000000E+00
  0.00000000E+00  0.00000000E+00  0.00000000E+00
  0.00000000E+00  0.00000000E+00  0.00000000E+00
  0.00000000E+00  0.00000000E+00  0.00000000E+00
  0.00000000E+00  0.00000000E+00  0.00000000E+00
  0.00000000E+00  0.00000000E+00  0.00000000E+00
  0.00000000E+00  0.00000000E+00  0.00000000E+00
  0.00000000E+00  0.00000000E+00  0.00000000E+00
  0.00000000E+00  0.00000000E+00  0.00000000E+00
  0.00000000E+00  0.00000000E+00  0.00000000E+00
  0.00000000E+00  0.00000000E+00  0.00000000E+00
  0.00000000E+00  0.00000000E+00  0.00000000E+00
  0.00000000E+00  0.00000000E+00  0.00000000E+00
  0.00000000E+00  0.00000000E+00  0.00000000E+00
  0.00000000E+00  0.00000000E+00  0.00000000E+00
  0.00000000E+00  0.00000000E+00  0.00000000E+00
  0.00000000E+00  0.00000000E+00  0.00000000E+00
  0.00000000E+00  0.00000000E+00  0.00000000E+00
  0.00000000E+00  0.00000000E+00  0.00000000E+00
  0.00000000E+00  0.00000000E+00  0.00000000E+00
  0.00000000E+00  0.00000000E+00  0.00000000E+00
  0.00000000E+00  0.00000000E+00  0.00000000E+00
  0.00000000E+00  0.00000000E+00  0.00000000E+00
  0.00000000E+00  0.00000000E+00  0.00000000E+00
  0.00000000E+00  0.00000000E+00  0.00000000E+00
