 Ni\(1\1\1)                             
   1.00000000000000     
     9.8291997910000006    0.0000000000000000    0.0000000000000000
     4.9145998955000003    8.5123367178000002    0.0000000000000000
     0.0000000000000000    0.0000000000000000   33.0128002167000005
   Ni   O    O    H    C    O 
    64     3    30    60     1     1
Selective dynamics
Direct
  0.8259192760041784  0.5841142482851470  0.1214722976261889   T   T   T
  0.3367230796762086  0.0762093603220840  0.1202966618108994   T   T   T
  0.8367228628770496  0.0791991542277052  0.1219461589367062   T   T   T
  0.3454435422400589  0.5725359960702633  0.1211579901337073   T   T   T
  0.5910040718939681  0.8276773187721594  0.1215591861494292   T   T   T
  0.8396773085451585  0.8287187584474470  0.1238013240868794   T   T   T
  0.0850497280535703  0.3319061743402431  0.1211641523805904   T   T   T
  0.8427639637421045  0.3260001058840176  0.1211358319834381   T   T   T
  0.5773905826222221  0.5889761892492276  0.1219609771630981   T   T   T
  0.0722287355332733  0.5797965976732601  0.1209715789693198   T   T   T
  0.0901529660963546  0.0800249064675966  0.1196411602712552   T   T   T
  0.5804198992493024  0.0873236876358888  0.1247469403778041   T   T   T
  0.3293615067805334  0.8363691540543563  0.1228699601238639   T   T   T
  0.0905271836742653  0.8293922044841351  0.1253324927501219   T   T   T
  0.3320910992150888  0.3327815390627120  0.1214695510726917   T   T   T
  0.5905278709723828  0.3336168837742332  0.1242448862865187   T   T   T
  0.9178905367126454  0.6659438868667686  0.1808482195920455   T   T   T
  0.9141019112518386  0.4170481812278503  0.1842658997709266   T   T   T
  0.6663520439144278  0.6696191917014757  0.1824425858382780   T   T   T
  0.1570893953456969  0.1673519738258296  0.1812978270041606   T   T   T
  0.9175504908653924  0.1665923289306061  0.1849002711460072   T   T   T
  0.9043003409531611  0.9281534079198644  0.1824155035981534   T   T   T
  0.4117689584948693  0.9151853626231624  0.1812482887739746   T   T   T
  0.4152379684161061  0.1812848239258051  0.1838454016205667   T   T   T
  0.6664798522392723  0.1686285446010213  0.1843099069781376   T   T   T
  0.1620200832590939  0.6679445665436190  0.1811779508932871   T   T   T
  0.4047683275230723  0.6793950719849583  0.1830745609654248   T   T   T
  0.4193505355420070  0.4216000431000866  0.1852845420268787   T   T   T
  0.6663050427080369  0.9257034169833623  0.1860634989378122   T   T   T
  0.1652982881797750  0.4247903946343052  0.1817621787701872   T   T   T
  0.6611316002212992  0.4213655350695643  0.1830266748558323   T   T   T
  0.1608223139541402  0.9218979638107406  0.1858127895128810   T   T   T
  1.0023023300859710  0.2426339179208067  0.2460511837342775   T   T   T
  0.4919001623614546  0.2519857880928112  0.2500503506353107   T   T   T
  0.9934042788838475  0.7423599716456313  0.2409324052008491   T   T   T
  0.4862923433631616  0.7552841144817966  0.2432959956129202   T   T   T
  0.7469922718978814  0.7488685960729711  0.2403063610002995   T   T   T
  1.0005404679162702  0.4815874653618432  0.2453632373360627   T   T   T
  0.7243246267976188  0.5004812977665232  0.2459711529711253   T   T   T
  0.2379853782485327  1.0099048663827312  0.2482650224765304   T   T   T
  1.0062177889839417  0.9862532583253505  0.2501611273991032   T   T   T
  0.4919090993388056  0.9931663195057122  0.2453579946156205   T   T   T
  0.2237057727968946  0.7508888526991119  0.2457015824073271   T   T   T
  0.7370350286630772  1.0021688130590702  0.2464422619488252   T   T   T
  0.2434780462955278  0.2444007758026827  0.2484613608567928   T   T   T
  0.7416115358418857  0.2438334840642766  0.2494725918077459   T   T   T
  0.2368584258003658  0.4913485310523860  0.2458345885150006   T   T   T
  0.4875538045921258  0.4911537443930883  0.2485422457931479   T   T   T
  0.9970724699999991  0.2558556700000025  0.0591330299999981   F   F   F
  0.4999618000000012  0.2500875799999989  0.0594854499999968   F   F   F
  0.9968841600000005  0.7476992100000004  0.0595123700000002   F   F   F
  0.5054474800000008  0.7476858799999988  0.0599706799999993   F   F   F
  0.7507219800000016  0.7486395099999967  0.0599869200000001   F   F   F
  0.9979410799999968  0.5014025600000025  0.0599954500000024   F   F   F
  0.7507273000000012  0.5014379099999999  0.0601539399999993   F   F   F
  0.2484077399999975  0.9989653599999997  0.0601723600000028   F   F   F
  0.0026835399999996  0.9989392600000002  0.0602141099999969   F   F   F
  0.5037179199999997  0.9979203099999978  0.0602187799999996   F   F   F
  0.2483221499999999  0.7533767700000027  0.0603571799999969   F   F   F
  0.7484137000000004  0.9978805399999970  0.0603965999999971   F   F   F
  0.2473094699999976  0.2543786700000013  0.0604625599999977   F   F   F
  0.7483561800000018  0.2543461500000035  0.0604678400000012   F   F   F
  0.2472921999999969  0.4989472700000022  0.0606285499999970   F   F   F
  0.5037960499999983  0.4989156800000032  0.0606926999999970   F   F   F
  0.3448462588983439  0.0769344334124940  0.2845919078876202   T   T   T
  0.8273643365559278  0.0828823375188044  0.2831605221850963   T   T   T
  0.3172715574795431  0.5828774589167922  0.2809647348325341   T   T   T
  0.0260317043092597  0.4124420011488069  0.6345034965860273   T   T   T
  0.7017038889700987  0.5968407409481568  0.4662609923570169   T   T   T
  0.1993708787063197  0.4500147603879716  0.3976022609731160   T   T   T
  0.0718223023134670  0.5305917279134360  0.4800902673087519   T   T   T
  0.8708279136720191  0.2354545359559475  0.3480593501877313   T   T   T
  0.2035327033629555  0.5686394292673682  0.5509941920764476   T   T   T
  0.8746062216849367  0.6479753765153448  0.2902862514510744   T   T   T
  0.7539284762426142  0.3200113236149957  0.4219715942868911   T   T   T
  0.1098174828551501  0.2829984165879610  0.3503799393897924   T   T   T
  0.8811309281954026  0.8137765845559001  0.5650961569692252   T   T   T
  0.1788486151270288  0.9028155890830658  0.4202317580557525   T   T   T
  0.4057849922587499  1.6350514476337485  0.5886954314629819   T   T   T
  0.5191284242011315  1.0660771295335927  0.5185713564275944   T   T   T
  0.7267674512618846  0.9168321747174978  0.3430320103145243   T   T   T
  0.7818709783160337  0.4561956688623330  0.5740249894590744   T   T   T
  0.3500426921419978  0.9766587190735307  0.3728860583956035   T   T   T
  0.3790036324400237  0.7097217883354319  0.4798935920950574   T   T   T
  0.4357597248117346  0.6876300318866821  0.3404507053239810   T   T   T
  0.8119029393179076  0.9998128958505701  0.5064991445345314   T   T   T
  0.4481647114318563  0.5048104802558833  0.4025031915453744   T   T   T
  0.2152295466148944  0.7350815953874369  0.6549272424988143   T   T   T
 -0.0892147872464388  0.7304730062850541  0.6513068387282943   T   T   T
  0.5351117928995788  0.9393586921269642  0.4420422065942184   T   T   T
 -0.0001689566317579  0.3486191419068885  0.5228679371198692   T   T   T
  0.7263503684309214  0.5025400990684474  0.3126545823934381   T   T   T
  0.6694714301216895  0.7444317723179941  0.5368702003295156   T   T   T
  0.9956278285494697  1.1269000921741716  0.4807664064925256   T   T   T
  0.2567728306469626  0.2807135029714941  0.5724235456206229   T   T   T
  0.8695357231592881  0.7853340488277227  0.4493803853096096   T   T   T
  0.0323355559717837  0.7777025683450132  0.3806257050433471   T   T   T
  0.0495808803260684  0.3673505573452587  0.6613740204298886   T   T   T
  0.1271284101437593  0.3502410663146948  0.6196483175421338   T   T   T
  0.5920836623365763  0.6179480892660566  0.4702968726573169   T   T   T
  0.7656440605756709  0.4923695530504683  0.4530616663016961   T   T   T
  0.1648342408625910  0.4593685949022696  0.4262944511056136   T   T   T
  0.3054886400404646  0.4442915462348786  0.3968032778853315   T   T   T
  0.0476319530321226  0.4575011167106506  0.4948614783999085   T   T   T
  0.1409691323518646  0.5472292036865926  0.5007266438099647   T   T   T
  0.8578757531383518  0.1557980355807975  0.3297001856481204   T   T   T
 -0.0283247761352915  0.2312685338129014  0.3481838279401052   T   T   T
  0.1120572065939980  0.6505280587537895  0.5656851163297232   T   T   T
  0.2051057952442402  0.4650878330772475  0.5553253623009515   T   T   T
  0.8290780874549993  0.5933944185111831  0.3056796104466702   T   T   T
  0.7537526581414281  0.8393674741565285  0.3224049639513423   T   T   T
  0.8002668234379157  0.2668969210052679  0.3939829520687659   T   T   T
  0.8256606261198377  0.2487796585771888  0.4430114119771334   T   T   T
  0.1510486096071814  0.3155871221847129  0.3725597902192114   T   T   T
  0.0895173540898459  0.3664023914468341  0.3293172276361005   T   T   T
 -0.1061407430324897  0.7933966259712502  0.5946180136200924   T   T   T
  0.8059299595908352  0.7824891710846607  0.5564631745510039   T   T   T
  0.1419866686328921  0.8353441643426784  0.4080793308477009   T   T   T
  0.2002170629545264  0.9538295710330326  0.3991427203770385   T   T   T
  0.5129823409326144  1.5511462029778402  0.5946537286098753   T   T   T
  0.3562360087665866  1.5857034103548782  0.5722204376763141   T   T   T
  0.6223759085654672  1.0515742928420642  0.5083948454258574   T   T   T
  0.4722394843487742  1.0414243362004758  0.4943574927101179   T   T   T
  0.8257877822129469 -0.0955702839713571  0.3533102149634882   T   T   T
  0.5755013018139782  0.1296049113901008  0.3145007681096128   T   T   T
  0.7203074555660713  0.5667175113168739  0.5641153680830157   T   T   T
  0.8382164931565332  0.4680432841710799  0.5981744984376558   T   T   T
  0.3491946747293723  1.0426856533480364  0.3511871430524655   T   T   T
  0.4119549417756324  0.8700067479797925  0.3604582070390578   T   T   T
  0.3179252516385677  0.7062259060608663  0.5023503659619718   T   T   T
  0.3058223614463986  0.7888302790844337  0.4590889663623707   T   T   T
  0.4346009083576288  0.6479653821173391  0.3679757504128929   T   T   T
  0.3882208354479756  0.6367988312989691  0.3248591292764199   T   T   T
  0.8546240530843915  0.9538672761156487  0.5355068107067749   T   T   T
  0.8457130918829234  0.9084100605997513  0.4906982432520360   T   T   T
  0.4261365802982776  0.5689302782632766  0.4249943883694556   T   T   T
  0.5584206927175106  0.4165524103197551  0.4106314610769504   T   T   T
  0.2238579680250440  0.8244362889446295  0.6639267706355062   T   T   T
  0.2713313238565271  0.7005763731003990  0.6289345100719494   T   T   T
 -0.0510679275256707  0.6152336983102775  0.6440396011346624   T   T   T
  0.0074768829007480  0.7321438634694059  0.6583927008761228   T   T   T
  0.5500053051698038  0.8350308601296437  0.4487661705104093   T   T   T
  0.4855204534168249  0.9636666704721470  0.4162176757079297   T   T   T
 -0.0129919459818459  0.2699288578786427  0.5060453899887054   T   T   T
  0.9055939043912918  0.4041034385069802  0.5410878258179163   T   T   T
  0.6303909216498480  0.5650439556305102  0.3298164859445677   T   T   T
  0.7819207220687012  0.3927186957036123  0.3231453666693823   T   T   T
  0.6991581012658691  0.6855788864629783  0.5100977835538086   T   T   T
  0.5956230988848172  0.8552648632598514  0.5330369671992042   T   T   T
  0.9511255130781735  1.0562604637064057  0.4887662540087507   T   T   T
  0.0667390070017622  1.0713254465090436  0.4571925480831580   T   T   T
  0.1801159192446865  0.2724501162951979  0.5547497795213400   T   T   T
  0.3582923890594263  1.2104066095451584  0.5594945072959469   T   T   T
  0.9345317865799639  0.6809759331791629  0.4639404591042577   T   T   T
  0.7590231757483414  0.8078828969436089  0.4459017330559760   T   T   T
  0.0851357405861171  0.6633654406643007  0.3767045533996787   T   T   T
  0.9735655993954747  0.7836563594542393  0.4072401371054317   T   T   T
  0.4959036680523198  0.2334343302841294  0.3086031585678526   T   T   T
  0.4085101722458322  0.3323840702611665  0.3298417285838209   T   T   T
 
  0.37132653E-02  0.26701251E-02  0.29989960E-03
 -0.16777996E-02  0.92472089E-03  0.51174021E-03
  0.33810441E-02  0.69194261E-03 -0.18489230E-02
 -0.18308888E-02 -0.58052645E-04 -0.54153949E-03
  0.36496766E-02 -0.25596590E-02 -0.46446353E-03
 -0.78623015E-03 -0.94157847E-03 -0.83169466E-03
 -0.28048533E-03 -0.24142874E-02 -0.19647456E-02
 -0.27439605E-02 -0.21120773E-03  0.96862636E-03
 -0.21806996E-02 -0.10256675E-02  0.14337451E-02
 -0.17730868E-02 -0.14409901E-02  0.59866362E-03
 -0.51441846E-02  0.19920744E-03  0.57285510E-03
 -0.73283407E-03  0.18133151E-02 -0.12785005E-03
  0.16291278E-02  0.40576195E-03  0.32522820E-02
 -0.22852245E-02 -0.21368042E-02 -0.66217643E-03
 -0.34659729E-02 -0.15853711E-02 -0.26942873E-02
 -0.67626294E-03 -0.25898444E-02 -0.15207910E-02
 -0.20759158E-02  0.30951048E-02  0.52549203E-03
  0.26668481E-02 -0.90452070E-03  0.37370067E-03
 -0.21484453E-02 -0.33634041E-02 -0.28928909E-02
  0.27420489E-02  0.39015335E-02 -0.37536910E-02
  0.24048515E-02 -0.17228126E-02  0.25444036E-02
 -0.70099633E-03  0.43219853E-03  0.19994315E-02
 -0.33834428E-03 -0.41984897E-02 -0.17645255E-02
  0.44905850E-02 -0.89930547E-03 -0.83056876E-03
 -0.23769275E-02 -0.15346452E-02 -0.28916813E-03
 -0.28013040E-02 -0.11712732E-02  0.11925937E-02
  0.31305557E-03 -0.59203966E-03  0.12683500E-02
 -0.15378907E-02 -0.13303710E-02 -0.43365009E-02
  0.11059347E-02 -0.93498584E-03  0.56450765E-03
 -0.27913436E-02  0.90089486E-04 -0.14934179E-03
 -0.10167305E-02  0.35025290E-03  0.45444766E-03
  0.12290895E-02  0.44230872E-03  0.25859046E-03
  0.15560365E-02  0.30407497E-02  0.23331403E-03
  0.15650461E-02  0.37417788E-02  0.47980802E-03
  0.83323042E-03  0.18797261E-02  0.22108339E-02
  0.64592794E-03  0.84294969E-03  0.50740479E-03
  0.45545801E-03  0.45859887E-02  0.33023253E-02
 -0.31825144E-02  0.17180775E-02  0.89472056E-04
  0.24646037E-02 -0.11281154E-02  0.69468886E-03
 -0.37109583E-03 -0.45565119E-03 -0.57792599E-03
  0.12598680E-03 -0.29261818E-02 -0.19267562E-02
  0.34339182E-03  0.24291685E-02 -0.37277822E-02
 -0.14032481E-02 -0.13290807E-02  0.65391777E-03
 -0.44998456E-03  0.13090984E-02 -0.12442397E-03
  0.26194894E-02 -0.69835552E-03  0.20032346E-02
  0.62123002E-03 -0.37071579E-03 -0.61361334E-03
 -0.29722390E-02 -0.11069132E-02  0.17767481E-02
 -0.11905236E-02  0.40883329E-02  0.20627979E-02
  0.00000000E+00  0.00000000E+00  0.00000000E+00
  0.00000000E+00  0.00000000E+00  0.00000000E+00
  0.00000000E+00  0.00000000E+00  0.00000000E+00
  0.00000000E+00  0.00000000E+00  0.00000000E+00
  0.00000000E+00  0.00000000E+00  0.00000000E+00
  0.00000000E+00  0.00000000E+00  0.00000000E+00
  0.00000000E+00  0.00000000E+00  0.00000000E+00
  0.00000000E+00  0.00000000E+00  0.00000000E+00
  0.00000000E+00  0.00000000E+00  0.00000000E+00
  0.00000000E+00  0.00000000E+00  0.00000000E+00
  0.00000000E+00  0.00000000E+00  0.00000000E+00
  0.00000000E+00  0.00000000E+00  0.00000000E+00
  0.00000000E+00  0.00000000E+00  0.00000000E+00
  0.00000000E+00  0.00000000E+00  0.00000000E+00
  0.00000000E+00  0.00000000E+00  0.00000000E+00
  0.00000000E+00  0.00000000E+00  0.00000000E+00
 -0.89232915E-02 -0.13653240E-02  0.20792287E-02
 -0.11365020E-03 -0.10044217E-02  0.14694007E-02
 -0.23514358E-04  0.53716783E-02 -0.58259146E-02
  0.18984541E-02 -0.82865777E-03 -0.18172329E-02
  0.76405350E-02 -0.56696155E-03  0.19271443E-02
  0.11884777E-02 -0.26191815E-02  0.91460632E-03
 -0.23672285E-02  0.12231001E-02 -0.17349911E-02
  0.11928011E-02 -0.12625492E-02  0.45548111E-02
 -0.56591663E-02 -0.16771426E-02 -0.13088176E-02
  0.93736990E-03  0.19185007E-02  0.81155292E-03
  0.25209576E-02  0.29483593E-03 -0.10303335E-02
  0.17586907E-02  0.27514908E-02  0.29356854E-03
 -0.40950909E-02  0.84089017E-02  0.51290825E-02
 -0.54510850E-02  0.41039928E-02  0.32897658E-02
 -0.29339558E-03 -0.40809020E-02  0.16569307E-02
 -0.70691893E-02  0.55027006E-02 -0.50233021E-02
 -0.13406571E-02  0.65744373E-02  0.93948391E-02
  0.14910483E-02  0.54220317E-02  0.20249861E-02
 -0.36521099E-03 -0.19011976E-02  0.30273432E-02
  0.41872983E-02 -0.98677952E-03  0.47251404E-02
 -0.49458235E-02 -0.54160567E-02  0.20610912E-02
 -0.13657802E-02  0.24600564E-03  0.43042713E-03
  0.63047865E-02 -0.24556857E-02  0.11219894E-03
  0.32327776E-03 -0.24244724E-02 -0.66544783E-02
  0.21355666E-02  0.55814182E-03 -0.68094416E-03
 -0.99928942E-03  0.18952643E-03  0.92774235E-02
 -0.47150088E-02  0.45138347E-02  0.53983386E-02
 -0.85559002E-02 -0.41323278E-03 -0.32910013E-02
  0.24619253E-03 -0.40294576E-02  0.10002287E-02
  0.24084932E-02 -0.58046319E-02  0.23825957E-02
  0.63165815E-03 -0.29066314E-02  0.56158214E-02
 -0.28225219E-02 -0.12246624E-02 -0.13245004E-01
 -0.30777264E-02  0.72012527E-02 -0.34375680E-02
  0.23242747E-01  0.77417462E-02  0.37966283E-01
 -0.87076575E-02  0.10073158E-01  0.17866700E-02
  0.10481829E-01  0.11637582E-01 -0.34832626E-01
 -0.10891412E-01  0.73819083E-03 -0.16459677E-02
  0.17831990E-01 -0.45625224E-02 -0.60943547E-02
 -0.83011772E-02  0.63117462E-02 -0.20733161E-01
 -0.25644880E-01  0.11123856E-02 -0.26934609E-01
  0.15623598E-01  0.42883152E-02  0.78642769E-02
  0.46664768E-01  0.27797936E-01  0.12768024E-01
  0.52122142E-02 -0.10371823E-01 -0.27828727E-01
 -0.34822292E-02  0.20607983E-01 -0.73573403E-03
  0.24091003E-01  0.22125078E-01  0.35635538E-01
  0.11402210E-01 -0.68055919E-02 -0.18525748E-01
  0.24555456E-05 -0.58773421E-02  0.15693527E-01
  0.14608976E-01  0.20230636E-02  0.99642772E-02
  0.54365502E-02  0.51722311E-02 -0.16108125E-01
  0.16987272E-01  0.34244774E-02  0.16605185E-01
 -0.24194930E-01 -0.67033852E-03  0.56751379E-03
 -0.11056613E-01 -0.29955673E-01  0.16631666E-01
 -0.13132494E-01 -0.11311304E-01  0.35904338E-01
  0.62320341E-02 -0.52333860E-02  0.18395717E-03
  0.88461826E-02  0.10512777E-01  0.71649913E-02
 -0.56080036E-02 -0.50391414E-02 -0.29921521E-02
  0.36167854E-01  0.14320988E-01 -0.17179921E-01
 -0.24939474E-01 -0.11193832E-01  0.98503690E-02
  0.19543157E-01  0.53786977E-02  0.28268574E-01
 -0.22857696E-01 -0.24703937E-01 -0.83373960E-02
  0.77873303E-02 -0.20765626E-02 -0.85583696E-02
 -0.15589074E-01  0.10880377E-01 -0.15546241E-01
  0.59098316E-02 -0.13167219E-01 -0.13808152E-01
  0.50114789E-02  0.42335299E-02 -0.66972316E-02
 -0.88867665E-02  0.55544713E-02  0.15671025E-01
  0.25842773E-01 -0.14477572E-01  0.67573095E-02
  0.29550657E-01  0.28732771E-01  0.69623602E-02
  0.27450091E-04 -0.14842290E-01 -0.12811905E-01
 -0.15896146E-01  0.97699279E-02  0.13824444E-01
 -0.11683860E-01 -0.27075143E-01 -0.15018403E-01
  0.31189653E-01 -0.20127944E-01  0.69034446E-03
 -0.17823490E-01 -0.43351964E-03  0.27392594E-01
  0.31772441E-02  0.12175275E-01  0.98679869E-02
  0.98137980E-02 -0.29838238E-01 -0.10812513E-02
  0.11193489E-01 -0.39142398E-02 -0.25372594E-01
  0.90200257E-03 -0.39464913E-03 -0.18610846E-01
 -0.11559276E-01  0.96336005E-02  0.12157063E-01
 -0.20994184E-01 -0.10334074E-01 -0.93539890E-02
 -0.35154125E-02 -0.37816920E-03 -0.23040011E-02
  0.90281416E-02  0.33322958E-02  0.12192890E-01
 -0.25928794E-02 -0.16793215E-01  0.23753665E-02
 -0.10121708E-01  0.14334631E-01 -0.13802551E-01
 -0.14861334E-01 -0.17932619E-01 -0.14062537E-01
  0.16684998E-01 -0.21569431E-02  0.70135109E-03
  0.20635177E-02 -0.12951980E-01  0.88047057E-02
 -0.30199974E-01  0.12436157E-01  0.54279656E-02
 -0.72687049E-02 -0.20760868E-01 -0.10172540E-01
  0.30002841E-02 -0.24104407E-01 -0.38615708E-02
  0.52746060E-02 -0.18045030E-01  0.27186376E-01
  0.17010239E-01  0.21466814E-02 -0.44004384E-02
 -0.31499058E-01 -0.29871914E-01 -0.19663041E-01
  0.14252886E-01 -0.16469447E-01  0.19984904E-01
  0.57157629E-02 -0.14199850E-01 -0.18095306E-02
  0.35339883E-02 -0.30404854E-02 -0.29795654E-02
 -0.11257834E-02 -0.27501543E-02 -0.37931468E-02
 
           1
   1.00000000000000     
  0.72361943E-01 -0.49171508E-02 -0.47496937E-02  0.77195365E-01
  0.82614022E+00  0.58442793E+00  0.12148138E+00
  0.33649807E+00  0.76317993E-01  0.12031216E+00
  0.83702620E+00  0.79280441E-01  0.12189015E+00
  0.34526068E+00  0.57252918E+00  0.12114159E+00
  0.59152573E+00  0.82737662E+00  0.12154512E+00
  0.83965263E+00  0.82860815E+00  0.12377613E+00
  0.85163003E-01  0.33162255E+00  0.12110464E+00
  0.84249721E+00  0.32597529E+00  0.12116517E+00
  0.57722897E+00  0.58885570E+00  0.12200441E+00
  0.72132987E-01  0.57962732E+00  0.12098971E+00
  0.89617908E-01  0.80048309E-01  0.11965851E+00
  0.58023883E+00  0.87536710E-01  0.12474307E+00
  0.32950342E+00  0.83641682E+00  0.12296848E+00
  0.90420202E-01  0.82914118E+00  0.12531243E+00
  0.33183160E+00  0.33259530E+00  0.12138794E+00
  0.59061119E+00  0.33331264E+00  0.12419882E+00
  0.91749754E+00  0.66630749E+00  0.18086414E+00
  0.91442636E+00  0.41694192E+00  0.18427722E+00
  0.66633103E+00  0.66922407E+00  0.18235496E+00
  0.15713920E+00  0.16781031E+00  0.18118412E+00
  0.91789635E+00  0.16638994E+00  0.18497734E+00
  0.90420364E+00  0.92820418E+00  0.18247607E+00
  0.41198115E+00  0.91469214E+00  0.18119484E+00
  0.41574765E+00  0.18117918E+00  0.18382024E+00
  0.66632817E+00  0.16844826E+00  0.18430115E+00
  0.16180388E+00  0.66780697E+00  0.18121408E+00
  0.40483495E+00  0.67932552E+00  0.18311298E+00
  0.41927222E+00  0.42144376E+00  0.18515318E+00
  0.66647248E+00  0.92559358E+00  0.18608060E+00
  0.16500901E+00  0.42480098E+00  0.18175766E+00
  0.66100759E+00  0.42140668E+00  0.18304044E+00
  0.16092138E+00  0.92194992E+00  0.18582062E+00
  0.22820292E-02  0.24299113E+00  0.24605825E+00
  0.49183960E+00  0.25242536E+00  0.25006488E+00
  0.99337864E+00  0.74258080E+00  0.24099937E+00
  0.48630855E+00  0.75538314E+00  0.24331137E+00
  0.74676924E+00  0.74940734E+00  0.24040639E+00
  0.11576937E-03  0.48178930E+00  0.24536595E+00
  0.72464163E+00  0.50034877E+00  0.24599220E+00
  0.23797439E+00  0.98513381E-02  0.24824752E+00
  0.64024855E-02  0.98590950E+00  0.25010276E+00
  0.49180135E+00  0.99345169E+00  0.24524508E+00
  0.22364108E+00  0.75073272E+00  0.24572139E+00
  0.73691235E+00  0.23226014E-02  0.24643849E+00
  0.24378557E+00  0.24431874E+00  0.24852204E+00
  0.74169651E+00  0.24378993E+00  0.24945400E+00
  0.23662106E+00  0.49121849E+00  0.24588841E+00
  0.48719254E+00  0.49163403E+00  0.24860473E+00
  0.99707247E+00  0.25585567E+00  0.59133030E-01
  0.49996180E+00  0.25008758E+00  0.59485450E-01
  0.99688416E+00  0.74769921E+00  0.59512370E-01
  0.50544748E+00  0.74768588E+00  0.59970680E-01
  0.75072198E+00  0.74863951E+00  0.59986920E-01
  0.99794108E+00  0.50140256E+00  0.59995450E-01
  0.75072730E+00  0.50143791E+00  0.60153940E-01
  0.24840774E+00  0.99896536E+00  0.60172360E-01
  0.26835400E-02  0.99893926E+00  0.60214110E-01
  0.50371792E+00  0.99792031E+00  0.60218780E-01
  0.24832215E+00  0.75337677E+00  0.60357180E-01
  0.74841370E+00  0.99788054E+00  0.60396600E-01
  0.24730947E+00  0.25437867E+00  0.60462560E-01
  0.74835618E+00  0.25434615E+00  0.60467840E-01
  0.24729220E+00  0.49894727E+00  0.60628550E-01
  0.50379605E+00  0.49891568E+00  0.60692700E-01
  0.34401862E+00  0.76774040E-01  0.28465489E+00
  0.82741177E+00  0.82764342E-01  0.28320503E+00
  0.31695364E+00  0.58350851E+00  0.28078826E+00
  0.26273523E-01  0.41234465E+00  0.63444845E+00
  0.70251452E+00  0.59677414E+00  0.46631937E+00
  0.19964564E+00  0.44970707E+00  0.39762997E+00
  0.71509623E-01  0.53073541E+00  0.48003771E+00
  0.87102343E+00  0.23530622E+00  0.34819732E+00
  0.20305547E+00  0.56844240E+00  0.55095455E+00
  0.87458890E+00  0.64820076E+00  0.29031083E+00
  0.75416763E+00  0.32004596E+00  0.42194038E+00
  0.10983479E+00  0.28332165E+00  0.35038883E+00
  0.88022038E+00  0.81476443E+00  0.56525152E+00
  0.17805297E+00  0.90329771E+00  0.42033141E+00
  0.40599485E+00  0.63457204E+00  0.58874562E+00
  0.51808600E+00  0.66723568E-01  0.51841919E+00
  0.72624488E+00  0.91760452E+00  0.34331659E+00
  0.78170419E+00  0.45683263E+00  0.57408633E+00
  0.35011721E+00  0.97643537E+00  0.37297776E+00
  0.37948760E+00  0.70960586E+00  0.48003672E+00
  0.43557468E+00  0.68699377E+00  0.34051314E+00
  0.81174954E+00  0.99984180E+00  0.50651218E+00
  0.44895039E+00  0.50452199E+00  0.40250659E+00
  0.21540485E+00  0.73479678E+00  0.65472567E+00
  0.91096970E+00  0.73053857E+00  0.65128621E+00
  0.53499900E+00  0.93938096E+00  0.44232323E+00
  0.99908621E+00  0.34914941E+00  0.52303146E+00
  0.72550418E+00  0.50249155E+00  0.31255489E+00
  0.66973316E+00  0.74395841E+00  0.53690050E+00
  0.99621382E+00  0.12621818E+00  0.48083858E+00
  0.25700782E+00  0.28037204E+00  0.57259366E+00
  0.86932050E+00  0.78519018E+00  0.44897918E+00
  0.31599446E-01  0.77854855E+00  0.38052158E+00
  0.51490807E-01  0.36826003E+00  0.66252407E+00
  0.12565083E+00  0.35142443E+00  0.61970244E+00
  0.59246649E+00  0.61931523E+00  0.46924175E+00
  0.76449263E+00  0.49245627E+00  0.45301181E+00
  0.16691642E+00  0.45883261E+00  0.42610985E+00
  0.30427336E+00  0.44503303E+00  0.39617524E+00
  0.44957563E-01  0.45763180E+00  0.49404559E+00
  0.14230675E+00  0.54773298E+00  0.50096486E+00
  0.86099052E+00  0.15906364E+00  0.33008695E+00
  0.97281473E+00  0.23005009E+00  0.34734086E+00
  0.11049246E+00  0.65294901E+00  0.56566283E+00
  0.20625717E+00  0.46768701E+00  0.55640481E+00
  0.83063787E+00  0.59259492E+00  0.30511844E+00
  0.75409813E+00  0.83867702E+00  0.32288034E+00
  0.80163428E+00  0.26713458E+00  0.39428478E+00
  0.82590992E+00  0.24938727E+00  0.44252348E+00
  0.15257571E+00  0.31598942E+00  0.37306278E+00
  0.87095193E-01  0.36632364E+00  0.32933442E+00
  0.89449393E+00  0.78987754E+00  0.59512181E+00
  0.80525830E+00  0.78116036E+00  0.55755076E+00
  0.14292810E+00  0.83472936E+00  0.40808490E+00
  0.20049955E+00  0.95506458E+00  0.39935976E+00
  0.51270779E+00  0.55055422E+00  0.59456309E+00
  0.35907445E+00  0.58738579E+00  0.57170004E+00
  0.62049613E+00  0.50259280E-01  0.50869323E+00
  0.47391182E+00  0.42056207E-01  0.49521378E+00
  0.82491336E+00  0.90152758E+00  0.35305766E+00
  0.57641554E+00  0.12936096E+00  0.31424152E+00
  0.71808236E+00  0.56799570E+00  0.56364445E+00
  0.83959117E+00  0.46649644E+00  0.59775623E+00
  0.34945586E+00  0.43182994E-01  0.35098428E+00
  0.41072456E+00  0.87065927E+00  0.36093290E+00
  0.32140482E+00  0.70452513E+00  0.50255505E+00
  0.30714106E+00  0.79220571E+00  0.45929987E+00
  0.43547551E+00  0.64622176E+00  0.36758766E+00
  0.38602973E+00  0.63794657E+00  0.32527789E+00
  0.85502571E+00  0.95068658E+00  0.53505188E+00
  0.85006854E+00  0.90604550E+00  0.49071915E+00
  0.42434872E+00  0.56887935E+00  0.42582415E+00
  0.55802878E+00  0.41798272E+00  0.41093038E+00
  0.22660905E+00  0.82093100E+00  0.66389402E+00
  0.27270004E+00  0.70011654E+00  0.62816594E+00
  0.94904702E+00  0.61518734E+00  0.64347585E+00
  0.57350079E-02  0.73327559E+00  0.65876095E+00
  0.54847641E+00  0.83381685E+00  0.44848283E+00
  0.48518502E+00  0.96362224E+00  0.41614788E+00
  0.98773082E+00  0.27032032E+00  0.50641473E+00
  0.90631652E+00  0.40213063E+00  0.54115978E+00
  0.62851917E+00  0.56672794E+00  0.32939839E+00
  0.78146210E+00  0.39061203E+00  0.32271939E+00
  0.70098229E+00  0.68532550E+00  0.51011903E+00
  0.59659381E+00  0.85374331E+00  0.53330367E+00
  0.94732256E+00  0.57721421E-01  0.48893067E+00
  0.67218963E-01  0.68886531E-01  0.45688441E+00
  0.18183701E+00  0.26961841E+00  0.55463281E+00
  0.35988895E+00  0.20828674E+00  0.56031802E+00
  0.93613628E+00  0.68122812E+00  0.46380716E+00
  0.75757316E+00  0.80437365E+00  0.44530611E+00
  0.87553183E-01  0.66143067E+00  0.37730992E+00
  0.97498118E+00  0.78198821E+00  0.40718532E+00
  0.49644180E+00  0.23307714E+00  0.30851290E+00
  0.40855718E+00  0.33206099E+00  0.32972683E+00
  0.00000000E+00  0.00000000E+00  0.00000000E+00
  0.00000000E+00  0.00000000E+00  0.00000000E+00
  0.00000000E+00  0.00000000E+00  0.00000000E+00
  0.00000000E+00  0.00000000E+00  0.00000000E+00
  0.00000000E+00  0.00000000E+00  0.00000000E+00
  0.00000000E+00  0.00000000E+00  0.00000000E+00
  0.00000000E+00  0.00000000E+00  0.00000000E+00
  0.00000000E+00  0.00000000E+00  0.00000000E+00
  0.00000000E+00  0.00000000E+00  0.00000000E+00
  0.00000000E+00  0.00000000E+00  0.00000000E+00
  0.00000000E+00  0.00000000E+00  0.00000000E+00
  0.00000000E+00  0.00000000E+00  0.00000000E+00
  0.00000000E+00  0.00000000E+00  0.00000000E+00
  0.00000000E+00  0.00000000E+00  0.00000000E+00
  0.00000000E+00  0.00000000E+00  0.00000000E+00
  0.00000000E+00  0.00000000E+00  0.00000000E+00
  0.00000000E+00  0.00000000E+00  0.00000000E+00
  0.00000000E+00  0.00000000E+00  0.00000000E+00
  0.00000000E+00  0.00000000E+00  0.00000000E+00
  0.00000000E+00  0.00000000E+00  0.00000000E+00
  0.00000000E+00  0.00000000E+00  0.00000000E+00
  0.00000000E+00  0.00000000E+00  0.00000000E+00
  0.00000000E+00  0.00000000E+00  0.00000000E+00
  0.00000000E+00  0.00000000E+00  0.00000000E+00
  0.00000000E+00  0.00000000E+00  0.00000000E+00
  0.00000000E+00  0.00000000E+00  0.00000000E+00
  0.00000000E+00  0.00000000E+00  0.00000000E+00
  0.00000000E+00  0.00000000E+00  0.00000000E+00
  0.00000000E+00  0.00000000E+00  0.00000000E+00
  0.00000000E+00  0.00000000E+00  0.00000000E+00
  0.00000000E+00  0.00000000E+00  0.00000000E+00
  0.00000000E+00  0.00000000E+00  0.00000000E+00
  0.00000000E+00  0.00000000E+00  0.00000000E+00
  0.00000000E+00  0.00000000E+00  0.00000000E+00
  0.00000000E+00  0.00000000E+00  0.00000000E+00
  0.00000000E+00  0.00000000E+00  0.00000000E+00
  0.00000000E+00  0.00000000E+00  0.00000000E+00
  0.00000000E+00  0.00000000E+00  0.00000000E+00
  0.00000000E+00  0.00000000E+00  0.00000000E+00
  0.00000000E+00  0.00000000E+00  0.00000000E+00
  0.00000000E+00  0.00000000E+00  0.00000000E+00
  0.00000000E+00  0.00000000E+00  0.00000000E+00
  0.00000000E+00  0.00000000E+00  0.00000000E+00
  0.00000000E+00  0.00000000E+00  0.00000000E+00
  0.00000000E+00  0.00000000E+00  0.00000000E+00
  0.00000000E+00  0.00000000E+00  0.00000000E+00
  0.00000000E+00  0.00000000E+00  0.00000000E+00