Rh                                      
   1.00000000000000     
    10.6386000000000003    0.0000000000000000    0.0000000000000007
    -5.3192999999999993    9.2132978607011307    0.0000000000000007
     0.0000000000000000    0.0000000000000000   21.5148000000000010
   Rh   C    H 
    64     1     2
Selective dynamics
Direct
  0.9999994000000001  0.0000005999999999  0.9987502999999975   F   F   F
  0.3333362999999991  0.1666669999999968  0.1014054999999985   F   F   F
  0.1663175443328030  0.3326337526090643  0.2010389480987788   T   T   T
 -0.0002666992027612  0.0009863557108357  0.3040940185275931   T   T   T
  0.2499994000000001  0.0000005999999999  0.9987502999999975   F   F   F
  0.0833330000000032  0.1666669999999968  0.1014054999999985   F   F   F
  0.4165856192837528  0.3337221038845827  0.2012822409860739   T   T   T
  0.2497211707616037  0.0020968420567296  0.3040271208569897   T   T   T
  0.2499994000000001  0.2500005999999999  0.9987502999999975   F   F   F
  0.0833330000000032  0.4166669999999968  0.1014054999999985   F   F   F
  0.4165294008789103  0.0831996876105403  0.2012978926902906   T   T   T
  0.2500170010343263  0.2526799857184904  0.3038271685263974   T   T   T
  0.9999994000000001  0.2500005999999999  0.9987502999999975   F   F   F
  0.3333362999999991  0.4166669999999968  0.1014054999999985   F   F   F
  0.1665079284847694  0.0832231625941530  0.2012703021774714   T   T   T
  0.0014830477963077  0.2521860755749166  0.3036971215301083   T   T   T
  0.4999994000000001  0.0000005999999999  0.9987502999999975   F   F   F
  0.8333330000000032  0.1666669999999968  0.1014054999999985   F   F   F
  0.6667227831911730  0.3335717491282431  0.2008996460974140   T   T   T
  0.5023266958792411  0.0051881499611708  0.3036512492397354   T   T   T
  0.7499994000000001  0.0000005999999999  0.9987502999999975   F   F   F
  0.5833330000000032  0.1666669999999968  0.1014054999999985   F   F   F
  0.9170002830365445  0.3337248546593409  0.2013000629810610   T   T   T
  0.7488769196417644 -0.0005297716879167  0.3036824780844846   T   T   T
  0.7499994000000001  0.2500005999999999  0.9987502999999975   F   F   F
  0.5833330000000032  0.4166669999999968  0.1014054999999985   F   F   F
  0.9169480477004766  0.0834714085852765  0.2014075432927160   T   T   T
  0.7504226216323394  0.2502782110899772  0.3037634649852848   T   T   T
  0.4999994000000001  0.2500005999999999  0.9987502999999975   F   F   F
  0.8333330000000032  0.4166669999999968  0.1014054999999985   F   F   F
  0.6665818964465789  0.0833447295285723  0.2013373319967885   T   T   T
  0.4995313690059301  0.2503871014973768  0.3037808663990396   T   T   T
  0.9999994000000001  0.5000005999999999  0.9987502999999975   F   F   F
  0.3333362999999991  0.6666637000000009  0.1014054999999985   F   F   F
  0.1679341853711590  0.8324511020340492  0.2034220799517852   T   T   T
 -0.0044186170202775  0.4984582497011471  0.3036148540323842   T   T   T
  0.2499994000000001  0.5000005999999999  0.9987502999999975   F   F   F
  0.0833330000000032  0.6666637000000009  0.1014054999999985   F   F   F
  0.4174827187327750  0.8328465062242464  0.2015135441437613   T   T   T
  0.2492516282356600  0.5000476562196701  0.3091638091844282   T   T   T
  0.2499994000000001  0.7500005999999999  0.9987502999999975   F   F   F
  0.0833330000000032  0.9166669999999968  0.1014054999999985   F   F   F
  0.4166128400068993  0.5836887388781233  0.2016756298542847   T   T   T
  0.2480222720484679  0.7528839286897837  0.3077212499345996   T   T   T
  0.9999994000000001  0.7500005999999999  0.9987502999999975   F   F   F
  0.3333362999999991  0.9166669999999968  0.1014054999999985   F   F   F
  0.1675267564282986  0.5828622114998813  0.2015528667514749   T   T   T
 -0.0012467288845936  0.7509763151246268  0.3040374092768439   T   T   T
  0.4999994000000001  0.5000005999999999  0.9987502999999975   F   F   F
  0.8333330000000032  0.6666637000000009  0.1014054999999985   F   F   F
  0.6678132371123511  0.8340547467102920  0.2010086635814079   T   T   T
  0.5023736071982989  0.4984238012024139  0.3035803292330473   T   T   T
  0.7499994000000001  0.5000005999999999  0.9987502999999975   F   F   F
  0.5833330000000032  0.6666637000000009  0.1014054999999985   F   F   F
  0.9171385630340789  0.8338311576780569  0.2012614743979979   T   T   T
  0.7503805143374573  0.5012895303018048  0.3037483027076966   T   T   T
  0.7499994000000001  0.7500005999999999  0.9987502999999975   F   F   F
  0.5833330000000032  0.9166669999999968  0.1014054999999985   F   F   F
  0.9171668771936911  0.5838354945379848  0.2012966993095975   T   T   T
  0.7480828414136723  0.7507560259382251  0.3038104014239495   T   T   T
  0.4999994000000001  0.7500005999999999  0.9987502999999975   F   F   F
  0.8333330000000032  0.9166669999999968  0.1014054999999985   F   F   F
  0.6665049694426297  0.5837404368709275  0.2013055698406598   T   T   T
  0.5010582512854970  0.7518283845330221  0.3088446799112134   T   T   T
  0.3388547402215785  0.6631185564697466  0.3712430117547929   T   T   T
  0.3649923944343359  0.6385026785976189  0.4176418993387208   T   T   T
  0.2756635960385619  0.7266550724919751  0.3871277490914414   T   T   T
 
  0.00000000E+00  0.00000000E+00  0.00000000E+00
  0.00000000E+00  0.00000000E+00  0.00000000E+00
  0.00000000E+00  0.00000000E+00  0.00000000E+00
  0.00000000E+00  0.00000000E+00  0.00000000E+00
  0.00000000E+00  0.00000000E+00  0.00000000E+00
  0.00000000E+00  0.00000000E+00  0.00000000E+00
  0.00000000E+00  0.00000000E+00  0.00000000E+00
  0.00000000E+00  0.00000000E+00  0.00000000E+00
  0.00000000E+00  0.00000000E+00  0.00000000E+00
  0.00000000E+00  0.00000000E+00  0.00000000E+00
  0.00000000E+00  0.00000000E+00  0.00000000E+00
  0.00000000E+00  0.00000000E+00  0.00000000E+00
  0.00000000E+00  0.00000000E+00  0.00000000E+00
  0.00000000E+00  0.00000000E+00  0.00000000E+00
  0.00000000E+00  0.00000000E+00  0.00000000E+00
  0.00000000E+00  0.00000000E+00  0.00000000E+00
  0.00000000E+00  0.00000000E+00  0.00000000E+00
  0.00000000E+00  0.00000000E+00  0.00000000E+00
  0.00000000E+00  0.00000000E+00  0.00000000E+00
  0.00000000E+00  0.00000000E+00  0.00000000E+00
  0.00000000E+00  0.00000000E+00  0.00000000E+00
  0.00000000E+00  0.00000000E+00  0.00000000E+00
  0.00000000E+00  0.00000000E+00  0.00000000E+00
  0.00000000E+00  0.00000000E+00  0.00000000E+00
  0.00000000E+00  0.00000000E+00  0.00000000E+00
  0.00000000E+00  0.00000000E+00  0.00000000E+00
  0.00000000E+00  0.00000000E+00  0.00000000E+00
  0.00000000E+00  0.00000000E+00  0.00000000E+00
  0.00000000E+00  0.00000000E+00  0.00000000E+00
  0.00000000E+00  0.00000000E+00  0.00000000E+00
  0.00000000E+00  0.00000000E+00  0.00000000E+00
  0.00000000E+00  0.00000000E+00  0.00000000E+00
  0.00000000E+00  0.00000000E+00  0.00000000E+00
  0.00000000E+00  0.00000000E+00  0.00000000E+00
  0.00000000E+00  0.00000000E+00  0.00000000E+00
  0.00000000E+00  0.00000000E+00  0.00000000E+00
  0.00000000E+00  0.00000000E+00  0.00000000E+00
  0.00000000E+00  0.00000000E+00  0.00000000E+00
  0.00000000E+00  0.00000000E+00  0.00000000E+00
  0.00000000E+00  0.00000000E+00  0.00000000E+00
  0.00000000E+00  0.00000000E+00  0.00000000E+00
  0.00000000E+00  0.00000000E+00  0.00000000E+00
  0.00000000E+00  0.00000000E+00  0.00000000E+00
  0.00000000E+00  0.00000000E+00  0.00000000E+00
  0.00000000E+00  0.00000000E+00  0.00000000E+00
  0.00000000E+00  0.00000000E+00  0.00000000E+00
  0.00000000E+00  0.00000000E+00  0.00000000E+00
  0.00000000E+00  0.00000000E+00  0.00000000E+00
  0.00000000E+00  0.00000000E+00  0.00000000E+00
  0.00000000E+00  0.00000000E+00  0.00000000E+00
  0.00000000E+00  0.00000000E+00  0.00000000E+00
  0.00000000E+00  0.00000000E+00  0.00000000E+00
  0.00000000E+00  0.00000000E+00  0.00000000E+00
  0.00000000E+00  0.00000000E+00  0.00000000E+00
  0.00000000E+00  0.00000000E+00  0.00000000E+00
  0.00000000E+00  0.00000000E+00  0.00000000E+00
  0.00000000E+00  0.00000000E+00  0.00000000E+00
  0.00000000E+00  0.00000000E+00  0.00000000E+00
  0.00000000E+00  0.00000000E+00  0.00000000E+00
  0.00000000E+00  0.00000000E+00  0.00000000E+00
  0.00000000E+00  0.00000000E+00  0.00000000E+00
  0.00000000E+00  0.00000000E+00  0.00000000E+00
  0.00000000E+00  0.00000000E+00  0.00000000E+00
  0.00000000E+00  0.00000000E+00  0.00000000E+00
  0.00000000E+00  0.00000000E+00  0.00000000E+00
  0.00000000E+00  0.00000000E+00  0.00000000E+00
  0.00000000E+00  0.00000000E+00  0.00000000E+00
