Ti                                      
   1.00000000000000     
    11.5504999999999995    0.0000000000000000    0.0000000000000007
    -5.7752499999999989   10.0030264264121591    0.0000000000000007
     0.0000000000000000    0.0000000000000000   16.8194000000000017
   Ti   C    O 
    64     1     1
Selective dynamics
Direct
  0.0833299999999966  0.1666700000000034  0.0000000000000000   F   F   F
  0.0834409249350336  0.1669362945609409  0.2765411266805264   T   T   T
  0.1666700000000034  0.0833299999999966  0.1351500000000030   F   F   F
  0.1663693557437194  0.0830848136163105  0.4058970162447356   T   T   T
  0.3333332999999996  0.1666700000000034  0.0000000000000000   F   F   F
  0.3347273541835314  0.1679515335083758  0.2776528782661543   T   T   T
  0.4166700000000034  0.0833299999999966  0.1351500000000030   F   F   F
  0.4172773346446167  0.0857807926864560  0.4083940133760316   T   T   T
  0.5833299999999966  0.1666700000000034  0.0000000000000000   F   F   F
  0.5819810356125492  0.1640123866505294  0.2776103213474980   T   T   T
  0.6666667000000004  0.0833299999999966  0.1351500000000030   F   F   F
  0.6685341956693064  0.0858148931886145  0.4083490864730782   T   T   T
  0.8333299999999966  0.1666700000000034  0.0000000000000000   F   F   F
  0.8332872331601526  0.1680202336218318  0.2776455290246677   T   T   T
  0.9166700000000034  0.0833299999999966  0.1351500000000030   F   F   F
  0.9167255682312375  0.0830943470151246  0.4059214150349238   T   T   T
  0.0833299999999966  0.4166700000000034  0.0000000000000000   F   F   F
  0.0833274619555523  0.4153992753548101  0.2780178909746848   T   T   T
  0.1666700000000034  0.3333332999999996  0.1351500000000030   F   F   F
  0.1644579355402861  0.3288179577828420  0.4082032352198205   T   T   T
  0.3333332999999996  0.4166700000000034  0.0000000000000000   F   F   F
  0.3320460370774965  0.4152725063985250  0.2779820931457240   T   T   T
  0.4166700000000034  0.3333332999999996  0.1351500000000030   F   F   F
  0.4172841773946954  0.3324936545007235  0.4085694405394485   T   T   T
  0.5833299999999966  0.4166700000000034  0.0000000000000000   F   F   F
  0.5819056238194654  0.4175396671898891  0.2775018186705892   T   T   T
  0.6666667000000004  0.3333332999999996  0.1351500000000030   F   F   F
  0.6666388379617217  0.3332796176438181  0.4050905438324575   T   T   T
  0.8333299999999966  0.4166700000000034  0.0000000000000000   F   F   F
  0.8355761602087236  0.4175142543637811  0.2774840253848996   T   T   T
  0.9166700000000034  0.3333332999999996  0.1351500000000030   F   F   F
  0.9152824759573351  0.3326040580857692  0.4085435460651776   T   T   T
  0.0833299999999966  0.6666667000000004  0.0000000000000000   F   F   F
  0.0838664897053700  0.6687321426205637  0.2778548687502421   T   T   T
  0.1666700000000034  0.5833299999999966  0.1351500000000030   F   F   F
  0.1730482635062419  0.5865994875825349  0.4054527279859582   T   T   T
  0.3333332999999996  0.6666667000000004  0.0000000000000000   F   F   F
  0.3334400695027974  0.6669236675249820  0.2726306009914317   T   T   T
  0.4166700000000034  0.5833299999999966  0.1351500000000030   F   F   F
  0.4137205093225322  0.5865683835562508  0.4053319740911946   T   T   T
  0.5833299999999966  0.6666667000000004  0.0000000000000000   F   F   F
  0.5849786840850938  0.6688131484083170  0.2778243768071585   T   T   T
  0.6666667000000004  0.5833299999999966  0.1351500000000030   F   F   F
  0.6673351464006626  0.5826538948733714  0.4076075843586021   T   T   T
  0.8333299999999966  0.6666667000000004  0.0000000000000000   F   F   F
  0.8328050567450280  0.6655172623271614  0.2776274250707975   T   T   T
  0.9166700000000034  0.5833299999999966  0.1351500000000030   F   F   F
  0.9153823481040910  0.5826117273117200  0.4076290439147548   T   T   T
  0.0833299999999966  0.9166700000000034  0.0000000000000000   F   F   F
  0.0825623755862069  0.9165652127072225  0.2766246287366455   T   T   T
  0.1666700000000034  0.8333299999999966  0.1351500000000030   F   F   F
  0.1650326626907241  0.8363558706959988  0.4079187587313233   T   T   T
  0.3333332999999996  0.9166700000000034  0.0000000000000000   F   F   F
  0.3315214185412052  0.9182321912599565  0.2774287514088259   T   T   T
  0.4166700000000034  0.8333299999999966  0.1351500000000030   F   F   F
  0.4149805175066943  0.8297945490879515  0.4037570372466548   T   T   T
  0.5833299999999966  0.9166700000000034  0.0000000000000000   F   F   F
  0.5868030557889191  0.9182155345756720  0.2774193065845348   T   T   T
  0.6666667000000004  0.8333299999999966  0.1351500000000030   F   F   F
  0.6713906636608719  0.8363453440180187  0.4079466197726312   T   T   T
  0.8333299999999966  0.9166700000000034  0.0000000000000000   F   F   F
  0.8340626953781010  0.9166120338980415  0.2766242335837839   T   T   T
  0.9166700000000034  0.8333299999999966  0.1351500000000030   F   F   F
  0.9166415944038915  0.8332530419385500  0.4066273739395201   T   T   T
  0.3347896352552612  0.6690550189885681  0.4992236412018822   T   T   T
  0.3388559402479154  0.6769267364108155  0.5705896866930477   T   T   T
 
  0.00000000E+00  0.00000000E+00  0.00000000E+00
  0.00000000E+00  0.00000000E+00  0.00000000E+00
  0.00000000E+00  0.00000000E+00  0.00000000E+00
  0.00000000E+00  0.00000000E+00  0.00000000E+00
  0.00000000E+00  0.00000000E+00  0.00000000E+00
  0.00000000E+00  0.00000000E+00  0.00000000E+00
  0.00000000E+00  0.00000000E+00  0.00000000E+00
  0.00000000E+00  0.00000000E+00  0.00000000E+00
  0.00000000E+00  0.00000000E+00  0.00000000E+00
  0.00000000E+00  0.00000000E+00  0.00000000E+00
  0.00000000E+00  0.00000000E+00  0.00000000E+00
  0.00000000E+00  0.00000000E+00  0.00000000E+00
  0.00000000E+00  0.00000000E+00  0.00000000E+00
  0.00000000E+00  0.00000000E+00  0.00000000E+00
  0.00000000E+00  0.00000000E+00  0.00000000E+00
  0.00000000E+00  0.00000000E+00  0.00000000E+00
  0.00000000E+00  0.00000000E+00  0.00000000E+00
  0.00000000E+00  0.00000000E+00  0.00000000E+00
  0.00000000E+00  0.00000000E+00  0.00000000E+00
  0.00000000E+00  0.00000000E+00  0.00000000E+00
  0.00000000E+00  0.00000000E+00  0.00000000E+00
  0.00000000E+00  0.00000000E+00  0.00000000E+00
  0.00000000E+00  0.00000000E+00  0.00000000E+00
  0.00000000E+00  0.00000000E+00  0.00000000E+00
  0.00000000E+00  0.00000000E+00  0.00000000E+00
  0.00000000E+00  0.00000000E+00  0.00000000E+00
  0.00000000E+00  0.00000000E+00  0.00000000E+00
  0.00000000E+00  0.00000000E+00  0.00000000E+00
  0.00000000E+00  0.00000000E+00  0.00000000E+00
  0.00000000E+00  0.00000000E+00  0.00000000E+00
  0.00000000E+00  0.00000000E+00  0.00000000E+00
  0.00000000E+00  0.00000000E+00  0.00000000E+00
  0.00000000E+00  0.00000000E+00  0.00000000E+00
  0.00000000E+00  0.00000000E+00  0.00000000E+00
  0.00000000E+00  0.00000000E+00  0.00000000E+00
  0.00000000E+00  0.00000000E+00  0.00000000E+00
  0.00000000E+00  0.00000000E+00  0.00000000E+00
  0.00000000E+00  0.00000000E+00  0.00000000E+00
  0.00000000E+00  0.00000000E+00  0.00000000E+00
  0.00000000E+00  0.00000000E+00  0.00000000E+00
  0.00000000E+00  0.00000000E+00  0.00000000E+00
  0.00000000E+00  0.00000000E+00  0.00000000E+00
  0.00000000E+00  0.00000000E+00  0.00000000E+00
  0.00000000E+00  0.00000000E+00  0.00000000E+00
  0.00000000E+00  0.00000000E+00  0.00000000E+00
  0.00000000E+00  0.00000000E+00  0.00000000E+00
  0.00000000E+00  0.00000000E+00  0.00000000E+00
  0.00000000E+00  0.00000000E+00  0.00000000E+00
  0.00000000E+00  0.00000000E+00  0.00000000E+00
  0.00000000E+00  0.00000000E+00  0.00000000E+00
  0.00000000E+00  0.00000000E+00  0.00000000E+00
  0.00000000E+00  0.00000000E+00  0.00000000E+00
  0.00000000E+00  0.00000000E+00  0.00000000E+00
  0.00000000E+00  0.00000000E+00  0.00000000E+00
  0.00000000E+00  0.00000000E+00  0.00000000E+00
  0.00000000E+00  0.00000000E+00  0.00000000E+00
  0.00000000E+00  0.00000000E+00  0.00000000E+00
  0.00000000E+00  0.00000000E+00  0.00000000E+00
  0.00000000E+00  0.00000000E+00  0.00000000E+00
  0.00000000E+00  0.00000000E+00  0.00000000E+00
  0.00000000E+00  0.00000000E+00  0.00000000E+00
  0.00000000E+00  0.00000000E+00  0.00000000E+00
  0.00000000E+00  0.00000000E+00  0.00000000E+00
  0.00000000E+00  0.00000000E+00  0.00000000E+00
  0.00000000E+00  0.00000000E+00  0.00000000E+00
  0.00000000E+00  0.00000000E+00  0.00000000E+00
