Ni_Pol_COOHCH3
   1.00000000000000     
     9.8291997910000006    0.0000000000000000    0.0000000000000000
     4.9145998955000003    8.5123367178000002    0.0000000000000000
     0.0000000000000000    0.0000000000000000   19.0128002167000005
   Ni   O    C    O    H    C    H 
    64     3     1     2     1     1     3
Selective dynamics
Direct
  0.8311758246878976  0.5835807537499160  0.2719365318468578   T   T   T
  0.3317856073611524  0.0831051962494086  0.2704362657024199   T   T   T
  0.8316694426228648  0.0834295502222900  0.2708119980740787   T   T   T
  0.3317739624705541  0.5834792761805924  0.2706634739638888   T   T   T
  0.5822140562372881  0.8331764834581122  0.2716631176103701   T   T   T
  0.8310435269777876  0.8335492885019260  0.2708580825318142   T   T   T
  0.0810860737149681  0.3338617341837419  0.2710620918838518   T   T   T
  0.8320454017897634  0.3329532057566560  0.2708728605178269   T   T   T
  0.5826099998780745  0.5829048670841986  0.2718287563929657   T   T   T
  0.0812658689232660  0.5834145830630283  0.2709323258287960   T   T   T
  0.0812468396096793  0.0839778988568932  0.2702152351513565   T   T   T
  0.5823787438887662  0.0823251348655685  0.2714836316483332   T   T   T
  0.3321156569927089  0.8334871322278581  0.2708120954943745   T   T   T
  0.0812963424033435  0.8334022190071467  0.2704110429408424   T   T   T
  0.3321573286263985  0.3326030151623879  0.2709613327083544   T   T   T
  0.5823868544473714  0.3326812936066258  0.2719596513369583   T   T   T
  0.9141303497695916  0.6667097794809599  0.3759989429133829   T   T   T
  0.9135374604055042  0.4180014200800983  0.3764739003826155   T   T   T
  0.6659493945122429  0.6664954956143708  0.3780259125639315   T   T   T
  0.1638020531099124  0.1671069228505670  0.3754784162617256   T   T   T
  0.9141015954297017  0.1663230788900872  0.3763723647001828   T   T   T
  0.9144773085890782  0.9169784635265529  0.3754062454176117   T   T   T
  0.4140380199865291  0.9177268111119913  0.3759838228920808   T   T   T
  0.4144454618664312  0.1663461250603571  0.3756478755633035   T   T   T
  0.6659287585435053  0.1667034962530764  0.3772297114655549   T   T   T
  0.1645617472944362  0.6669522737337571  0.3753790457339071   T   T   T
  0.4144656341038702  0.6668563063464391  0.3756895502560456   T   T   T
  0.4134414554697688  0.4172775105535782  0.3754948151570460   T   T   T
  0.6649204274409061  0.9157947663285749  0.3793616113923503   T   T   T
  0.1642244082458748  0.4167761906971684  0.3773095834891797   T   T   T
  0.6653509398346592  0.4152384876096207  0.3788978638896238   T   T   T
  0.1648144013216562  0.9170460995715052  0.3778441552502858   T   T   T
  0.9964447692494118  0.2530801555066597  0.4789113146505844   T   T   T
  0.4966130251143330  0.2507634243868839  0.4791411219751006   T   T   T
  0.9974414139384016  0.7492520544872876  0.4784612846624616   T   T   T
  0.4986450611105170  0.7516824502955647  0.4793212462473729   T   T   T
  0.7466981885319892  0.7523709193281205  0.4870760155170917   T   T   T
  0.9978681899580739  0.5006990001600539  0.4842952601963633   T   T   T
  0.7449781332043006  0.4991049214672118  0.4841685661830419   T   T   T
  0.2451765349429620  0.0003374200971398  0.4854058379583843   T   T   T
  0.0017572062067293 -0.0023313913734489  0.4843756698212988   T   T   T
  0.4990032452272543  0.0004452303647857  0.4861733193849542   T   T   T
  0.2456087128487292  0.7549032990570732  0.4852154300164602   T   T   T
  0.7447845007909467  0.0004659781408806  0.4843829621001178   T   T   T
  0.2450939700688795  0.2541444213758526  0.4844848619225799   T   T   T
  0.7445308142294664  0.2561966772995104  0.4941570931157108   T   T   T
  0.2461611085855848  0.4984036032463831  0.4849515218634715   T   T   T
  0.4962802435051479  0.5013289624753183  0.4837320386335615   T   T   T
  0.9970724670000024  0.2558556729999992  0.1637003960000030   F   F   F
  0.4999617989999976  0.2500875830000027  0.1643123180000003   F   F   F
  0.9968841629999972  0.7476992069999966  0.1643590660000029   F   F   F
  0.5054474789999972  0.7476858750000019  0.1651548480000002   F   F   F
  0.7507219769999978  0.7486395119999969  0.1651830500000031   F   F   F
  0.9979410790000003  0.5014025589999989  0.1651978470000017   F   F   F
  0.7507272960000009  0.5014379059999996  0.1654730480000026   F   F   F
  0.2484077359999972  0.9989653640000000  0.1655050250000016   F   F   F
  0.0026835399999996  0.9989392600000002  0.1655775309999967   F   F   F
  0.5037179199999997  0.9979203070000011  0.1655856309999990   F   F   F
  0.2483221529999966  0.7533767729999994  0.1658259459999982   F   F   F
  0.7484137009999969  0.9978805350000002  0.1658943890000018   F   F   F
  0.2473094730000014  0.2543786680000011  0.1660089160000027   F   F   F
  0.7483561820000020  0.2543461500000035  0.1660180820000008   F   F   F
  0.2472921950000000  0.4989472700000022  0.1662971330000005   F   F   F
  0.5037960519999984  0.4989156760000029  0.1664085250000014   F   F   F
  0.3279548894066205  0.0868761674010550  0.5459959038062386   T   T   T
  0.8380368006351350  0.0696475843177431  0.5460613810013439   T   T   T
  0.3271325165295792  0.5863321810049892  0.5451762898924062   T   T   T
  0.9432408060218587  0.5650361491297209  0.5766983669200494   T   T   T
  0.8203950638411407  0.6943517813673294  0.5891256836123703   T   T   T
  0.0237628678926074  0.4788218342964743  0.6323712710550515   T   T   T
  0.1151417910784885  0.3823924473543910  0.6144406545926242   T   T   T
  0.7260587250284863  0.3947993023810993  0.5789835004151599   T   T   T
  0.7056919282028782  0.5167598296464380  0.5856008689495463   T   T   T
  0.6249625501307114  0.3963799019059352  0.6047085045136527   T   T   T
  0.8352512067341236  0.3137541414293807  0.6065470527057734   T   T   T
 
  0.00000000E+00  0.00000000E+00  0.00000000E+00
  0.00000000E+00  0.00000000E+00  0.00000000E+00
  0.00000000E+00  0.00000000E+00  0.00000000E+00
  0.00000000E+00  0.00000000E+00  0.00000000E+00
  0.00000000E+00  0.00000000E+00  0.00000000E+00
  0.00000000E+00  0.00000000E+00  0.00000000E+00
  0.00000000E+00  0.00000000E+00  0.00000000E+00
  0.00000000E+00  0.00000000E+00  0.00000000E+00
  0.00000000E+00  0.00000000E+00  0.00000000E+00
  0.00000000E+00  0.00000000E+00  0.00000000E+00
  0.00000000E+00  0.00000000E+00  0.00000000E+00
  0.00000000E+00  0.00000000E+00  0.00000000E+00
  0.00000000E+00  0.00000000E+00  0.00000000E+00
  0.00000000E+00  0.00000000E+00  0.00000000E+00
  0.00000000E+00  0.00000000E+00  0.00000000E+00
  0.00000000E+00  0.00000000E+00  0.00000000E+00
  0.00000000E+00  0.00000000E+00  0.00000000E+00
  0.00000000E+00  0.00000000E+00  0.00000000E+00
  0.00000000E+00  0.00000000E+00  0.00000000E+00
  0.00000000E+00  0.00000000E+00  0.00000000E+00
  0.00000000E+00  0.00000000E+00  0.00000000E+00
  0.00000000E+00  0.00000000E+00  0.00000000E+00
  0.00000000E+00  0.00000000E+00  0.00000000E+00
  0.00000000E+00  0.00000000E+00  0.00000000E+00
  0.00000000E+00  0.00000000E+00  0.00000000E+00
  0.00000000E+00  0.00000000E+00  0.00000000E+00
  0.00000000E+00  0.00000000E+00  0.00000000E+00
  0.00000000E+00  0.00000000E+00  0.00000000E+00
  0.00000000E+00  0.00000000E+00  0.00000000E+00
  0.00000000E+00  0.00000000E+00  0.00000000E+00
  0.00000000E+00  0.00000000E+00  0.00000000E+00
  0.00000000E+00  0.00000000E+00  0.00000000E+00
  0.00000000E+00  0.00000000E+00  0.00000000E+00
  0.00000000E+00  0.00000000E+00  0.00000000E+00
  0.00000000E+00  0.00000000E+00  0.00000000E+00
  0.00000000E+00  0.00000000E+00  0.00000000E+00
  0.00000000E+00  0.00000000E+00  0.00000000E+00
  0.00000000E+00  0.00000000E+00  0.00000000E+00
  0.00000000E+00  0.00000000E+00  0.00000000E+00
  0.00000000E+00  0.00000000E+00  0.00000000E+00
  0.00000000E+00  0.00000000E+00  0.00000000E+00
  0.00000000E+00  0.00000000E+00  0.00000000E+00
  0.00000000E+00  0.00000000E+00  0.00000000E+00
  0.00000000E+00  0.00000000E+00  0.00000000E+00
  0.00000000E+00  0.00000000E+00  0.00000000E+00
  0.00000000E+00  0.00000000E+00  0.00000000E+00
  0.00000000E+00  0.00000000E+00  0.00000000E+00
  0.00000000E+00  0.00000000E+00  0.00000000E+00
  0.00000000E+00  0.00000000E+00  0.00000000E+00
  0.00000000E+00  0.00000000E+00  0.00000000E+00
  0.00000000E+00  0.00000000E+00  0.00000000E+00
  0.00000000E+00  0.00000000E+00  0.00000000E+00
  0.00000000E+00  0.00000000E+00  0.00000000E+00
  0.00000000E+00  0.00000000E+00  0.00000000E+00
  0.00000000E+00  0.00000000E+00  0.00000000E+00
  0.00000000E+00  0.00000000E+00  0.00000000E+00
  0.00000000E+00  0.00000000E+00  0.00000000E+00
  0.00000000E+00  0.00000000E+00  0.00000000E+00
  0.00000000E+00  0.00000000E+00  0.00000000E+00
  0.00000000E+00  0.00000000E+00  0.00000000E+00
  0.00000000E+00  0.00000000E+00  0.00000000E+00
  0.00000000E+00  0.00000000E+00  0.00000000E+00
  0.00000000E+00  0.00000000E+00  0.00000000E+00
  0.00000000E+00  0.00000000E+00  0.00000000E+00
  0.00000000E+00  0.00000000E+00  0.00000000E+00
  0.00000000E+00  0.00000000E+00  0.00000000E+00
  0.00000000E+00  0.00000000E+00  0.00000000E+00
  0.00000000E+00  0.00000000E+00  0.00000000E+00
  0.00000000E+00  0.00000000E+00  0.00000000E+00
  0.00000000E+00  0.00000000E+00  0.00000000E+00
  0.00000000E+00  0.00000000E+00  0.00000000E+00
  0.00000000E+00  0.00000000E+00  0.00000000E+00
  0.00000000E+00  0.00000000E+00  0.00000000E+00
  0.00000000E+00  0.00000000E+00  0.00000000E+00
  0.00000000E+00  0.00000000E+00  0.00000000E+00
