 Ni\(1\1\1)                             
   1.00000000000000     
     9.8291997910000006    0.0000000000000000    0.0000000000000000
     4.9145998955000003    8.5123367178000002    0.0000000000000000
     0.0000000000000000    0.0000000000000000   19.0128002167000005
   Ni   O    C    H 
    64     2     2     2
Direct
  0.8341097082218168  0.5803322772881935  0.2747773667173595
  0.3343143734966660  0.0801900498908058  0.2742432659833325
  0.8337993659286884  0.0800855207704183  0.2743070054985620
  0.3341625554105513  0.5800769993106913  0.2739942930821713
  0.5843560644130691  0.8299009855281799  0.2736507042335875
  0.8342936783352647  0.8298447292868966  0.2736853625096132
  0.0841347518915784  0.3306282338929183  0.2745349925800885
  0.8336560315941520  0.3305237602259629  0.2743977454405391
  0.5839525230804145  0.5799527842678046  0.2743600183894758
  0.0842529677918607  0.5801335304956793  0.2745390217445720
  0.0839586913225599  0.0804650279148176  0.2739667589777270
  0.5840011982629072  0.0800134736645062  0.2743655721878387
  0.3342105082931291  0.8302865108498555  0.2738903944111949
  0.0841499150326036  0.8302568674049027  0.2739124711427742
  0.3339573206602803  0.3303725190098901  0.2740405380809868
  0.5837328476342832  0.3299926219504842  0.2739870222097277
  0.9186427741688504  0.6615132166856350  0.3801123641689521
  0.9175821626531121  0.4140880882200014  0.3805525833062443
  0.6685764825466071  0.6617166935428266  0.3797327152817422
  0.1677124981178562  0.1639740040300711  0.3790048056142942
  0.9173395475041513  0.1639497264090104  0.3791479761578465
  0.9174455628158509  0.9130776445498541  0.3791583114380164
  0.4182611019005508  0.9133703526339890  0.3792057180781105
  0.4175151863519005  0.1640361165028402  0.3793922621104212
  0.6675880525846294  0.1637281480498896  0.3795609565553277
  0.1677088059032239  0.6635508727726854  0.3791982456609476
  0.4178503502159233  0.6636300624876286  0.3792132627342957
  0.4174440923455761  0.4138446121806703  0.3793005550481256
  0.6680787146348768  0.9126516484334836  0.3790846169402963
  0.1664884323458072  0.4145057943217724  0.3805663640658504
  0.6681359971622559  0.4137133994267033  0.3801406117833106
  0.1675319752717931  0.9139706768723375  0.3792256919452882
  0.0027426706601873  0.2432679664184926  0.4837031189611271
  0.5010485019004266  0.2470293233739481  0.4851613391024690
  0.0012823607253215  0.7474149107180195  0.4844268082707751
  0.4991956930456923  0.7483018730790607  0.4846006446760098
  0.7498195593792348  0.7488145921140367  0.4840397486145896
  0.0002286448494397  0.4966649237785176  0.4931169247398682
  0.7499488013874303  0.4964398284826038  0.4914899194730139
  0.2513368169631964  0.9965788438407009  0.4850587022518638
  0.0011607929014792  0.9961713043218484  0.4851147713547502
  0.5009138900550077 -0.0025142451906100  0.4851162056885385
  0.2508785930790440  0.7469381835126051  0.4850477745333320
  0.7511678202578210 -0.0035642631341943  0.4853092178073037
  0.2513381023428103  0.2466545083167529  0.4846910907189798
  0.7513116197216337  0.2458896694862576  0.4852619057306645
  0.2508523722794984  0.4972913893360375  0.4853066008695656
  0.5006907710842360  0.4965716569484578  0.4849699604779265
  0.0008468877881693  0.2465790924470509  0.1685734891353533
  0.5010230205523096  0.2461410878965944  0.1684535999074069
  0.0012886510960392  0.7463018549168928  0.1682216580936805
  0.5011003125378826  0.7463328677354941  0.1682178816504142
  0.7512893347430535  0.7461936446527829  0.1683523735843559
  0.0009054618418330  0.4964425625963450  0.1688452158005081
  0.7510408888741211  0.4964188695122378  0.1687170228368937
  0.2508326253994277 -0.0035141702036016  0.1682938612354408
  0.0011820453843081 -0.0035994413947742  0.1682754960788928
  0.5009208998568362 -0.0035672904817796  0.1684564300734370
  0.2511672037913653  0.7464216179061656  0.1680911666967943
  0.7511838808576735 -0.0035226094968961  0.1684062044530305
  0.2506317997044235  0.2465674622028142  0.1686269953697740
  0.7511496740879769  0.2464507179890567  0.1686191025733922
  0.2508600892347864  0.4965471714673633  0.1684695526463990
  0.5011434421535564  0.4964592339356634  0.1684386463618564
  0.6727438648338467  0.5894552076737249  0.6305441387540660
  0.9760326191398312  0.5852763142378475  0.6352401822646530
  0.7748709688481856  0.5332622392442005  0.5861186750549631
  0.9447016388538799  0.4898841813319766  0.5921286461681007
  0.9079581695443671  0.6950604451583878  0.6207907040325923
  0.0173361773508488  0.3669071343985052  0.6090601798785861
 
  0.00000000E+00  0.00000000E+00  0.00000000E+00
  0.00000000E+00  0.00000000E+00  0.00000000E+00
  0.00000000E+00  0.00000000E+00  0.00000000E+00
  0.00000000E+00  0.00000000E+00  0.00000000E+00
  0.00000000E+00  0.00000000E+00  0.00000000E+00
  0.00000000E+00  0.00000000E+00  0.00000000E+00
  0.00000000E+00  0.00000000E+00  0.00000000E+00
  0.00000000E+00  0.00000000E+00  0.00000000E+00
  0.00000000E+00  0.00000000E+00  0.00000000E+00
  0.00000000E+00  0.00000000E+00  0.00000000E+00
  0.00000000E+00  0.00000000E+00  0.00000000E+00
  0.00000000E+00  0.00000000E+00  0.00000000E+00
  0.00000000E+00  0.00000000E+00  0.00000000E+00
  0.00000000E+00  0.00000000E+00  0.00000000E+00
  0.00000000E+00  0.00000000E+00  0.00000000E+00
  0.00000000E+00  0.00000000E+00  0.00000000E+00
  0.00000000E+00  0.00000000E+00  0.00000000E+00
  0.00000000E+00  0.00000000E+00  0.00000000E+00
  0.00000000E+00  0.00000000E+00  0.00000000E+00
  0.00000000E+00  0.00000000E+00  0.00000000E+00
  0.00000000E+00  0.00000000E+00  0.00000000E+00
  0.00000000E+00  0.00000000E+00  0.00000000E+00
  0.00000000E+00  0.00000000E+00  0.00000000E+00
  0.00000000E+00  0.00000000E+00  0.00000000E+00
  0.00000000E+00  0.00000000E+00  0.00000000E+00
  0.00000000E+00  0.00000000E+00  0.00000000E+00
  0.00000000E+00  0.00000000E+00  0.00000000E+00
  0.00000000E+00  0.00000000E+00  0.00000000E+00
  0.00000000E+00  0.00000000E+00  0.00000000E+00
  0.00000000E+00  0.00000000E+00  0.00000000E+00
  0.00000000E+00  0.00000000E+00  0.00000000E+00
  0.00000000E+00  0.00000000E+00  0.00000000E+00
  0.00000000E+00  0.00000000E+00  0.00000000E+00
  0.00000000E+00  0.00000000E+00  0.00000000E+00
  0.00000000E+00  0.00000000E+00  0.00000000E+00
  0.00000000E+00  0.00000000E+00  0.00000000E+00
  0.00000000E+00  0.00000000E+00  0.00000000E+00
  0.00000000E+00  0.00000000E+00  0.00000000E+00
  0.00000000E+00  0.00000000E+00  0.00000000E+00
  0.00000000E+00  0.00000000E+00  0.00000000E+00
  0.00000000E+00  0.00000000E+00  0.00000000E+00
  0.00000000E+00  0.00000000E+00  0.00000000E+00
  0.00000000E+00  0.00000000E+00  0.00000000E+00
  0.00000000E+00  0.00000000E+00  0.00000000E+00
  0.00000000E+00  0.00000000E+00  0.00000000E+00
  0.00000000E+00  0.00000000E+00  0.00000000E+00
  0.00000000E+00  0.00000000E+00  0.00000000E+00
  0.00000000E+00  0.00000000E+00  0.00000000E+00
  0.00000000E+00  0.00000000E+00  0.00000000E+00
  0.00000000E+00  0.00000000E+00  0.00000000E+00
  0.00000000E+00  0.00000000E+00  0.00000000E+00
  0.00000000E+00  0.00000000E+00  0.00000000E+00
  0.00000000E+00  0.00000000E+00  0.00000000E+00
  0.00000000E+00  0.00000000E+00  0.00000000E+00
  0.00000000E+00  0.00000000E+00  0.00000000E+00
  0.00000000E+00  0.00000000E+00  0.00000000E+00
  0.00000000E+00  0.00000000E+00  0.00000000E+00
  0.00000000E+00  0.00000000E+00  0.00000000E+00
  0.00000000E+00  0.00000000E+00  0.00000000E+00
  0.00000000E+00  0.00000000E+00  0.00000000E+00
  0.00000000E+00  0.00000000E+00  0.00000000E+00
  0.00000000E+00  0.00000000E+00  0.00000000E+00
  0.00000000E+00  0.00000000E+00  0.00000000E+00
  0.00000000E+00  0.00000000E+00  0.00000000E+00
  0.00000000E+00  0.00000000E+00  0.00000000E+00
  0.00000000E+00  0.00000000E+00  0.00000000E+00
  0.00000000E+00  0.00000000E+00  0.00000000E+00
  0.00000000E+00  0.00000000E+00  0.00000000E+00
  0.00000000E+00  0.00000000E+00  0.00000000E+00
  0.00000000E+00  0.00000000E+00  0.00000000E+00
