 Ni\(1\1\1)                             
   1.00000000000000     
     9.8291997910000006    0.0000000000000000    0.0000000000000000
     4.9145998955000003    8.5123367178000002    0.0000000000000000
     0.0000000000000000    0.0000000000000000   19.0128002167000005
   Ni   O    C    O    C    O    H 
    64     3     1     1     1     1     1
Selective dynamics
Direct
  0.8334927627106538  0.5843535532587689  0.2709717122833234   T   T   T
  0.3340332915433673  0.0842293436445153  0.2702755957944901   T   T   T
  0.8328320072785689  0.0845409074480456  0.2705173401051516   T   T   T
  0.3339122144127956  0.5839399609153987  0.2708681323156403   T   T   T
  0.5837544097402756  0.8341642698120917  0.2705512923821008   T   T   T
  0.8334814211686283  0.8343525941273935  0.2703739556953424   T   T   T
  0.0833982251058950  0.3341817252004904  0.2707798055940321   T   T   T
  0.8324366403548656  0.3341692565558088  0.2714501047409602   T   T   T
  0.5840288520270971  0.5828080065368120  0.2718667830158628   T   T   T
  0.0836171747748718  0.5840055808171764  0.2709068995937341   T   T   T
  0.0827767243585535  0.0854213395078796  0.2701784425798673   T   T   T
  0.5831918437960253  0.0845342426896759  0.2718405428912437   T   T   T
  0.3345895123777139  0.8338831901490901  0.2702686783382426   T   T   T
  0.0833294674251533  0.8343279741953269  0.2703164211834880   T   T   T
  0.3338664390076785  0.3340991789705971  0.2717605104539639   T   T   T
  0.5830882610061038  0.3339011589202071  0.2726897345791706   T   T   T
  0.9173786328003216  0.6662315236402802  0.3754151040964618   T   T   T
  0.9167292877832998  0.4165816941663029  0.3749988753699482   T   T   T
  0.6676022013152331  0.6660645667994424  0.3752584864567326   T   T   T
  0.1671835503480043  0.1673840286615667  0.3758301679479888   T   T   T
  0.9162397675414347  0.1674627109645016  0.3764425328245634   T   T   T
  0.9172699948212303  0.9175546498674364  0.3750357557168942   T   T   T
  0.4172073548878758  0.9173594413000009  0.3754033580980372   T   T   T
  0.4173644076887765  0.1677940669862817  0.3776127501227066   T   T   T
  0.6672162300810720  0.1667314702504128  0.3779151591264436   T   T   T
  0.1674033402537531  0.6673185383466743  0.3753179004193142   T   T   T
  0.4174554236825583  0.6661937276781159  0.3763464418159994   T   T   T
  0.4164565134266037  0.4176508900091326  0.3781774562964015   T   T   T
  0.6668556855777085  0.9175155739470714  0.3770770302642624   T   T   T
  0.1670173592711973  0.4164377244842994  0.3777129351017771   T   T   T
  0.6660540941459416  0.4155703664970637  0.3803752694857577   T   T   T
  0.1674423582946075  0.9180962117921321  0.3763270574098293   T   T   T
 -0.0018328730806900  0.2547348036503055  0.4827454453222708   T   T   T
  0.4989608045123664  0.2484903588074348  0.4849636223740794   T   T   T
  0.9975793214110756  0.7470702314211821  0.4792850190688603   T   T   T
  0.5062460172446461  0.7465578179301076  0.4795982144378584   T   T   T
  0.7495013748980401  0.7511908634285108  0.4801254345718742   T   T   T
  0.9989881902253712  0.5004772013138357  0.4838714654226119   T   T   T
  0.7518202639789074  0.5029858615923487  0.4835167309303719   T   T   T
  0.2492888651071489 -0.0012805019106175  0.4841511175257583   T   T   T
  0.0060972600830381  0.9983809854353544  0.4827132398633676   T   T   T
  0.5049850350656643  0.9954572696127190  0.4854393794211695   T   T   T
  0.2485926689208433  0.7557490618042955  0.4829353318130929   T   T   T
  0.7521709262552004  0.9933717035731212  0.4845377559407960   T   T   T
  0.2499920735559535  0.2522345970881135  0.4854278111091389   T   T   T
  0.7482846202072723  0.2529079633885953  0.4923635073157714   T   T   T
  0.2434601115300256  0.5021662391621963  0.4846695631965906   T   T   T
  0.5049871135721814  0.4999450628880908  0.4933205863457706   T   T   T
  0.9970724670000024  0.2558556729999992  0.1637003960000030   F   F   F
  0.4999617989999976  0.2500875830000027  0.1643123180000003   F   F   F
  0.9968841629999972  0.7476992069999966  0.1643590660000029   F   F   F
  0.5054474789999972  0.7476858750000019  0.1651548480000002   F   F   F
  0.7507219769999978  0.7486395119999969  0.1651830500000031   F   F   F
  0.9979410790000003  0.5014025589999989  0.1651978470000017   F   F   F
  0.7507272960000009  0.5014379059999996  0.1654730480000026   F   F   F
  0.2484077359999972  0.9989653640000000  0.1655050250000016   F   F   F
  0.0026835399999996  0.9989392600000002  0.1655775309999967   F   F   F
  0.5037179199999997  0.9979203070000011  0.1655856309999990   F   F   F
  0.2483221529999966  0.7533767729999994  0.1658259459999982   F   F   F
  0.7484137009999969  0.9978805350000002  0.1658943890000018   F   F   F
  0.2473094730000014  0.2543786680000011  0.1660089160000027   F   F   F
  0.7483561820000020  0.2543461500000035  0.1660180820000008   F   F   F
  0.2472921950000000  0.4989472700000022  0.1662971330000005   F   F   F
  0.5037960519999984  0.4989156760000029  0.1664085250000014   F   F   F
  0.3347037675720017  0.0811235970609413  0.5441720009459220   T   T   T
  0.8465800907425468  0.0658716450798495  0.5448171584273123   T   T   T
  0.3177148996605401  0.5954211161291826  0.5449259922113820   T   T   T
  0.9156910925549243  0.4193362540554116  0.5540427771254788   T   T   T
  0.9139248855270047  0.4134590660019362  0.6167333694669309   T   T   T
  0.6007550141618502  0.3480085671195480  0.5720260844031697   T   T   T
  0.5270698874671228  0.2777387064426786  0.5872575726506020   T   T   T
  0.6489445599523286  0.3881313253974188  0.6148834102706395   T   T   T
 
  0.00000000E+00  0.00000000E+00  0.00000000E+00
  0.00000000E+00  0.00000000E+00  0.00000000E+00
  0.00000000E+00  0.00000000E+00  0.00000000E+00
  0.00000000E+00  0.00000000E+00  0.00000000E+00
  0.00000000E+00  0.00000000E+00  0.00000000E+00
  0.00000000E+00  0.00000000E+00  0.00000000E+00
  0.00000000E+00  0.00000000E+00  0.00000000E+00
  0.00000000E+00  0.00000000E+00  0.00000000E+00
  0.00000000E+00  0.00000000E+00  0.00000000E+00
  0.00000000E+00  0.00000000E+00  0.00000000E+00
  0.00000000E+00  0.00000000E+00  0.00000000E+00
  0.00000000E+00  0.00000000E+00  0.00000000E+00
  0.00000000E+00  0.00000000E+00  0.00000000E+00
  0.00000000E+00  0.00000000E+00  0.00000000E+00
  0.00000000E+00  0.00000000E+00  0.00000000E+00
  0.00000000E+00  0.00000000E+00  0.00000000E+00
  0.00000000E+00  0.00000000E+00  0.00000000E+00
  0.00000000E+00  0.00000000E+00  0.00000000E+00
  0.00000000E+00  0.00000000E+00  0.00000000E+00
  0.00000000E+00  0.00000000E+00  0.00000000E+00
  0.00000000E+00  0.00000000E+00  0.00000000E+00
  0.00000000E+00  0.00000000E+00  0.00000000E+00
  0.00000000E+00  0.00000000E+00  0.00000000E+00
  0.00000000E+00  0.00000000E+00  0.00000000E+00
  0.00000000E+00  0.00000000E+00  0.00000000E+00
  0.00000000E+00  0.00000000E+00  0.00000000E+00
  0.00000000E+00  0.00000000E+00  0.00000000E+00
  0.00000000E+00  0.00000000E+00  0.00000000E+00
  0.00000000E+00  0.00000000E+00  0.00000000E+00
  0.00000000E+00  0.00000000E+00  0.00000000E+00
  0.00000000E+00  0.00000000E+00  0.00000000E+00
  0.00000000E+00  0.00000000E+00  0.00000000E+00
  0.00000000E+00  0.00000000E+00  0.00000000E+00
  0.00000000E+00  0.00000000E+00  0.00000000E+00
  0.00000000E+00  0.00000000E+00  0.00000000E+00
  0.00000000E+00  0.00000000E+00  0.00000000E+00
  0.00000000E+00  0.00000000E+00  0.00000000E+00
  0.00000000E+00  0.00000000E+00  0.00000000E+00
  0.00000000E+00  0.00000000E+00  0.00000000E+00
  0.00000000E+00  0.00000000E+00  0.00000000E+00
  0.00000000E+00  0.00000000E+00  0.00000000E+00
  0.00000000E+00  0.00000000E+00  0.00000000E+00
  0.00000000E+00  0.00000000E+00  0.00000000E+00
  0.00000000E+00  0.00000000E+00  0.00000000E+00
  0.00000000E+00  0.00000000E+00  0.00000000E+00
  0.00000000E+00  0.00000000E+00  0.00000000E+00
  0.00000000E+00  0.00000000E+00  0.00000000E+00
  0.00000000E+00  0.00000000E+00  0.00000000E+00
  0.00000000E+00  0.00000000E+00  0.00000000E+00
  0.00000000E+00  0.00000000E+00  0.00000000E+00
  0.00000000E+00  0.00000000E+00  0.00000000E+00
  0.00000000E+00  0.00000000E+00  0.00000000E+00
  0.00000000E+00  0.00000000E+00  0.00000000E+00
  0.00000000E+00  0.00000000E+00  0.00000000E+00
  0.00000000E+00  0.00000000E+00  0.00000000E+00
  0.00000000E+00  0.00000000E+00  0.00000000E+00
  0.00000000E+00  0.00000000E+00  0.00000000E+00
  0.00000000E+00  0.00000000E+00  0.00000000E+00
  0.00000000E+00  0.00000000E+00  0.00000000E+00
  0.00000000E+00  0.00000000E+00  0.00000000E+00
  0.00000000E+00  0.00000000E+00  0.00000000E+00
  0.00000000E+00  0.00000000E+00  0.00000000E+00
  0.00000000E+00  0.00000000E+00  0.00000000E+00
  0.00000000E+00  0.00000000E+00  0.00000000E+00
  0.00000000E+00  0.00000000E+00  0.00000000E+00
  0.00000000E+00  0.00000000E+00  0.00000000E+00
  0.00000000E+00  0.00000000E+00  0.00000000E+00
  0.00000000E+00  0.00000000E+00  0.00000000E+00
  0.00000000E+00  0.00000000E+00  0.00000000E+00
  0.00000000E+00  0.00000000E+00  0.00000000E+00
  0.00000000E+00  0.00000000E+00  0.00000000E+00
  0.00000000E+00  0.00000000E+00  0.00000000E+00
