 Ni_Pol_COOH_CO
   1.000
    9.8292000000000002    0.0000000000000000    0.0000000000000000
    4.9146000000000001    8.5123370000000005    0.0000000000000000
    0.0000000000000000    0.0000000000000000   33.0128020000000006
   Ni   O    H    C 
   64   35   61    1
Selective Dynamics
Direct
    0.8161304800000000    0.5889720400000000    0.1200248400000000    T  T  T
    0.3267620100000000    0.0893950100000000    0.1211907200000000    T  T  T
    0.8281435400000000    0.0930463300000000    0.1197676300000000    T  T  T
    0.3295063000000000    0.5878229600000000    0.1215391700000000    T  T  T
    0.5760458200000000    0.8344787900000000    0.1202235300000000    T  T  T
    0.8191150699999999    0.8479825200000000    0.1227014700000000    T  T  T
    0.0724901800000000    0.3403221100000000    0.1244834100000000    T  T  T
    0.8360156900000000    0.3349392500000000    0.1203170300000000    T  T  T
    0.5719467700000000    0.5928171800000001    0.1215288300000000    T  T  T
    0.0639450000000000    0.5965508899999999    0.1207646600000000    T  T  T
    0.0879175800000000    0.0802031900000000    0.1190218400000000    T  T  T
    0.5738104900000000    0.0977474800000000    0.1218458600000000    T  T  T
    0.3280706200000000    0.8348992600000000    0.1225252200000000    T  T  T
    0.0801046200000000    0.8404303400000001    0.1228029800000000    T  T  T
    0.3222069000000000    0.3505104600000000    0.1209987600000000    T  T  T
    0.5919944700000001    0.3370576000000000    0.1200636500000000    T  T  T
    0.9002942500000000    0.6836469300000000    0.1838208600000000    T  T  T
    0.9156591500000000    0.4180307300000000    0.1907629900000000    T  T  T
    0.6762111700000000    0.6707449700000000    0.1838349700000000    T  T  T
    0.1678114100000000    0.1620135500000000    0.1821139900000000    T  T  T
    0.9150554200000000    0.1834998500000000    0.1828499600000000    T  T  T
    0.8960893200000000    0.9423600500000000    0.1824652600000000    T  T  T
    0.4246379500000000    0.9095579300000000    0.1839404700000000    T  T  T
    0.4079705300000000    0.1794312300000000    0.1812898000000000    T  T  T
    0.6447037100000000    0.1933273200000000    0.1827697400000000    T  T  T
    0.1592603300000000    0.6708622100000000    0.1817236200000000    T  T  T
    0.3974035300000000    0.6826950000000001    0.1845810900000000    T  T  T
    0.4100066800000000    0.4312787500000000    0.1843548000000000    T  T  T
    0.6627235600000000    0.9310019300000000    0.1833064000000000    T  T  T
    0.1685058400000000    0.4161880100000000    0.1875442000000000    T  T  T
    0.6611619500000000    0.4251364300000000    0.1847243600000000    T  T  T
    0.1474428200000000    0.9356159600000000    0.1821562000000000    T  T  T
    0.9928992200000000    0.2628865500000000    0.2482523100000000    T  T  T
    0.4890406400000000    0.2605488800000000    0.2456246200000000    T  T  T
    0.9874943600000000    0.7780631300000000    0.2401565700000000    T  T  T
    0.5056744800000000    0.7501755300000000    0.2427309300000000    T  T  T
    0.7435252000000000    0.7611823700000000    0.2494536500000000    T  T  T
    0.9943404200000000    0.5083494100000000    0.2492831800000000    T  T  T
    0.7374555400000000    0.5098092600000000    0.2517440100000000    T  T  T
    0.2545272200000000   -0.0098797900000000    0.2465466000000000    T  T  T
    0.9911462800000000    0.0126253500000000    0.2441689700000000    T  T  T
    0.4930962700000000    0.0015222900000000    0.2412963800000000    T  T  T
    0.2500753600000000    0.7574603900000000    0.2428647500000000    T  T  T
    0.7440082000000000    0.0081284700000000    0.2448200500000000    T  T  T
    0.2459053800000000    0.2502760600000000    0.2460722200000000    T  T  T
    0.7384433600000000    0.2566737300000000    0.2432662000000000    T  T  T
    0.2537151800000000    0.5026766300000000    0.2600959400000000    T  T  T
    0.4853988900000000    0.5107230500000000    0.2442111000000000    T  T  T
    0.9970724700000000    0.2558556700000000    0.0591330300000000    F  F  F
    0.4999618000000000    0.2500875800000000    0.0594854500000000    F  F  F
    0.9968841600000000    0.7476992099999999    0.0595123700000000    F  F  F
    0.5054474500000000    0.7476859300000001    0.0599706800000000    F  F  F
    0.7507219800000000    0.7486395100000000    0.0599869200000000    F  F  F
    0.9979410800000000    0.5014025600000001    0.0599954500000000    F  F  F
    0.7507273000000000    0.5014379100000000    0.0601539400000000    F  F  F
    0.2484077800000000    0.9989653600000000    0.0601723500000000    F  F  F
    0.0026835400000000    0.9989392600000000    0.0602141100000000    F  F  F
    0.5037179200000000    0.9979203100000000    0.0602187800000000    F  F  F
    0.2483221500000000    0.7533767700000000    0.0603571900000000    F  F  F
    0.7484136000000000    0.9978805400000000    0.0603966000000000    F  F  F
    0.2473094700000000    0.2543786700000000    0.0604625600000000    F  F  F
    0.7483561800000000    0.2543461500000000    0.0604678400000000    F  F  F
    0.2472921900000000    0.4989472700000000    0.0606285500000000    F  F  F
    0.5037960500000001    0.4989156800000000    0.0606927000000000    F  F  F
    0.3327875000000000    0.0789301800000000    0.2818933700000000    T  T  T
    0.8318350500000000    0.0850112600000000    0.2840153800000000    T  T  T
    0.3296322400000000    0.6243564400000000    0.2885058200000000    T  T  T
    0.1741032600000000    0.5927103800000000    0.5558346500000000    T  T  T
    0.5099240500000000    0.8738796900000000    0.4979065200000000    T  T  T
    0.2493832000000000    0.8997453600000000    0.4938480600000000    T  T  T
    0.7050199500000000    0.2138376000000000    0.4285155100000000    T  T  T
   -0.0001711700000000    0.2001607400000000    0.3118822900000000    T  T  T
    0.1919760200000000    0.2830989500000000    0.5489241100000000    T  T  T
    0.7790698200000000    0.7568251100000000    0.3086732000000000    T  T  T
    0.1944747000000000    0.6925736700000000    0.3600381100000000    T  T  T
    0.4354366400000000    0.7309676000000001    0.3629056500000000    T  T  T
    0.6491803100000000    0.4748980400000000    0.4678270000000000    T  T  T
   -0.1172338900000000    0.7910826100000000    0.5276942700000000    T  T  T
    0.8623927600000000    0.1150663600000000    0.5502793900000000    T  T  T
    0.2211762600000000    0.8674841000000000    0.5742165800000000    T  T  T
    0.6946870600000000    0.9930604200000001    0.3522626800000000    T  T  T
   -0.1099112400000000    0.7499094300000000    0.4282822100000000    T  T  T
    0.2041077100000000    0.5377783900000001    0.4263590000000000    T  T  T
    0.0688477200000000    0.3723306900000000    0.3604121800000000    T  T  T
    0.6988574800000000    0.5511132100000000    0.3127659600000000    T  T  T
    0.1063868300000000    0.1554538500000000    0.4308833000000000    T  T  T
    0.7478768600000000    0.5785052800000000    0.4016568200000000    T  T  T
    0.5718378700000000    0.7117393000000000    0.5924958700000000    T  T  T
   -0.0505899800000000    0.2873804100000000    0.5063190200000000    T  T  T
    0.4074222600000000    0.2243231300000000    0.4204325500000000    T  T  T
   -0.0243265800000000    0.9831286100000000    0.3893610100000000    T  T  T
    0.6970321300000000    0.3160351200000000    0.3531837700000000    T  T  T
    0.4696579100000000    0.1557083400000000    0.5106465600000000    T  T  T
    0.7527409900000001    0.6043843700000000    0.5279039100000000    T  T  T
    0.1336045000000000    0.1338503600000000    0.6152906900000000    T  T  T
    0.3439487100000000    0.5909603200000000    0.4883504800000000    T  T  T
    0.3814685100000000    1.0539434400000001    0.3614632200000000    T  T  T
    0.0790876300000000    0.5555730600000000    0.2977080600000000    T  T  T
    0.4084394000000000    0.3066685000000000    0.3300331100000000    T  T  T
    0.1563079700000000    0.5012255600000000    0.5571792800000001    T  T  T
    0.0737257700000000    0.6620527500000000    0.5409094900000000    T  T  T
    0.4967480900000000    0.9838500999999999    0.5036065100000000    T  T  T
    0.6130531600000000    0.7960215500000000    0.5051605500000000    T  T  T
    0.2013480000000000    0.9859392200000000    0.4728915300000000    T  T  T
    0.3606443100000000    0.8795568100000000    0.4954421600000000    T  T  T
    0.8004001100000000    0.1033100700000000    0.4275990000000000    T  T  T
    0.7137950100000000    0.2707632500000000    0.4515483800000000    T  T  T
    0.8966257399999999    0.2077957200000000    0.3151817600000000    T  T  T
    0.0194419500000000    0.2700993200000000    0.3334119200000000    T  T  T
    0.1068292400000000    0.2962053000000000    0.5297987000000000    T  T  T
    0.1990993700000000    0.2125000400000000    0.5699214600000000    T  T  T
   -0.0193797000000000    0.6529558600000001    0.3079943700000000    T  T  T
    0.7252438600000000    0.8508880900000000    0.3268788500000000    T  T  T
    0.1871907400000000    0.6619324100000000    0.3330836300000000    T  T  T
    0.3005238000000000    0.6994881400000000    0.3600646200000000    T  T  T
    0.4006325900000000    0.8430259700000000    0.3674155400000000    T  T  T
    0.5408580700000000    0.6830753899999999    0.3750149800000000    T  T  T
    0.5358836500000000    0.5072264500000000    0.4739829400000000    T  T  T
    0.6954551300000000    0.4992507100000000    0.4917958100000000    T  T  T
    0.8518111600000000    0.7156824400000000    0.5351033100000000    T  T  T
   -0.1535611400000000    0.8062295700000000    0.5003512100000000    T  T  T
    0.7500659900000000    0.1837939200000000    0.5446990300000000    T  T  T
    0.8960559200000000    1.0068151100000000    0.5464184300000000    T  T  T
    0.2149072200000000    0.8951794600000000    0.5432916700000000    T  T  T
    0.1997843700000000    0.7792244500000000    0.5741802600000000    T  T  T
    0.5781024500000000    1.0445399399999999    0.3581723900000000    T  T  T
    0.7222248100000001    1.0608789700000001    0.3363121300000000    T  T  T
   -0.1233326100000000    0.8227077500000000    0.4060630100000000    T  T  T
    0.0053483800000000    0.6815548100000000    0.4307280500000000    T  T  T
    0.2554264100000000    0.5572180300000000    0.4496727800000000    T  T  T
    0.2244892700000000    0.5757623800000000    0.4015958300000000    T  T  T
    0.0946270400000000    0.4252844500000000    0.3343873600000000    T  T  T
    0.9737774200000000    0.4565153800000000    0.3733635900000000    T  T  T
    0.5860002000000000    0.6261653800000000    0.3126415000000000    T  T  T
    0.7102807799999999    0.4456293400000000    0.3245592500000000    T  T  T
    0.0440896800000000    0.1230387900000000    0.4142219600000000    T  T  T
    0.1522338100000000    0.1988830100000000    0.4108747000000000    T  T  T
    0.7722732400000000    0.6573990000000000    0.4125718500000000    T  T  T
    0.7191489800000000    0.5323726700000000    0.4265995800000000    T  T  T
    0.4562382800000000    0.7644622100000000    0.5873535100000000    T  T  T
    0.5884928100000000    0.7982313700000000    0.6018297800000000    T  T  T
    0.0122300900000000    0.2329687000000000    0.4818785100000000    T  T  T
   -0.0464259900000000    0.1977033200000000    0.5228624300000000    T  T  T
    0.5048996300000000    0.2293915400000000    0.4219756400000000    T  T  T
    0.3122546400000000    0.3345932000000000    0.4200076600000000    T  T  T
    0.0604786900000000    0.8762855600000000    0.3773250000000000    T  T  T
    0.9193685100000000    1.0266162500000000    0.3645497400000000    T  T  T
    0.6907648000000000    0.2982731900000000    0.3830953500000000    T  T  T
    0.6063228800000000    0.3173241200000000    0.3425313000000000    T  T  T
    0.3646266900000000    0.2138998200000000    0.5252750200000000    T  T  T
    0.4342173500000000    0.1864128700000000    0.4815478500000000    T  T  T
    0.6918652600000000    0.6318134500000000    0.5555591500000000    T  T  T
    0.8280737200000000    0.4853844200000000    0.5275075200000000    T  T  T
    0.0206053800000000    0.2001017700000000    0.6205300400000000    T  T  T
    0.1437651800000000    1.0358935000000000    0.6035589600000000    T  T  T
    0.2994661800000000    0.5619504000000000    0.5108327499999999    T  T  T
    0.3043132900000000    0.7094796200000000    0.4896668400000000    T  T  T
    0.3736021000000000    0.1401951300000000    0.3799042600000000    T  T  T
    0.3307185900000000    0.0915290600000000    0.3348511200000000    T  T  T
    0.7658470900000000    0.6668228800000000    0.3178977000000000    T  T  T
    0.4070906900000000    0.3078661600000000    0.2950282700000000    T  T  T

   0.000000000000000    0.000000000000000    0.000000000000000
   0.000000000000000    0.000000000000000    0.000000000000000
   0.000000000000000    0.000000000000000    0.000000000000000
   0.000000000000000    0.000000000000000    0.000000000000000
   0.000000000000000    0.000000000000000    0.000000000000000
   0.000000000000000    0.000000000000000    0.000000000000000
   0.000000000000000    0.000000000000000    0.000000000000000
   0.000000000000000    0.000000000000000    0.000000000000000
   0.000000000000000    0.000000000000000    0.000000000000000
   0.000000000000000    0.000000000000000    0.000000000000000
   0.000000000000000    0.000000000000000    0.000000000000000
   0.000000000000000    0.000000000000000    0.000000000000000
   0.000000000000000    0.000000000000000    0.000000000000000
   0.000000000000000    0.000000000000000    0.000000000000000
   0.000000000000000    0.000000000000000    0.000000000000000
   0.000000000000000    0.000000000000000    0.000000000000000
  -0.000997123194001   -0.000143943618670   -0.000230429357960
   0.001157437445999    0.000753426947870    0.000054140995280
   0.000634278275999    0.001346311219920   -0.001401393444901
  -0.001420319400000   -0.001842920960500   -0.000905211030840
   0.002231719859999   -0.000123939626720   -0.001772787467400
  -0.000523306608001   -0.001023012660660    0.002065611021139
  -0.002008154706001   -0.002229466183670    0.001882059842020
  -0.001023612888000    0.001903358553200    0.003381171180839
  -0.001321486794000   -0.003104874920750    0.001147524997521
   0.003763944702000    0.001396448884850    0.002656210048920
  -0.001100329794000    0.003211789873471    0.000086493541240
  -0.000079665666001    0.000426042466850   -0.003958565087819
  -0.001965889146000    0.000415487168969    0.001229066618460
   0.004381611630000    0.000055245067130    0.000863284772301
   0.003431963472000   -0.000393780709620    0.000673791288820
   0.001246981457999   -0.000353176862130    0.000431807450160
   0.003848770698001    0.003124964036070    0.000103990326300
  -0.003035060376000    0.002442359732040   -0.000391861959741
   0.002328734063999    0.000925972018861   -0.004929471594640
  -0.002925563087999    0.002467896743040   -0.002410924930061
  -0.003695042010001    0.000103084401070    0.001431104966700
  -0.002028058836000   -0.003026816790460   -0.005324304706560
  -0.000670154856000    0.003583183136780    0.006877557040662
   0.001274650656000   -0.000069971410140    0.003241196900360
  -0.000466690415999    0.001652585105180   -0.002912059264419
   0.001051232940000    0.000354453712680   -0.000784384175520
  -0.000216193253999   -0.003018730070311   -0.000426525401840
   0.001576751118000   -0.001581677337970   -0.001269012108880
  -0.003935808264000   -0.002856229556980   -0.001492508778419
   0.002798717261999    0.000050988898630   -0.002851975964779
   0.000797393850000   -0.002464406684870    0.000183551179120
  -0.001410539345999   -0.000923673687870   -0.001203316632902
   0.000000000000000    0.000000000000000    0.000000000000000
   0.000000000000000    0.000000000000000    0.000000000000000
   0.000000000000000    0.000000000000000    0.000000000000000
   0.000000000000000    0.000000000000000    0.000000000000000
   0.000000000000000    0.000000000000000    0.000000000000000
   0.000000000000000    0.000000000000000    0.000000000000000
   0.000000000000000    0.000000000000000    0.000000000000000
   0.000000000000000    0.000000000000000    0.000000000000000
   0.000000000000000    0.000000000000000    0.000000000000000
   0.000000000000000    0.000000000000000    0.000000000000000
   0.000000000000000    0.000000000000000    0.000000000000000
   0.000000000000000    0.000000000000000    0.000000000000000
   0.000000000000000    0.000000000000000    0.000000000000000
   0.000000000000000    0.000000000000000    0.000000000000000
   0.000000000000000    0.000000000000000    0.000000000000000
   0.000000000000000    0.000000000000000    0.000000000000000
   0.003790581834000    0.006016094174750   -0.001153467301881
  -0.001111535082000   -0.003979262177390   -0.004503936576860
   0.002306569218000    0.006084533364230    0.002401351217481
  -0.000154220148000    0.004454676198840    0.000084182645100
  -0.000934019730000   -0.000626593126571    0.005653772470520
  -0.000198254963999   -0.000827569403139   -0.003675645374678
  -0.000121194036001    0.002029000647320    0.008262444084560
   0.002068948308000   -0.007628075432440    0.002025335402699
  -0.004869041658000   -0.001205432042570    0.002860229165275
  -0.009858097848001    0.006542922711679    0.003998510578239
   0.003113743122000    0.002204950653111    0.002194691076960
  -0.000308538588000    0.001144228339540    0.005876939012040
  -0.002601199488002    0.010475281912200    0.002898193887578
  -0.002322197646000    0.006074999546790   -0.001273964029181
  -0.004684596719999    0.007674723039200   -0.004151359851498
  -0.002647052706000   -0.001811169943490   -0.006183958070640
  -0.003176355126000    0.008157798163950   -0.000032352545958
   0.000073473270000   -0.008536767407190    0.003605988362461
  -0.001084652220000   -0.000671963882779   -0.003495725603781
   0.001478901432000    0.003667455273080    0.002127014832860
   0.000596829023999    0.002845504012361    0.000508397150801
   0.004131556782000   -0.002822435579090    0.001059380816182
  -0.004782987012000   -0.000248389993660    0.002453841572660
   0.004149937385998    0.000754448428309    0.003310193656542
   0.003759816438000    0.002972252710290    0.003840709384679
  -0.007365314435999    0.001671141999840    0.000645730407122
  -0.005563916952000   -0.007638460483580   -0.006684102020939
   0.003604711661998    0.002263345284930    0.002323771132781
   0.000634524005999    0.000372244497010    0.001741095177479
   0.002518339331999    0.001658033000860   -0.001480954297715
   0.002034054648000    0.003489377183040    0.002137909057520
  -0.001299567678000   -0.000599013154689    0.001790944508500
  -0.000730014684001   -0.000022472569681   -0.006126845923179
  -0.000483350910001    0.003607783790709    0.009443312012099
   0.003919688376000    0.001996483519980    0.000294144065821
  -0.000738811818000   -0.030101240976030   -0.006369159889861
   0.011964495408000    0.016527213025720   -0.008073280729100
  -0.000969798018001    0.006773692167750    0.000772829694821
   0.025738693974001    0.001450927841649   -0.006580111694642
   0.030182622732000    0.010196928492300   -0.021358622637960
   0.002888752734000    0.032688821177290    0.002574008171941
   0.018147602814000    0.008317149112590    0.002104566127500
  -0.016584268554000   -0.011843810331690    0.003375889132521
  -0.000069443298001    0.000443748127810   -0.015559263710621
   0.022309286094000    0.030235054913670    0.018509617825361
  -0.013510628568000    0.046975672227980    0.003943379198894
  -0.021255153540000    0.006506149415840   -0.000439070266598
  -0.015540210930000    0.020538141096750    0.024515306765203
  -0.033410728595999    0.028884232155140   -0.017355160139422
  -0.017834641086000   -0.013748530858810    0.019261979582941
   0.006111845706000    0.015018912032690    0.012920220318740
  -0.035165240795999   -0.009715300464840    0.004480167359420
  -0.003552567756000   -0.001363846634140   -0.009429116507238
   0.014900379156002   -0.002878191386440   -0.021347728413300
   0.000295662336001    0.000967341976680    0.002548258186380
   0.013596290045999    0.019078445547991   -0.004550814755699
   0.010613373576000    0.022000815963460   -0.000982791115540
  -0.007016623566001   -0.010236510859350   -0.001663845220801
   0.029628550727999   -0.000453367068621   -0.014553693761698
  -0.021461615885999    0.013959636816410   -0.034273560908382
   0.004065504558000    0.021879004420990   -0.005831051217260
   0.004839504911999    0.009490064027821    0.023799919345860
   0.000944536974000   -0.016961086842608    0.013390652747239
   0.009107687574000    0.000081633311829   -0.006797996187839
  -0.021816941466000   -0.004301028515989    0.002513264616258
  -0.010201333512001   -0.015744929255420    0.036846248568240
  -0.032427218844000    0.007025061479361   -0.001066973760642
   0.008173569552000    0.002366940426220    0.005894435797101
   0.003298728666000   -0.001756009999730    0.013102120857763
   0.006470562360001   -0.019595570020740   -0.004795109490500
  -0.002845848276001    0.006746027072500   -0.000584656723420
  -0.017619283314000    0.044049726630970   -0.010772737548640
  -0.016180681602000    0.025688275228490   -0.011860179246520
  -0.000725444105999   -0.009576294001630   -0.014483046365420
  -0.005480024730000   -0.005968595334290   -0.009638087543902
  -0.005437710023999    0.000701927309020    0.030053204300703
   0.024151032444001    0.025342759469661   -0.039503449001220
  -0.002614763784000   -0.002411545072100    0.007088508845440
  -0.005433974928000    0.004785295367920    0.027819227989358
   0.020361728406001   -0.011225303925270   -0.015785401404319
   0.009073383666000    0.017277575532270    0.011591124910220
   0.014969232702001   -0.000940868608610    0.004588779478000
  -0.004287202164001   -0.010256344604560    0.018529755634580
  -0.006359983860001   -0.026614502617460   -0.015200084424860
   0.006192346854000   -0.020861780149490   -0.003436632688199
  -0.012856741038001    0.018238448132830   -0.012211765587818
   0.017126545517999    0.017695871772450   -0.008033005110660
  -0.022044880614001   -0.024689267358170   -0.023842175732419
   0.011468317392000   -0.003883498386140    0.033710362506262
  -0.012717313836000    0.002930116642140   -0.004317414245559
  -0.000494408759999   -0.006374208192339   -0.014739555836961
   0.000963507330000    0.011982901918270   -0.008583658648025
   0.009495547806000    0.009422220701929    0.000984441755641
   0.001055066327999    0.001449310497620    0.027557106341479
  -0.006380723472001   -0.006218091931760   -0.005507195629640
   0.010215340121999    0.004128738815110   -0.032126078138280
  -0.001173459042001    0.008387971756430   -0.010865173394240