Ni_COCOH
   1.00000000000000     
     9.8291997910000006    0.0000000000000000    0.0000000000000000
     4.9145998955000003    8.5123367178000002    0.0000000000000000
     0.0000000000000000    0.0000000000000000   19.0128002167000005
   Ni   O    C    H 
    64     2     2     1
Selective dynamics
Direct
      0.8365668919495032      0.5841479827314661      0.2721283512674488   T T T
      0.3363977154426303      0.0838723531113887      0.2717659438191427   T T T
      0.8367210627686479      0.0839996817482322      0.2720469115462982   T T T
      0.3366597134150954      0.5844034309258992      0.2723432578464269   T T T
      0.5863773721280422      0.8343607259149094      0.2714585034391279   T T T
      0.8365879795840505      0.8340905336787561      0.2717208891267854   T T T
      0.0868581744169821      0.3339278666638656      0.2714008422475010   T T T
      0.8368065892767796      0.3339007099490517      0.2725690035990629   T T T
      0.5865219386513320      0.5843652705899768      0.2725746284849848   T T T
      0.0865985161866904      0.5841842513113673      0.2717886137001795   T T T
      0.0864040064654557      0.0839607359086598      0.2716748677550268   T T T
      0.5864408158147673      0.0842569461180853      0.2713150428295978   T T T
      0.3366497381372770      0.8339324021832046      0.2717796843352476   T T T
      0.0866529349770566      0.8340546644803872      0.2718404537863980   T T T
      0.3364009353415816      0.3343371569523931      0.2714278188375081   T T T
      0.5863895566036630      0.3340803068031578      0.2722172330183021   T T T
      0.9204271351246067      0.6670322687471318      0.3772450932701375   T T T
      0.9206772645530026      0.4168705352631693      0.3773154598505478   T T T
      0.6705666875474285      0.6669782601789577      0.3774506541248895   T T T
      0.1700058704015441      0.1670851999103257      0.3769559265607809   T T T
      0.9192337763359486      0.1677500681733482      0.3782706665893451   T T T
      0.9204133856696910      0.9172790536183237      0.3772994219028129   T T T
      0.4207281776173896      0.9164852741658324      0.3771974642485186   T T T
      0.4201646383791017      0.1672172283713188      0.3762364006064480   T T T
      0.6709666153384041      0.1675366122261993      0.3772170719197768   T T T
      0.1709398421655133      0.6667331763796374      0.3774665953776647   T T T
      0.4217847072830340      0.6656381209034143      0.3786017460184371   T T T
      0.4210933526584900      0.4176745194666071      0.3774398835492234   T T T
      0.6702450603861099      0.9175112626152977      0.3768107798920999   T T T
      0.1706988966456177      0.4169412792841112      0.3770123588301793   T T T
      0.6708022691795984      0.4171930152683667      0.3782320327463611   T T T
      0.1704976435719367      0.9168600783442570      0.3773263792912510   T T T
      0.0051553224608293      0.2498271786900125      0.4826495126705699   T T T
      0.5017822451744269      0.2478167278902815      0.4804605722929481   T T T
      0.0045398170703984      0.7508972983620480      0.4832225738772140   T T T
      0.5036323764217573      0.7515770625971180      0.4829768559199711   T T T
      0.7543163495143952      0.7524175729632826      0.4829431634440632   T T T
      0.0058756421723070      0.5008196974943231      0.4828958235035427   T T T
      0.7577260766524232      0.5042312646193563      0.4865296661726808   T T T
      0.2535801463679953      0.0003001861091565      0.4828967944416049   T T T
      0.0033000525064913      0.0008238458810925      0.4830885878521113   T T T
      0.5033129256893780      0.0003210392541442      0.4828031920093645   T T T
      0.2549691684271541      0.7494570311686839      0.4833107997505291   T T T
      0.7538934671836198      0.9997876558563452      0.4828207066746662   T T T
      0.2538036541152219      0.2499744842786247      0.4827596092157274   T T T
      0.7527953903969277      0.2500068755507348      0.4885488313949853   T T T
      0.2537458166155707      0.5003914769285692      0.4831503660469214   T T T
      0.5046892050414391      0.4977596444323159      0.4894223136908470   T T T
      0.0026112730669989      0.2514163455353523      0.1663693507546073   F F F
      0.5028359588777052      0.2514929355536024      0.1661759603896355   F F F
      0.0030560974668422      0.7511269884414384      0.1658719452616138   F F F
      0.5033076132210927      0.7506609583527354      0.1663465091607593   F F F
      0.7532682474966594      0.7508691073177411      0.1660531918200454   F F F
      0.0028002387127768      0.5013900936654350      0.1661240197119434   F F F
      0.7529555638301901      0.5010892762171570      0.1666116809520847   F F F
      0.2529409220198196      0.0010120677231631      0.1660932283993907   F F F
      0.0028582999233009      0.0009932061177085      0.1661243355616477   F F F
      0.5028865233059581      0.0011572696042236      0.1658998721247798   F F F
      0.2530337325282597      0.7509164025506214      0.1662011938963474   F F F
      0.7531568978396291      0.0010552905116642      0.1659564443193916   F F F
      0.2528729439986899      0.2510790348926546      0.1660194685926879   F F F
      0.7527808689557227      0.2514260865737994      0.1666795439998415   F F F
      0.2527594651722289      0.5015437661146149      0.1661774921676525   F F F
      0.5029164721396698      0.5013793349335109      0.1668185952402876   F F F
      0.7603464104426603      0.5140323192249361      0.6343325994683295   T T T
      0.6013207604291846      0.3339298358906126      0.6257554816038967   T T T
      0.7234682902940576      0.4730760337860148      0.5810827376459331   T T T
      0.6424150863327889      0.3841329076564511      0.5669376252932653   T T T
      0.5521270541184817      0.2724904222733898      0.6108829322606296   T T T
 
  0.00000000E+00  0.00000000E+00  0.00000000E+00
  0.00000000E+00  0.00000000E+00  0.00000000E+00
  0.00000000E+00  0.00000000E+00  0.00000000E+00
  0.00000000E+00  0.00000000E+00  0.00000000E+00
  0.00000000E+00  0.00000000E+00  0.00000000E+00
  0.00000000E+00  0.00000000E+00  0.00000000E+00
  0.00000000E+00  0.00000000E+00  0.00000000E+00
  0.00000000E+00  0.00000000E+00  0.00000000E+00
  0.00000000E+00  0.00000000E+00  0.00000000E+00
  0.00000000E+00  0.00000000E+00  0.00000000E+00
  0.00000000E+00  0.00000000E+00  0.00000000E+00
  0.00000000E+00  0.00000000E+00  0.00000000E+00
  0.00000000E+00  0.00000000E+00  0.00000000E+00
  0.00000000E+00  0.00000000E+00  0.00000000E+00
  0.00000000E+00  0.00000000E+00  0.00000000E+00
  0.00000000E+00  0.00000000E+00  0.00000000E+00
  0.00000000E+00  0.00000000E+00  0.00000000E+00
  0.00000000E+00  0.00000000E+00  0.00000000E+00
  0.00000000E+00  0.00000000E+00  0.00000000E+00
  0.00000000E+00  0.00000000E+00  0.00000000E+00
  0.00000000E+00  0.00000000E+00  0.00000000E+00
  0.00000000E+00  0.00000000E+00  0.00000000E+00
  0.00000000E+00  0.00000000E+00  0.00000000E+00
  0.00000000E+00  0.00000000E+00  0.00000000E+00
  0.00000000E+00  0.00000000E+00  0.00000000E+00
  0.00000000E+00  0.00000000E+00  0.00000000E+00
  0.00000000E+00  0.00000000E+00  0.00000000E+00
  0.00000000E+00  0.00000000E+00  0.00000000E+00
  0.00000000E+00  0.00000000E+00  0.00000000E+00
  0.00000000E+00  0.00000000E+00  0.00000000E+00
  0.00000000E+00  0.00000000E+00  0.00000000E+00
  0.00000000E+00  0.00000000E+00  0.00000000E+00
  0.00000000E+00  0.00000000E+00  0.00000000E+00
  0.00000000E+00  0.00000000E+00  0.00000000E+00
  0.00000000E+00  0.00000000E+00  0.00000000E+00
  0.00000000E+00  0.00000000E+00  0.00000000E+00
  0.00000000E+00  0.00000000E+00  0.00000000E+00
  0.00000000E+00  0.00000000E+00  0.00000000E+00
  0.00000000E+00  0.00000000E+00  0.00000000E+00
  0.00000000E+00  0.00000000E+00  0.00000000E+00
  0.00000000E+00  0.00000000E+00  0.00000000E+00
  0.00000000E+00  0.00000000E+00  0.00000000E+00
  0.00000000E+00  0.00000000E+00  0.00000000E+00
  0.00000000E+00  0.00000000E+00  0.00000000E+00
  0.00000000E+00  0.00000000E+00  0.00000000E+00
  0.00000000E+00  0.00000000E+00  0.00000000E+00
  0.00000000E+00  0.00000000E+00  0.00000000E+00
  0.00000000E+00  0.00000000E+00  0.00000000E+00
  0.00000000E+00  0.00000000E+00  0.00000000E+00
  0.00000000E+00  0.00000000E+00  0.00000000E+00
  0.00000000E+00  0.00000000E+00  0.00000000E+00
  0.00000000E+00  0.00000000E+00  0.00000000E+00
  0.00000000E+00  0.00000000E+00  0.00000000E+00
  0.00000000E+00  0.00000000E+00  0.00000000E+00
  0.00000000E+00  0.00000000E+00  0.00000000E+00
  0.00000000E+00  0.00000000E+00  0.00000000E+00
  0.00000000E+00  0.00000000E+00  0.00000000E+00
  0.00000000E+00  0.00000000E+00  0.00000000E+00
  0.00000000E+00  0.00000000E+00  0.00000000E+00
  0.00000000E+00  0.00000000E+00  0.00000000E+00
  0.00000000E+00  0.00000000E+00  0.00000000E+00
  0.00000000E+00  0.00000000E+00  0.00000000E+00
  0.00000000E+00  0.00000000E+00  0.00000000E+00
  0.00000000E+00  0.00000000E+00  0.00000000E+00
  0.00000000E+00  0.00000000E+00  0.00000000E+00
  0.00000000E+00  0.00000000E+00  0.00000000E+00
  0.00000000E+00  0.00000000E+00  0.00000000E+00
  0.00000000E+00  0.00000000E+00  0.00000000E+00
  0.00000000E+00  0.00000000E+00  0.00000000E+00
