 Layer\(9)                              
   1.00000000000000     
     9.8291997910000006    0.0000000000000000    0.0000000000000000
     4.9145998955000003    8.5123367178000002    0.0000000000000000
     0.0000000000000000    0.0000000000000000   30.7147998810000011
   Ni   O    H    C    H    C    O    O    H 
    64    30    60     1     2     1     1     1     1
Selective dynamics
Direct
  0.0732692739202721  0.0857762419056552  0.1175731171549118   T   T   T
  0.3166933511646168  0.0964029236239063  0.1221202245007577   T   T   T
  0.3229411391614933  0.8321956791641717  0.1209694691890854   T   T   T
  0.5790231234624399  0.3321321289301594  0.1195850418774331   T   T   T
  0.3231259802813075  0.5874447630319468  0.1208192874419957   T   T   T
  0.3178277182835632  0.3400028211683344  0.1185993760029609   T   T   T
  0.8294764554358985  0.0875025462976187  0.1224860246878179   T   T   T
  0.5742159386745307  0.0930050355019535  0.1177279008110479   T   T   T
  0.8292838960473797  0.3376879792404119  0.1201465527114227   T   T   T
  0.5796561837225371  0.5872277462690541  0.1193310749387326   T   T   T
  0.0741132862011156  0.8312241417188847  0.1174247060371504   T   T   T
  0.5736028816103970  0.8467853728010952  0.1196357765821511   T   T   T
  0.0681884931915481  0.3409984786315858  0.1199910421528821   T   T   T
  0.8268154580088982  0.5881771082151835  0.1219272416422277   T   T   T
  0.0749274976163365  0.5825797720961917  0.1243864764039075   T   T   T
  0.8347273999255304  0.8375698838899228  0.1216132550665255   T   T   T
  0.1547177470468003  0.1618713555886630  0.1811563559781985   T   T   T
  0.1450041590462745  0.9236113814358795  0.1864165150527244   T   T   T
  0.3976574214114937  0.1652960214058440  0.1879675484717842   T   T   T
  0.4070312763518765  0.9206016485925453  0.1892740998357885   T   T   T
  0.4074797645921931  0.4134428660987056  0.1825135230213477   T   T   T
  0.4074220272638613  0.6670034860842821  0.1861819117972815   T   T   T
  0.9022733004978820  0.1739740648790113  0.1848335606185814   T   T   T
  0.6501353264883397  0.1728136896692606  0.1840888610176697   T   T   T
  0.6612826991117677  0.4066372656142443  0.1860149959032094   T   T   T
  0.1520639951257255  0.6817845101904768  0.1910469578489657   T   T   T
  0.9136503880409869  0.4195085580031225  0.1826613437147521   T   T   T
  0.6638027576179318  0.6654315772369629  0.1833677141717754   T   T   T
  0.8937114269318587  0.9227585333637824  0.1903484931196238   T   T   T
  0.6499572932225051  0.9235604791143731  0.1857926676545893   T   T   T
  0.1557887164813978  0.4219501238528420  0.1861903926921817   T   T   T
  0.9082746391375728  0.6740493759695211  0.1878358438181674   T   T   T
  0.2236562150816019  1.0248421845164981  0.2492297949945339   T   T   T
  0.4848606894110761  0.2579514004848842  0.2460159462509566   T   T   T
  0.4809216945121400  0.4995121326144333  0.2534365589628118   T   T   T
  0.2349814999592144  0.2608293167936254  0.2496655467560097   T   T   T
 -0.0352911794498202  0.2776939987945772  0.2493097993886876   T   T   T
  0.7263934681170986  0.2595409966756000  0.2529351220758146   T   T   T
  0.4777425984678048  0.7540877070431731  0.2511104434541966   T   T   T
  0.2240395099219087  0.7721713733491690  0.2557104373596255   T   T   T
  0.4808811032186853  1.0129630511813810  0.2594286402417586   T   T   T
  0.9725559986562256  0.0210845938274911  0.2545079881357439   T   T   T
  0.2383895234723434  0.5071004709875463  0.2510026829520784   T   T   T
  0.7170967769561207  0.5200323627865754  0.2529427849508279   T   T   T
  0.7382903098899313  1.0051961544226151  0.2492289546649757   T   T   T
 -0.0199030384218259  0.7663382723753519  0.2565069020324216   T   T   T
  0.7244643803820605  0.7588849399925509  0.2500671920012524   T   T   T
 -0.0282395885848566  0.5081135811172012  0.2498289042264709   T   T   T
  0.2488099900000000  0.0018900000000000  0.0530725930000000   F   F   F
  0.4986599900000000  0.2520299800000000  0.0530725930000000   F   F   F
  0.4987100700000000  0.5019500099999999  0.0530725930000000   F   F   F
  0.2486699900000000  0.2519600100000000  0.0530725930000000   F   F   F
  0.9988300200000000  0.2520000100000000  0.0530725930000000   F   F   F
  0.7487000500000000  0.2521200000000000  0.0530725930000000   F   F   F
  0.4986899700000000  0.7520999700000000  0.0530725930000000   F   F   F
  0.2487699600000000  0.7521200300000001  0.0530725930000000   F   F   F
  0.4985999800000000  0.0021100000000000  0.0530725930000000   F   F   F
  0.9987700300000000  0.0022100000000000  0.0530725930000000   F   F   F
  0.2487500100000000  0.5021200300000001  0.0530725930000000   F   F   F
  0.7486699900000000  0.5022699800000000  0.0530725930000000   F   F   F
  0.7485900000000000  0.0024500000000000  0.0530725930000000   F   F   F
  0.9987000500000000  0.7524499700000000  0.0530725930000000   F   F   F
  0.7486699300000000  0.7524300300000000  0.0530725930000000   F   F   F
  0.9986899600000000  0.5022000200000000  0.0530725930000000   F   F   F
  0.0999847550496759  0.9705222855726441  0.5847454153054443   T   T   T
  0.6411191286641358  1.1091793494925477  0.6397279362196736   T   T   T
  0.8559021014833792  0.1412533537396531  0.4109002009886462   T   T   T
  0.3847036479799092  0.2050143314130008  0.4380188627633008   T   T   T
  0.6041548034359173  0.2463720953697081  0.3486021733221311   T   T   T
  0.1958362269127425  0.6736509518580824  0.5671607840058777   T   T   T
  0.5992437459458184  0.8207147191014658  0.3935618413910372   T   T   T
  0.3838623377946580  0.4651938092618065  0.4087154637309230   T   T   T
  0.4702811966474795  1.0436712780483666  0.3281266455549781   T   T   T
  0.5631871527798752  0.7782852972656722  0.4942256848254153   T   T   T
  0.1649463105897460  0.8767316936545786  0.4704441488696305   T   T   T
  0.5094159827674957  0.4142424700900904  0.5387860449186742   T   T   T
  0.5811433309650664  0.1060215763700608  0.5564045290742008   T   T   T
  0.8671924268118542  0.3971986089696452  0.4309565031470626   T   T   T
  0.7896886683045442  0.6580879772708457  0.5613470839376946   T   T   T
  0.5700305559243428  0.5070961268603447  0.4618463763180227   T   T   T
  0.9158852673586628  0.7311644976723495  0.4380691947551065   T   T   T
  0.0385264188924934  0.5880309561850254  0.5107096017758497   T   T   T
  0.1565586926775980  0.5148683577846916  0.6325565055564512   T   T   T
  0.7521153003900525  0.4163721338514205  0.5741853140624329   T   T   T
  0.8317956442544027  0.7219584766088287  0.6466002299594773   T   T   T
  0.3702789783371245  1.0104314699799499  0.5515631118884219   T   T   T
  0.1249902238568376  0.7213138954199254  0.3887315872039979   T   T   T
  0.8403981389794908  0.2234964085939653  0.6434321469112766   T   T   T
  0.6758062476790827  1.0227896791535716  0.4570197439307340   T   T   T
  0.9506845178924445  1.1771706036798115  0.5260183720744527   T   T   T
  0.1549853795989621  0.9788649687570317  0.3585056455097977   T   T   T
  0.1670157880225438  0.2604442548059995  0.5062912964056833   T   T   T
  0.4323133099932592  0.6957894395281028  0.3611044021472254   T   T   T
  0.1592227482589427  0.2349516644953193  0.3618911816840074   T   T   T
  0.1864076652685545  0.9903668234722112  0.5830427361067821   T   T   T
  0.1312025210741700  0.8558487784008381  0.5819205136566532   T   T   T
  0.6865243082502994  0.9966137543117504  0.6518038113705107   T   T   T
  0.6418377946964446  1.0893909860296593  0.6073136325188258   T   T   T
  0.7840747484736129  0.1819134866797192  0.3842255839475972   T   T   T
  0.9583229425058392  0.0565170709406324  0.3981185658525751   T   T   T
  0.3267466500178000  0.1995502146903143  0.4662590051529918   T   T   T
  0.3682792227868971  0.3803834009449749  0.4208873023483348   T   T   T
  0.5017389547039209  0.3388477505478312  0.3606867696899120   T   T   T
  0.6206987298473865  0.2837837232007323  0.3191250078928088   T   T   T
  0.1770144274440003  0.6222756764819627  0.5924715728045531   T   T   T
  0.1380011767602505  0.6683099517330384  0.5417881374719835   T   T   T
  0.5823806751543843  0.7377635798169320  0.3808263540056818   T   T   T
  0.7128936714702124  0.7737341941272287  0.4021113482833909   T   T   T
  0.2385811150056762  0.6216814407112352  0.3940079340561972   T   T   T
  0.4608753073335290  0.4831834984330922  0.4276840200421853   T   T   T
  0.5314269673142255  0.0979086714196517  0.3367032736479273   T   T   T
  0.5183412217884041  0.9469814881491055  0.3498709759704665   T   T   T
  0.6004042811974938  0.7967670998352485  0.4681998157236277   T   T   T
  0.5520812530834406  0.6879437085661932  0.4875096937558903   T   T   T
  0.1981879487645210  0.8468584622371311  0.4396780685772028   T   T   T
  0.2544949001579144  0.8580893558559849  0.4889003823654797   T   T   T
  0.5862427398784146  0.4157999352665111  0.5594538152523286   T   T   T
  0.4080798628413990  0.5090363588773569  0.5470616212140804   T   T   T
  0.5553771219142684  0.2172827043804280  0.5487117484243254   T   T   T
  0.6527182263443437  0.0386617756011374  0.5329394968072787   T   T   T
  0.8958036480824112  0.4446647170775623  0.4076646406755998   T   T   T
  0.8772639033481779  0.2978700454798039  0.4224089293255968   T   T   T
  0.7065680684085128  0.7226271045201531  0.5403957446559859   T   T   T
  0.7800928353911157  0.5598200255552778  0.5688715179680895   T   T   T
  0.6739376907405821  0.4745527266155947  0.4503564040939498   T   T   T
  0.5788917683154878  0.4653731211141252  0.4909989475891324   T   T   T
  0.8374952941839878  0.8380569784515899  0.4467877532806910   T   T   T
  0.9514976039900307  0.6673546965920993  0.4654844928309154   T   T   T
  0.0898672524361824  0.4713586462000032  0.5083099827404982   T   T   T
 -0.0523595908479970  0.6108662833178463  0.5293359899267585   T   T   T
  0.2314141833115087  0.4607993198813231  0.6558579819859478   T   T   T
  0.0434257703894373  0.5706527956516378  0.6435868296568328   T   T   T
  0.8239888716873142  0.3303552349032582  0.5543383379017878   T   T   T
  0.7702052089427992  0.3599218548897219  0.6051118962642006   T   T   T
  0.7538613503292376  0.7049958194900423  0.6598882620604748   T   T   T
  0.8168130644131438  0.7166843833724141  0.6141385743643426   T   T   T
  0.4304610304840478  1.0619702144746863  0.5540720168230610   T   T   T
  0.4296956929083208  0.9169281811427986  0.5322014239341400   T   T   T
  0.0955911615154276  0.7085636686990218  0.3586208720887594   T   T   T
  0.0368157953570028  0.7103318833114487  0.4120979272536651   T   T   T
 -0.0754479590050231  0.1369445024750139  0.6251310737475920   T   T   T
  0.7551784654362220  0.1968869486873288  0.6450091220821198   T   T   T
  0.5638089289501994  0.0740783700495983  0.4443401594066951   T   T   T
  0.7161064700693637  0.0836202289126811  0.4424805585207024   T   T   T
 -0.0608054195208151  1.1436692683199794  0.4972595107400111   T   T   T
  0.0149085639617821  1.0858097574551269  0.5457485929052031   T   T   T
  0.1441925730142160  0.0856754758495842  0.3599397097707653   T   T   T
  0.1119276414705893  0.9819340210689496  0.3288046490494217   T   T   T
  0.2390768284890044  0.1699089683771458  0.5252827850191113   T   T   T
  0.0729625679759486  0.2532343839862132  0.5101735183585219   T   T   T
  0.4366305389592174  0.6677535923236058  0.3303416701349753   T   T   T
  0.3346111315297988  0.7986109740788750  0.3615625047147535   T   T   T
  0.2433487420079639  0.2206929830882517  0.3425882759557047   T   T   T
  0.3093571149558614  0.2062184971855309  0.4158710476890245   T   T   T
  0.8264517598934877  0.6172305972928862  0.3030929702768998   T   T   T
  0.7077987894509821  0.7416762860229588  0.3028287205842817   T   T   T
  0.7790346108431558  0.5544662820230783  0.3173998422049980   T   T   T
 -0.0554263977277604  0.6064850014885933  0.3272772475867438   T   T   T
  0.0298102482130775  0.6732279782310112  0.3156440772704487   T   T   T
 -0.0220404305674557  0.5315617174148380  0.3624178276508195   T   T   T
  0.0716120313861912  0.3444411261133565  0.3589695987533220   T   T   T
 
 -0.87816588E-03  0.23894642E-02  0.92298829E-04
  0.65251045E-02  0.54486583E-04 -0.32124614E-02
  0.36662207E-02 -0.14843522E-02 -0.19619969E-02
  0.17913113E-03  0.84267720E-03  0.13803330E-02
 -0.63273893E-03 -0.74508502E-03 -0.10562605E-02
 -0.15552572E-02 -0.35185998E-02 -0.17560655E-02
  0.26893013E-03 -0.35486505E-02 -0.17090417E-02
  0.47395773E-02 -0.15940078E-02  0.80276781E-03
  0.44615306E-03  0.48153853E-03 -0.33205014E-02
  0.27469139E-02 -0.39116441E-03  0.70888074E-03
 -0.91116971E-03 -0.18678434E-02 -0.17599954E-02
  0.90452782E-03 -0.11358297E-02 -0.87943534E-03
 -0.10239585E-02 -0.12857146E-02  0.94451625E-03
 -0.14336358E-02 -0.26302340E-02 -0.10395039E-02
 -0.50358827E-03 -0.20516560E-02 -0.21010803E-02
  0.92359337E-03 -0.19958739E-02 -0.15846029E-02
  0.41858556E-03 -0.16113713E-02  0.14559738E-02
 -0.20271771E-02 -0.70029103E-03  0.37561241E-03
  0.32632035E-03  0.34452188E-02 -0.24325147E-02
 -0.39596116E-03 -0.37653106E-03 -0.92229439E-03
  0.86650972E-03 -0.11379987E-02  0.39752023E-03
  0.13451576E-04 -0.25727336E-02 -0.10672178E-02
  0.50573855E-03 -0.15646616E-02 -0.24107497E-02
 -0.20346356E-02  0.26234817E-02  0.36085218E-02
 -0.24576912E-03  0.19857443E-02 -0.24045770E-03
  0.20788390E-02  0.46813150E-02 -0.13249752E-02
 -0.56692282E-04 -0.20564704E-02 -0.28173555E-03
 -0.11828300E-02 -0.15737317E-02  0.42733323E-02
 -0.80272095E-03 -0.19781574E-02 -0.40267773E-02
 -0.26977275E-03 -0.70024571E-03 -0.14222079E-02
 -0.12298032E-03 -0.18654841E-02 -0.18853930E-02
  0.72479603E-03 -0.98071771E-03  0.30638017E-02
 -0.23166758E-02  0.55445966E-03  0.13612741E-02
  0.23021657E-03  0.36413777E-02 -0.20685654E-02
 -0.12176435E-02 -0.11584115E-02 -0.29686615E-02
  0.19504617E-02  0.19011901E-02  0.28304045E-02
 -0.99957716E-03  0.31379797E-03 -0.13139568E-02
  0.28022922E-02  0.16367429E-03 -0.12273026E-02
  0.24676085E-02 -0.13033682E-02  0.26325445E-02
 -0.22327405E-03  0.25281901E-02 -0.19998736E-02
 -0.48898258E-03 -0.89564408E-03  0.19664219E-03
 -0.11932866E-02 -0.34496463E-02 -0.16220421E-03
  0.89590923E-03 -0.12612760E-02  0.22290918E-02
 -0.56300522E-02  0.43986715E-02  0.11887254E-02
  0.69940501E-03  0.18077377E-02  0.14449646E-02
 -0.73265852E-03  0.24995932E-02  0.24786744E-02
 -0.16022339E-02 -0.22719080E-02 -0.23708385E-02
 -0.49076161E-02 -0.14811447E-02  0.32229748E-02
  0.00000000E+00  0.00000000E+00  0.00000000E+00
  0.00000000E+00  0.00000000E+00  0.00000000E+00
  0.00000000E+00  0.00000000E+00  0.00000000E+00
  0.00000000E+00  0.00000000E+00  0.00000000E+00
  0.00000000E+00  0.00000000E+00  0.00000000E+00
  0.00000000E+00  0.00000000E+00  0.00000000E+00
  0.00000000E+00  0.00000000E+00  0.00000000E+00
  0.00000000E+00  0.00000000E+00  0.00000000E+00
  0.00000000E+00  0.00000000E+00  0.00000000E+00
  0.00000000E+00  0.00000000E+00  0.00000000E+00
  0.00000000E+00  0.00000000E+00  0.00000000E+00
  0.00000000E+00  0.00000000E+00  0.00000000E+00
  0.00000000E+00  0.00000000E+00  0.00000000E+00
  0.00000000E+00  0.00000000E+00  0.00000000E+00
  0.00000000E+00  0.00000000E+00  0.00000000E+00
  0.00000000E+00  0.00000000E+00  0.00000000E+00
 -0.36900575E-02  0.35482274E-02 -0.11330622E-03
  0.32950605E-02  0.30540224E-02 -0.46707116E-03
  0.74054168E-02 -0.92743210E-03  0.42587144E-02
  0.62023128E-02 -0.99175120E-03 -0.36518310E-02
 -0.26160094E-02  0.17928210E-03  0.24343909E-02
 -0.17827126E-02  0.37511482E-02  0.16760738E-02
  0.10118737E-02  0.42481801E-02 -0.24295041E-02
 -0.69409720E-03  0.58933641E-03 -0.72804744E-02
  0.18134351E-02  0.40918893E-02  0.62355082E-02
 -0.32022956E-02 -0.11273419E-02  0.81707843E-02
  0.15328890E-02 -0.13494216E-02 -0.23172846E-02
  0.10596925E-03 -0.61963104E-03  0.10065117E-02
  0.24292742E-02  0.40226578E-02  0.64715888E-02
  0.12385459E-02 -0.12859708E-02  0.22770287E-02
 -0.36245681E-02  0.40928054E-02  0.88829089E-03
  0.88358254E-02 -0.19920029E-02 -0.45618242E-03
 -0.69753867E-02 -0.61453087E-02 -0.38474112E-02
  0.18988788E-02  0.92908272E-02 -0.38434904E-04
  0.27717063E-03  0.67314642E-02 -0.11183587E-02
  0.95818639E-03  0.68381068E-02  0.13255150E-02
 -0.33062944E-02 -0.80480508E-03  0.51150022E-02
 -0.32671074E-02  0.36488134E-02  0.35703726E-02
  0.54913375E-02 -0.14153651E-02  0.58187479E-03
  0.13477768E-02  0.19884234E-02  0.95307687E-02
  0.53108816E-02  0.37008343E-02  0.10850329E-03
 -0.15276414E-02  0.42184352E-02 -0.26551862E-02
  0.32553825E-02  0.16555323E-02 -0.45537681E-02
  0.37926130E-02  0.35668969E-02 -0.37446978E-02
  0.32173243E-02 -0.27276365E-03  0.21136616E-02
 -0.13653381E-02  0.69081643E-03  0.42692435E-02
  0.99378120E-02 -0.20389960E-01  0.70412340E-02
  0.43837203E-02 -0.13410663E-01  0.47111864E-02
 -0.15512392E-01 -0.10783367E-01 -0.45673399E-02
 -0.25317575E-02  0.73543975E-02 -0.36850711E-02
 -0.44925838E-02  0.11761637E-01  0.21033925E-01
  0.23163269E-01  0.80705705E-02  0.31556005E-02
  0.90535674E-02  0.37473248E-01 -0.12691854E-01
 -0.96486427E-02  0.19247785E-01 -0.40134344E-02
 -0.22493785E-02  0.13919958E-01  0.30148413E-03
  0.38553804E-02  0.49093145E-02 -0.27428817E-02
 -0.17808885E-03 -0.15404856E-01 -0.61730640E-02
 -0.13216105E-03  0.39592494E-02  0.12536353E-01
 -0.29892434E-01 -0.36603363E-02 -0.10881631E-01
 -0.13143353E-01  0.44672781E-04  0.14103120E-01
 -0.15178720E-02  0.25166467E-01  0.23272480E-01
  0.77133681E-02 -0.12250129E-02 -0.16500193E-02
  0.18818182E-01  0.12476388E-01 -0.10821314E-01
 -0.35211630E-01  0.18283970E-01  0.22758542E-02
  0.10568832E-01 -0.21152677E-01 -0.37920525E-01
 -0.12902000E-01  0.62515414E-02 -0.20962973E-01
  0.18231726E-01  0.54041631E-02  0.88921004E-02
 -0.11709166E-01 -0.64214760E-01  0.84241922E-02
 -0.37310206E-02  0.20282044E-01  0.11647891E-01
 -0.19648454E-01 -0.30005357E-02 -0.17429194E-01
  0.10564966E-01 -0.75903821E-02 -0.69002620E-02
 -0.26855653E-01 -0.13557302E-01  0.18411740E-01
  0.17630997E-01  0.26170482E-01  0.13643878E-01
  0.40513751E-01  0.69923055E-02  0.10557653E-03
 -0.92458626E-02 -0.53092915E-02  0.67677117E-02
  0.26030665E-02  0.47877761E-01  0.31552396E-01
  0.13338414E-01 -0.17176133E-01  0.66819589E-02
 -0.24313360E-01  0.98959210E-02 -0.66033954E-02
 -0.58929977E-02 -0.45834638E-02  0.12548159E-01
 -0.14942599E-01 -0.10686214E-01 -0.29630027E-01
  0.14757700E-01  0.55885080E-02  0.46615466E-03
  0.26524882E-01  0.23222435E-01  0.15628824E-02
 -0.12164913E-01 -0.11182646E-01 -0.12431204E-01
 -0.44306461E-02 -0.23121580E-01  0.13954874E-02
  0.15332679E-01  0.10789675E-01 -0.66725753E-02
  0.11473198E-01  0.29942547E-01  0.93364570E-02
  0.36462755E-02  0.31207900E-02 -0.10928718E-01
  0.48434754E-02  0.10148744E-01  0.16003915E-02
 -0.50900470E-02  0.66154561E-02 -0.32280612E-01
 -0.30764072E-01 -0.12915967E-01 -0.42381515E-02
 -0.16489322E-01  0.22248789E-01  0.31506383E-02
  0.82864901E-02 -0.35986765E-02 -0.10020891E-01
  0.10511195E-01 -0.14886473E-01 -0.19459956E-01
 -0.89409514E-02  0.27876127E-01 -0.11432651E-02
  0.24640457E-01  0.20705792E-02 -0.11323832E-01
 -0.93736999E-02  0.78706248E-02 -0.43373073E-02
  0.19542169E-01  0.37012569E-02 -0.36961045E-02
  0.15625709E-01 -0.13252071E-01  0.16589380E-02
  0.11301065E-01 -0.19141770E-01  0.16672868E-01
 -0.71677001E-02 -0.27809363E-01 -0.23078465E-01
  0.12360771E-02  0.15979768E-01 -0.28463211E-01
 -0.10683858E-01 -0.34866730E-02 -0.25745617E-01
 -0.29574759E-01 -0.11632612E-01 -0.26241339E-01
 -0.11385257E-01  0.56910882E-02 -0.61453378E-02
  0.22916646E-01 -0.10189930E-01 -0.15454140E-01
  0.24302345E-01  0.10298464E-01  0.12583792E-01
 -0.14120905E-02  0.94355013E-02 -0.10903699E-03
 -0.11746095E-01 -0.29180603E-01  0.16863447E-01
 -0.19310960E-01 -0.19402492E-01  0.18324342E-01
 -0.61105903E-02 -0.33841319E-02  0.37471548E-02
  0.89910461E-03 -0.20108880E-02  0.65468104E-02
  0.22604760E-02 -0.39378232E-02  0.24692682E-02
 -0.14621052E-01  0.17596403E-01  0.10938027E-02
 
           1
   1.00000000000000     
  0.51757366E+00 -0.11160136E-02 -0.12862442E-02  0.51877479E+00
  0.73039578E-01  0.86056948E-01  0.11757612E+00
  0.31735400E+00  0.96409325E-01  0.12201563E+00
  0.32340132E+00  0.83202130E+00  0.12090559E+00
  0.57899185E+00  0.33223112E+00  0.11962998E+00
  0.32310537E+00  0.58735723E+00  0.12078490E+00
  0.31787617E+00  0.33958947E+00  0.11854220E+00
  0.82971226E+00  0.87085663E-01  0.12243038E+00
  0.57479176E+00  0.92817777E-01  0.11775404E+00
  0.82930100E+00  0.33774455E+00  0.12003845E+00
  0.57995862E+00  0.58718179E+00  0.11935415E+00
  0.74130300E-01  0.83100471E+00  0.11736740E+00
  0.57376162E+00  0.84665194E+00  0.11960714E+00
  0.68159839E-01  0.34084744E+00  0.12002179E+00
  0.82682410E+00  0.58786812E+00  0.12189340E+00
  0.74996774E-01  0.58233875E+00  0.12431807E+00
  0.83493860E+00  0.83733542E+00  0.12156166E+00
  0.15485498E+00  0.16168206E+00  0.18120376E+00
  0.14483905E+00  0.92352911E+00  0.18642874E+00
  0.39748825E+00  0.16570075E+00  0.18788835E+00
  0.40701311E+00  0.92055742E+00  0.18924407E+00
  0.40763477E+00  0.41330918E+00  0.18252647E+00
  0.40757451E+00  0.66670125E+00  0.18614717E+00
  0.90241666E+00  0.17379025E+00  0.18475507E+00
  0.64977423E+00  0.17312189E+00  0.18420635E+00
  0.66114106E+00  0.40687054E+00  0.18600717E+00
  0.15200052E+00  0.68233445E+00  0.19100382E+00
  0.91376541E+00  0.41926697E+00  0.18265217E+00
  0.66377486E+00  0.66524670E+00  0.18350684E+00
  0.89374595E+00  0.92252615E+00  0.19021739E+00
  0.64997098E+00  0.92347822E+00  0.18574636E+00
  0.15588578E+00  0.42173097E+00  0.18612901E+00
  0.90840598E+00  0.67393416E+00  0.18793559E+00
  0.22338795E+00  0.24907321E-01  0.24927411E+00
  0.48467022E+00  0.25837918E+00  0.24594860E+00
  0.48086586E+00  0.49937605E+00  0.25333991E+00
  0.23506826E+00  0.26105266E+00  0.24975770E+00
  0.96458869E+00  0.27773086E+00  0.24926702E+00
  0.72666895E+00  0.25956022E+00  0.25289516E+00
  0.47807020E+00  0.75393459E+00  0.25119615E+00
  0.22386829E+00  0.77246838E+00  0.25564533E+00
  0.48088396E+00  0.12857834E-01  0.25943504E+00
  0.97263722E+00  0.20679341E-01  0.25450271E+00
  0.23855476E+00  0.50695230E+00  0.25107526E+00
  0.71626562E+00  0.52054910E+00  0.25298149E+00
  0.73825528E+00  0.54085212E-02  0.24927600E+00
  0.97987560E+00  0.76663192E+00  0.25658760E+00
  0.72443482E+00  0.75861804E+00  0.24999000E+00
  0.97134812E+00  0.50793958E+00  0.24993384E+00
  0.24880999E+00  0.18900000E-02  0.53072593E-01
  0.49865999E+00  0.25202998E+00  0.53072593E-01
  0.49871007E+00  0.50195001E+00  0.53072593E-01
  0.24866999E+00  0.25196001E+00  0.53072593E-01
  0.99883002E+00  0.25200001E+00  0.53072593E-01
  0.74870005E+00  0.25212000E+00  0.53072593E-01
  0.49868997E+00  0.75209997E+00  0.53072593E-01
  0.24876996E+00  0.75212003E+00  0.53072593E-01
  0.49859998E+00  0.21100000E-02  0.53072593E-01
  0.99877003E+00  0.22100000E-02  0.53072593E-01
  0.24875001E+00  0.50212003E+00  0.53072593E-01
  0.74866999E+00  0.50226998E+00  0.53072593E-01
  0.74859000E+00  0.24500000E-02  0.53072593E-01
  0.99870005E+00  0.75244997E+00  0.53072593E-01
  0.74866993E+00  0.75243003E+00  0.53072593E-01
  0.99868996E+00  0.50220002E+00  0.53072593E-01
  0.99400920E-01  0.97093912E+00  0.58474173E+00
  0.64127497E+00  0.10953813E+00  0.63971273E+00
  0.85670999E+00  0.14114440E+00  0.41103885E+00
  0.38539291E+00  0.20489782E+00  0.43789997E+00
  0.60387813E+00  0.24639316E+00  0.34868143E+00
  0.19543452E+00  0.67409162E+00  0.56721535E+00
  0.59909716E+00  0.82121378E+00  0.39348274E+00
  0.38375711E+00  0.46526304E+00  0.40847843E+00
  0.47022534E+00  0.44151979E-01  0.32832966E+00
  0.56292758E+00  0.77815286E+00  0.49449171E+00
  0.16518153E+00  0.87657317E+00  0.47036870E+00
  0.50946316E+00  0.41416968E+00  0.53881881E+00
  0.58115420E+00  0.10649414E+00  0.55661523E+00
  0.86739397E+00  0.39704754E+00  0.43103064E+00
  0.78907951E+00  0.65856879E+00  0.56137600E+00
  0.57104650E+00  0.50686211E+00  0.46183152E+00
  0.91553657E+00  0.73044257E+00  0.43794393E+00
  0.38173879E-01  0.58912241E+00  0.51070835E+00
  0.15619150E+00  0.51565915E+00  0.63252009E+00
  0.75181113E+00  0.41717545E+00  0.57422847E+00
  0.83150654E+00  0.72186393E+00  0.64676676E+00
  0.36973227E+00  0.10860120E-01  0.55167935E+00
  0.12563204E+00  0.72114762E+00  0.38875053E+00
  0.84041846E+00  0.22373000E+00  0.64374245E+00
  0.67612918E+00  0.23224440E-01  0.45702328E+00
  0.95028132E+00  0.17766617E+00  0.52593193E+00
  0.15521933E+00  0.97905945E+00  0.35835739E+00
  0.16719213E+00  0.26086328E+00  0.50616938E+00
  0.43265665E+00  0.69575740E+00  0.36117322E+00
  0.15904326E+00  0.23503282E+00  0.36203018E+00
  0.18861639E+00  0.98797148E+00  0.58327198E+00
  0.13243623E+00  0.85427334E+00  0.58207390E+00
  0.68557951E+00  0.99534696E+00  0.65165511E+00
  0.64114823E+00  0.90254955E-01  0.60719366E+00
  0.78292683E+00  0.18329520E+00  0.38491040E+00
  0.96020547E+00  0.57465174E-01  0.39822130E+00
  0.32546662E+00  0.20395244E+00  0.46584579E+00
  0.36616701E+00  0.38264456E+00  0.42075663E+00
  0.50069247E+00  0.34048302E+00  0.36069659E+00
  0.62080260E+00  0.28436045E+00  0.31903571E+00
  0.17790116E+00  0.62046597E+00  0.59227059E+00
  0.13775517E+00  0.66877507E+00  0.54219629E+00
  0.57955449E+00  0.73733358E+00  0.38047207E+00
  0.71155387E+00  0.77373944E+00  0.40257051E+00
  0.23694846E+00  0.62463791E+00  0.39476563E+00
  0.46173200E+00  0.48303959E+00  0.42763030E+00
  0.53260864E+00  0.99374355E-01  0.33635096E+00
  0.51368490E+00  0.94912943E+00  0.34994507E+00
  0.60272200E+00  0.79428216E+00  0.46696521E+00
  0.55040143E+00  0.68867812E+00  0.48682719E+00
  0.19972537E+00  0.84749332E+00  0.43996757E+00
  0.25707550E+00  0.85054563E+00  0.48917465E+00
  0.58467182E+00  0.41818260E+00  0.55983304E+00
  0.40625712E+00  0.50868387E+00  0.54649417E+00
  0.55689782E+00  0.21639101E+00  0.54848709E+00
  0.65078233E+00  0.37069110E-01  0.53353894E+00
  0.89606018E+00  0.44773914E+00  0.40810885E+00
  0.88097496E+00  0.29869148E+00  0.42241237E+00
  0.70593927E+00  0.72200339E+00  0.54061609E+00
  0.77754541E+00  0.56544454E+00  0.56989879E+00
  0.67630361E+00  0.47253493E+00  0.45057395E+00
  0.57583691E+00  0.46653566E+00  0.49078396E+00
  0.83716498E+00  0.83751853E+00  0.44719629E+00
  0.95060507E+00  0.66609932E+00  0.46451981E+00
  0.91040407E-01  0.47201516E+00  0.50832516E+00
  0.94897494E+00  0.61359438E+00  0.52938687E+00
  0.23083340E+00  0.45948562E+00  0.65545325E+00
  0.44333129E-01  0.56793655E+00  0.64363226E+00
  0.82491502E+00  0.33162277E+00  0.55412109E+00
  0.76961369E+00  0.36343940E+00  0.60541587E+00
  0.75404900E+00  0.70536244E+00  0.65953245E+00
  0.81670971E+00  0.71787662E+00  0.61419068E+00
  0.42955460E+00  0.62747375E-01  0.55302104E+00
  0.42732449E+00  0.91541086E+00  0.53206344E+00
  0.92606721E-01  0.71117738E+00  0.35872345E+00
  0.37870224E-01  0.70990912E+00  0.41177167E+00
  0.92649583E+00  0.13519569E+00  0.62449750E+00
  0.75263144E+00  0.20016174E+00  0.64497190E+00
  0.56619417E+00  0.74321615E-01  0.44397148E+00
  0.71469050E+00  0.84544843E-01  0.44233935E+00
  0.94096535E+00  0.14410408E+00  0.49713917E+00
  0.17276691E-01  0.84252950E-01  0.54580260E+00
  0.14646667E+00  0.83426767E-01  0.36048254E+00
  0.11283189E+00  0.97866707E+00  0.32805327E+00
  0.23826396E+00  0.17178622E+00  0.52435609E+00
  0.72080418E-01  0.25282478E+00  0.50933530E+00
  0.43430495E+00  0.66638703E+00  0.32948732E+00
  0.33311854E+00  0.79927954E+00  0.36136243E+00
  0.24627877E+00  0.21949591E+00  0.34208513E+00
  0.31122467E+00  0.20742833E+00  0.41628075E+00
  0.82575387E+00  0.61833905E+00  0.30308942E+00
  0.70831779E+00  0.73824825E+00  0.30337775E+00
  0.77820963E+00  0.55218694E+00  0.31799644E+00
  0.94415070E+00  0.60608745E+00  0.32739925E+00
  0.30019837E-01  0.67299175E+00  0.31585723E+00
  0.97842085E+00  0.53109912E+00  0.36249822E+00
  0.69090937E-01  0.34650829E+00  0.35900521E+00
  0.00000000E+00  0.00000000E+00  0.00000000E+00
  0.00000000E+00  0.00000000E+00  0.00000000E+00
  0.00000000E+00  0.00000000E+00  0.00000000E+00
  0.00000000E+00  0.00000000E+00  0.00000000E+00
  0.00000000E+00  0.00000000E+00  0.00000000E+00
  0.00000000E+00  0.00000000E+00  0.00000000E+00
  0.00000000E+00  0.00000000E+00  0.00000000E+00
  0.00000000E+00  0.00000000E+00  0.00000000E+00
  0.00000000E+00  0.00000000E+00  0.00000000E+00
  0.00000000E+00  0.00000000E+00  0.00000000E+00
  0.00000000E+00  0.00000000E+00  0.00000000E+00
  0.00000000E+00  0.00000000E+00  0.00000000E+00
  0.00000000E+00  0.00000000E+00  0.00000000E+00
  0.00000000E+00  0.00000000E+00  0.00000000E+00
  0.00000000E+00  0.00000000E+00  0.00000000E+00
  0.00000000E+00  0.00000000E+00  0.00000000E+00
  0.00000000E+00  0.00000000E+00  0.00000000E+00
  0.00000000E+00  0.00000000E+00  0.00000000E+00
  0.00000000E+00  0.00000000E+00  0.00000000E+00
  0.00000000E+00  0.00000000E+00  0.00000000E+00
  0.00000000E+00  0.00000000E+00  0.00000000E+00
  0.00000000E+00  0.00000000E+00  0.00000000E+00
  0.00000000E+00  0.00000000E+00  0.00000000E+00
  0.00000000E+00  0.00000000E+00  0.00000000E+00
  0.00000000E+00  0.00000000E+00  0.00000000E+00
  0.00000000E+00  0.00000000E+00  0.00000000E+00
  0.00000000E+00  0.00000000E+00  0.00000000E+00
  0.00000000E+00  0.00000000E+00  0.00000000E+00
  0.00000000E+00  0.00000000E+00  0.00000000E+00
  0.00000000E+00  0.00000000E+00  0.00000000E+00
  0.00000000E+00  0.00000000E+00  0.00000000E+00
  0.00000000E+00  0.00000000E+00  0.00000000E+00
  0.00000000E+00  0.00000000E+00  0.00000000E+00
  0.00000000E+00  0.00000000E+00  0.00000000E+00
  0.00000000E+00  0.00000000E+00  0.00000000E+00
  0.00000000E+00  0.00000000E+00  0.00000000E+00
  0.00000000E+00  0.00000000E+00  0.00000000E+00
  0.00000000E+00  0.00000000E+00  0.00000000E+00
  0.00000000E+00  0.00000000E+00  0.00000000E+00
  0.00000000E+00  0.00000000E+00  0.00000000E+00