Ag                                      
   1.00000000000000     
    11.6089000000000002    0.0000000000000000    0.0000000000000007
    -5.8044499999999992   10.0536023099931704    0.0000000000000007
     0.0000000000000000    0.0000000000000000   17.1090000000000018
   Ag   C    O 
    64     1     1
Selective dynamics
Direct
  0.0000000000000000  0.0000000000000000  0.0000000000000000   F   F   F
  0.1666700000000034  0.0833299999999966  0.1385000000000005   F   F   F
  0.0832898275034994  0.1665493305819817  0.2731493747332656   T   T   T
  0.0001844400797794  0.0003233919538763  0.4112193536052534   T   T   T
  0.2500000000000000  0.0000000000000000  0.0000000000000000   F   F   F
  0.4166700000000034  0.0833299999999966  0.1385000000000005   F   F   F
  0.3336260733938154  0.1669957450227863  0.2731419262321207   T   T   T
  0.2501871258306430  0.0011567720039456  0.4115028351403268   T   T   T
  0.5000000000000000  0.0000000000000000  0.0000000000000000   F   F   F
  0.6666667000000004  0.0833299999999966  0.1385000000000005   F   F   F
  0.5835976847271896  0.1671707235696400  0.2727895023658996   T   T   T
  0.5012316460848759  0.0024601408311030  0.4111693211523529   T   T   T
  0.7500000000000000  0.0000000000000000  0.0000000000000000   F   F   F
  0.9166700000000034  0.0833299999999966  0.1385000000000005   F   F   F
  0.8334112357736769  0.1670180003617118  0.2731432801689270   T   T   T
  0.7510245332518209  0.0011854762005507  0.4115060202599670   T   T   T
  0.0000000000000000  0.2500000000000000  0.0000000000000000   F   F   F
  0.1666700000000034  0.3333332999999996  0.1385000000000005   F   F   F
  0.0846059539103228  0.4179272005986950  0.2737637714529494   T   T   T
 -0.0004496004436377  0.2497560987298510  0.4115058816603402   T   T   T
  0.2500000000000000  0.2500000000000000  0.0000000000000000   F   F   F
  0.4166700000000034  0.3333332999999996  0.1385000000000005   F   F   F
  0.3333582305798178  0.4179255683610790  0.2737624735491393   T   T   T
  0.2502271161977912  0.2497379590586687  0.4115047329964660   T   T   T
  0.5000000000000000  0.2500000000000000  0.0000000000000000   F   F   F
  0.6666667000000004  0.3333332999999996  0.1385000000000005   F   F   F
  0.5835536672177517  0.4166448643178450  0.2727787925162183   T   T   T
  0.5002112663892642  0.2502787505553358  0.4116506933308471   T   T   T
  0.7500000000000000  0.2500000000000000  0.0000000000000000   F   F   F
  0.9166700000000034  0.3333332999999996  0.1385000000000005   F   F   F
  0.8331195427607937  0.4166488600995551  0.2727772448964532   T   T   T
  0.7500901434636558  0.2502900222457711  0.4116456207220184   T   T   T
  0.0000000000000000  0.5000000000000000  0.0000000000000000   F   F   F
  0.1666700000000034  0.5833299999999966  0.1385000000000005   F   F   F
  0.0844929420016708  0.6668555168355923  0.2737036055160738   T   T   T
 -0.0020209480989325  0.4991028566614508  0.4112390102512669   T   T   T
  0.2500000000000000  0.5000000000000000  0.0000000000000000   F   F   F
  0.4166700000000034  0.5833299999999966  0.1385000000000005   F   F   F
  0.3334007055385770  0.6667791972906799  0.2720326797006266   T   T   T
  0.2478528670510072  0.4956491601960170  0.4134511935920563   T   T   T
  0.5000000000000000  0.5000000000000000  0.0000000000000000   F   F   F
  0.6666667000000004  0.5833299999999966  0.1385000000000005   F   F   F
  0.5824021472224072  0.6668527418960492  0.2737091855112040   T   T   T
  0.5011594883779156  0.4990849354004284  0.4112423135235372   T   T   T
  0.7500000000000000  0.5000000000000000  0.0000000000000000   F   F   F
  0.9166700000000034  0.5833299999999966  0.1385000000000005   F   F   F
  0.8333158066284525  0.6665794328083990  0.2731337811624092   T   T   T
  0.7500203052756216  0.4999888567549764  0.4116525181431574   T   T   T
  0.0000000000000000  0.7500000000000000  0.0000000000000000   F   F   F
  0.1666700000000034  0.8333299999999966  0.1385000000000005   F   F   F
  0.0833076822069336  0.9169124885154255  0.2731879612179114   T   T   T
 -0.0007170967647241  0.7500644266119251  0.4114762864399406   T   T   T
  0.2500000000000000  0.7500000000000000  0.0000000000000000   F   F   F
  0.4166700000000034  0.8333299999999966  0.1385000000000005   F   F   F
  0.3334191667548729  0.9158202410786820  0.2736982459695519   T   T   T
  0.2474390788396535  0.7528636878144546  0.4130073328254183   T   T   T
  0.5000000000000000  0.7500000000000000  0.0000000000000000   F   F   F
  0.6666667000000004  0.8333299999999966  0.1385000000000005   F   F   F
  0.5824380466207226  0.9158341426037585  0.2737000742180153   T   T   T
  0.5055030704203506  0.7529086844527972  0.4129777901205802   T   T   T
  0.7500000000000000  0.7500000000000000  0.0000000000000000   F   F   F
  0.9166700000000034  0.8333299999999966  0.1385000000000005   F   F   F
  0.8336267428589164  0.9169100460086129  0.2731986176069217   T   T   T
  0.7508406916670063  0.7500574951972291  0.4114806061213684   T   T   T
  0.3351758515431790  0.6699063005626218  0.5036492040850739   T   T   T
  0.3354372999711010  0.6703990299943697  0.5721062549063788   T   T   T
 
  0.00000000E+00  0.00000000E+00  0.00000000E+00
  0.00000000E+00  0.00000000E+00  0.00000000E+00
  0.00000000E+00  0.00000000E+00  0.00000000E+00
  0.00000000E+00  0.00000000E+00  0.00000000E+00
  0.00000000E+00  0.00000000E+00  0.00000000E+00
  0.00000000E+00  0.00000000E+00  0.00000000E+00
  0.00000000E+00  0.00000000E+00  0.00000000E+00
  0.00000000E+00  0.00000000E+00  0.00000000E+00
  0.00000000E+00  0.00000000E+00  0.00000000E+00
  0.00000000E+00  0.00000000E+00  0.00000000E+00
  0.00000000E+00  0.00000000E+00  0.00000000E+00
  0.00000000E+00  0.00000000E+00  0.00000000E+00
  0.00000000E+00  0.00000000E+00  0.00000000E+00
  0.00000000E+00  0.00000000E+00  0.00000000E+00
  0.00000000E+00  0.00000000E+00  0.00000000E+00
  0.00000000E+00  0.00000000E+00  0.00000000E+00
  0.00000000E+00  0.00000000E+00  0.00000000E+00
  0.00000000E+00  0.00000000E+00  0.00000000E+00
  0.00000000E+00  0.00000000E+00  0.00000000E+00
  0.00000000E+00  0.00000000E+00  0.00000000E+00
  0.00000000E+00  0.00000000E+00  0.00000000E+00
  0.00000000E+00  0.00000000E+00  0.00000000E+00
  0.00000000E+00  0.00000000E+00  0.00000000E+00
  0.00000000E+00  0.00000000E+00  0.00000000E+00
  0.00000000E+00  0.00000000E+00  0.00000000E+00
  0.00000000E+00  0.00000000E+00  0.00000000E+00
  0.00000000E+00  0.00000000E+00  0.00000000E+00
  0.00000000E+00  0.00000000E+00  0.00000000E+00
  0.00000000E+00  0.00000000E+00  0.00000000E+00
  0.00000000E+00  0.00000000E+00  0.00000000E+00
  0.00000000E+00  0.00000000E+00  0.00000000E+00
  0.00000000E+00  0.00000000E+00  0.00000000E+00
  0.00000000E+00  0.00000000E+00  0.00000000E+00
  0.00000000E+00  0.00000000E+00  0.00000000E+00
  0.00000000E+00  0.00000000E+00  0.00000000E+00
  0.00000000E+00  0.00000000E+00  0.00000000E+00
  0.00000000E+00  0.00000000E+00  0.00000000E+00
  0.00000000E+00  0.00000000E+00  0.00000000E+00
  0.00000000E+00  0.00000000E+00  0.00000000E+00
  0.00000000E+00  0.00000000E+00  0.00000000E+00
  0.00000000E+00  0.00000000E+00  0.00000000E+00
  0.00000000E+00  0.00000000E+00  0.00000000E+00
  0.00000000E+00  0.00000000E+00  0.00000000E+00
  0.00000000E+00  0.00000000E+00  0.00000000E+00
  0.00000000E+00  0.00000000E+00  0.00000000E+00
  0.00000000E+00  0.00000000E+00  0.00000000E+00
  0.00000000E+00  0.00000000E+00  0.00000000E+00
  0.00000000E+00  0.00000000E+00  0.00000000E+00
  0.00000000E+00  0.00000000E+00  0.00000000E+00
  0.00000000E+00  0.00000000E+00  0.00000000E+00
  0.00000000E+00  0.00000000E+00  0.00000000E+00
  0.00000000E+00  0.00000000E+00  0.00000000E+00
  0.00000000E+00  0.00000000E+00  0.00000000E+00
  0.00000000E+00  0.00000000E+00  0.00000000E+00
  0.00000000E+00  0.00000000E+00  0.00000000E+00
  0.00000000E+00  0.00000000E+00  0.00000000E+00
  0.00000000E+00  0.00000000E+00  0.00000000E+00
  0.00000000E+00  0.00000000E+00  0.00000000E+00
  0.00000000E+00  0.00000000E+00  0.00000000E+00
  0.00000000E+00  0.00000000E+00  0.00000000E+00
  0.00000000E+00  0.00000000E+00  0.00000000E+00
  0.00000000E+00  0.00000000E+00  0.00000000E+00
  0.00000000E+00  0.00000000E+00  0.00000000E+00
  0.00000000E+00  0.00000000E+00  0.00000000E+00
  0.00000000E+00  0.00000000E+00  0.00000000E+00
  0.00000000E+00  0.00000000E+00  0.00000000E+00
