Zr                                      
   1.00000000000000     
    12.8199000000000005    0.0000000000000000    0.0000000000000008
    -6.4099499999999985   11.1023590739761264    0.0000000000000008
     0.0000000000000000    0.0000000000000000   17.5865000000000009
   Zr   C    H 
    64     1     2
Selective dynamics
Direct
  0.0833299999999966  0.1666700000000034  0.0000000000000000   F   F   F
  0.0841855525662469  0.1669920758469479  0.2917621494212683   T   T   T
  0.1666700000000034  0.0833299999999966  0.1437900000000027   F   F   F
  0.1662623655593811  0.0839952163712935  0.4314748216629345   T   T   T
  0.3333332999999996  0.1666700000000034  0.0000000000000000   F   F   F
  0.3329098320956042  0.1652818969228265  0.2937619861916582   T   T   T
  0.4166700000000034  0.0833299999999966  0.1437900000000027   F   F   F
  0.4191899753857756  0.0846101158653679  0.4325748934840903   T   T   T
  0.5833299999999966  0.1666700000000034  0.0000000000000000   F   F   F
  0.5841521416752007  0.1674531794824755  0.2938277634226377   T   T   T
  0.6666667000000004  0.0833299999999966  0.1437900000000027   F   F   F
  0.6665037770866977  0.0845963200366643  0.4325697461278719   T   T   T
  0.8333299999999966  0.1666700000000034  0.0000000000000000   F   F   F
  0.8333637469553884  0.1659352111568567  0.2934944387374062   T   T   T
  0.9166700000000034  0.0833299999999966  0.1437900000000027   F   F   F
  0.9182728459240470  0.0837115775201141  0.4310444797656569   T   T   T
  0.0833299999999966  0.4166700000000034  0.0000000000000000   F   F   F
  0.0842301044064791  0.4167614206823476  0.2944200489837737   T   T   T
  0.1666700000000034  0.3333332999999996  0.1437900000000027   F   F   F
  0.1645307456448725  0.3293317314244097  0.4319536376799228   T   T   T
  0.3333332999999996  0.4166700000000034  0.0000000000000000   F   F   F
  0.3332075187900432  0.4165464622063287  0.2946989109703366   T   T   T
  0.4166700000000034  0.3333332999999996  0.1437900000000027   F   F   F
  0.4173593290404095  0.3322224960297282  0.4321974058171646   T   T   T
  0.5833299999999966  0.4166700000000034  0.0000000000000000   F   F   F
  0.5835487299218068  0.4169456823336374  0.2942928932606912   T   T   T
  0.6666667000000004  0.3333332999999996  0.1437900000000027   F   F   F
  0.6665349882636956  0.3329692864726655  0.4335267588389136   T   T   T
  0.8333299999999966  0.4166700000000034  0.0000000000000000   F   F   F
  0.8338188386925125  0.4172388795515998  0.2942324113878829   T   T   T
  0.9166700000000034  0.3333332999999996  0.1437900000000027   F   F   F
  0.9149150979943598  0.3327474890944689  0.4320702214766432   T   T   T
  0.0833299999999966  0.6666667000000004  0.0000000000000000   F   F   F
  0.0819351718089502  0.6662104690883657  0.2929168765126546   T   T   T
  0.1666700000000034  0.5833299999999966  0.1437900000000027   F   F   F
  0.1689580754888502  0.5872538271794577  0.4367523585947357   T   T   T
  0.3333332999999996  0.6666667000000004  0.0000000000000000   F   F   F
  0.3341685323939933  0.6690194330027763  0.2947172827189138   T   T   T
  0.4166700000000034  0.5833299999999966  0.1437900000000027   F   F   F
  0.4139367823659770  0.5874845093413636  0.4378865914158229   T   T   T
  0.5833299999999966  0.6666667000000004  0.0000000000000000   F   F   F
  0.5836146834712627  0.6670015306791990  0.2935521122272118   T   T   T
  0.6666667000000004  0.5833299999999966  0.1437900000000027   F   F   F
  0.6664715615974215  0.5839558451503486  0.4321054300719248   T   T   T
  0.8333299999999966  0.6666667000000004  0.0000000000000000   F   F   F
  0.8336246588529862  0.6682786745096131  0.2930867095094972   T   T   T
  0.9166700000000034  0.5833299999999966  0.1437900000000027   F   F   F
  0.9153348427673663  0.5839887801556459  0.4323600587012656   T   T   T
  0.0833299999999966  0.9166700000000034  0.0000000000000000   F   F   F
  0.0826969050630455  0.9188298349463503  0.2917468837479628   T   T   T
  0.1666700000000034  0.8333299999999966  0.1437900000000027   F   F   F
  0.1664744331412902  0.8351673001057742  0.4286918664832025   T   T   T
  0.3333332999999996  0.9166700000000034  0.0000000000000000   F   F   F
  0.3355537799888287  0.9163005280336256  0.2943714779079361   T   T   T
  0.4166700000000034  0.8333299999999966  0.1437900000000027   F   F   F
  0.4151280439007690  0.8280029755294157  0.4391054354609358   T   T   T
  0.5833299999999966  0.9166700000000034  0.0000000000000000   F   F   F
  0.5823905710922709  0.9166948812437330  0.2942345704324925   T   T   T
  0.6666667000000004  0.8333299999999966  0.1437900000000027   F   F   F
  0.6684793827035999  0.8352077408763929  0.4298279940313760   T   T   T
  0.8333299999999966  0.9166700000000034  0.0000000000000000   F   F   F
  0.8348874546413910  0.9176717746667282  0.2920518591987207   T   T   T
  0.9166700000000034  0.8333299999999966  0.1437900000000027   F   F   F
  0.9175425324457325  0.8347657815676010  0.4309425529903797   T   T   T
  0.3173778910435421  0.6357328919387357  0.5229889812544692   T   T   T
  0.3775406928405426  0.6206640202809199  0.5620657338194412   T   T   T
  0.2561310895619590  0.6487816179400685  0.5619156234442290   T   T   T
 
  0.00000000E+00  0.00000000E+00  0.00000000E+00
  0.00000000E+00  0.00000000E+00  0.00000000E+00
  0.00000000E+00  0.00000000E+00  0.00000000E+00
  0.00000000E+00  0.00000000E+00  0.00000000E+00
  0.00000000E+00  0.00000000E+00  0.00000000E+00
  0.00000000E+00  0.00000000E+00  0.00000000E+00
  0.00000000E+00  0.00000000E+00  0.00000000E+00
  0.00000000E+00  0.00000000E+00  0.00000000E+00
  0.00000000E+00  0.00000000E+00  0.00000000E+00
  0.00000000E+00  0.00000000E+00  0.00000000E+00
  0.00000000E+00  0.00000000E+00  0.00000000E+00
  0.00000000E+00  0.00000000E+00  0.00000000E+00
  0.00000000E+00  0.00000000E+00  0.00000000E+00
  0.00000000E+00  0.00000000E+00  0.00000000E+00
  0.00000000E+00  0.00000000E+00  0.00000000E+00
  0.00000000E+00  0.00000000E+00  0.00000000E+00
  0.00000000E+00  0.00000000E+00  0.00000000E+00
  0.00000000E+00  0.00000000E+00  0.00000000E+00
  0.00000000E+00  0.00000000E+00  0.00000000E+00
  0.00000000E+00  0.00000000E+00  0.00000000E+00
  0.00000000E+00  0.00000000E+00  0.00000000E+00
  0.00000000E+00  0.00000000E+00  0.00000000E+00
  0.00000000E+00  0.00000000E+00  0.00000000E+00
  0.00000000E+00  0.00000000E+00  0.00000000E+00
  0.00000000E+00  0.00000000E+00  0.00000000E+00
  0.00000000E+00  0.00000000E+00  0.00000000E+00
  0.00000000E+00  0.00000000E+00  0.00000000E+00
  0.00000000E+00  0.00000000E+00  0.00000000E+00
  0.00000000E+00  0.00000000E+00  0.00000000E+00
  0.00000000E+00  0.00000000E+00  0.00000000E+00
  0.00000000E+00  0.00000000E+00  0.00000000E+00
  0.00000000E+00  0.00000000E+00  0.00000000E+00
  0.00000000E+00  0.00000000E+00  0.00000000E+00
  0.00000000E+00  0.00000000E+00  0.00000000E+00
  0.00000000E+00  0.00000000E+00  0.00000000E+00
  0.00000000E+00  0.00000000E+00  0.00000000E+00
  0.00000000E+00  0.00000000E+00  0.00000000E+00
  0.00000000E+00  0.00000000E+00  0.00000000E+00
  0.00000000E+00  0.00000000E+00  0.00000000E+00
  0.00000000E+00  0.00000000E+00  0.00000000E+00
  0.00000000E+00  0.00000000E+00  0.00000000E+00
  0.00000000E+00  0.00000000E+00  0.00000000E+00
  0.00000000E+00  0.00000000E+00  0.00000000E+00
  0.00000000E+00  0.00000000E+00  0.00000000E+00
  0.00000000E+00  0.00000000E+00  0.00000000E+00
  0.00000000E+00  0.00000000E+00  0.00000000E+00
  0.00000000E+00  0.00000000E+00  0.00000000E+00
  0.00000000E+00  0.00000000E+00  0.00000000E+00
  0.00000000E+00  0.00000000E+00  0.00000000E+00
  0.00000000E+00  0.00000000E+00  0.00000000E+00
  0.00000000E+00  0.00000000E+00  0.00000000E+00
  0.00000000E+00  0.00000000E+00  0.00000000E+00
  0.00000000E+00  0.00000000E+00  0.00000000E+00
  0.00000000E+00  0.00000000E+00  0.00000000E+00
  0.00000000E+00  0.00000000E+00  0.00000000E+00
  0.00000000E+00  0.00000000E+00  0.00000000E+00
  0.00000000E+00  0.00000000E+00  0.00000000E+00
  0.00000000E+00  0.00000000E+00  0.00000000E+00
  0.00000000E+00  0.00000000E+00  0.00000000E+00
  0.00000000E+00  0.00000000E+00  0.00000000E+00
  0.00000000E+00  0.00000000E+00  0.00000000E+00
  0.00000000E+00  0.00000000E+00  0.00000000E+00
  0.00000000E+00  0.00000000E+00  0.00000000E+00
  0.00000000E+00  0.00000000E+00  0.00000000E+00
  0.00000000E+00  0.00000000E+00  0.00000000E+00
  0.00000000E+00  0.00000000E+00  0.00000000E+00
  0.00000000E+00  0.00000000E+00  0.00000000E+00
