Ti                                      
   1.00000000000000     
    11.5504999999999995    0.0000000000000000    0.0000000000000007
    -5.7752499999999989   10.0030264264121591    0.0000000000000007
     0.0000000000000000    0.0000000000000000   16.8194000000000017
   Ti   C    H 
    64     1     2
Selective dynamics
Direct
  0.0833299999999966  0.1666700000000034  0.0000000000000000   F   F   F
  0.0868197712729585  0.1743097082206576  0.2801486866192027   T   T   T
  0.1666700000000034  0.0833299999999966  0.1351500000000030   F   F   F
  0.1708358800615969  0.0913513427859589  0.4078576982954963   T   T   T
  0.3333332999999996  0.1666700000000034  0.0000000000000000   F   F   F
  0.3370008896420361  0.1663353103962687  0.2773510391854386   T   T   T
  0.4166700000000034  0.0833299999999966  0.1351500000000030   F   F   F
  0.4193398112433400  0.0818428118345832  0.4082172635979095   T   T   T
  0.5833299999999966  0.1666700000000034  0.0000000000000000   F   F   F
  0.5850605454863681  0.1703997592759838  0.2769426637126959   T   T   T
  0.6666667000000004  0.0833299999999966  0.1351500000000030   F   F   F
  0.6618706978614207  0.0817406844467995  0.4081962907385440   T   T   T
  0.8333299999999966  0.1666700000000034  0.0000000000000000   F   F   F
  0.8292320623109820  0.1659686128699096  0.2775977235928467   T   T   T
  0.9166700000000034  0.0833299999999966  0.1351500000000030   F   F   F
  0.9206611446562883  0.0916228224627343  0.4083043064032645   T   T   T
  0.0833299999999966  0.4166700000000034  0.0000000000000000   F   F   F
  0.0863059070844198  0.4155279436463347  0.2783115600291320   T   T   T
  0.1666700000000034  0.3333332999999996  0.1351500000000030   F   F   F
  0.1714971570801133  0.3419193232816289  0.4164162935458109   T   T   T
  0.3333332999999996  0.4166700000000034  0.0000000000000000   F   F   F
  0.3297751402689298  0.4150423050197677  0.2780464224412680   T   T   T
  0.4166700000000034  0.3333332999999996  0.1351500000000030   F   F   F
  0.4175841812334392  0.3334229735964395  0.4060412928277844   T   T   T
  0.5833299999999966  0.4166700000000034  0.0000000000000000   F   F   F
  0.5851500918283649  0.4232781015011525  0.2784044078715414   T   T   T
  0.6666667000000004  0.3333332999999996  0.1351500000000030   F   F   F
  0.6670875121411635  0.3342646993589753  0.4056812404837642   T   T   T
  0.8333299999999966  0.4166700000000034  0.0000000000000000   F   F   F
  0.8376203730561177  0.4228089832456541  0.2781533449754991   T   T   T
  0.9166700000000034  0.3333332999999996  0.1351500000000030   F   F   F
  0.9160821364755082  0.3336573604715986  0.4057140262510779   T   T   T
  0.0833299999999966  0.6666667000000004  0.0000000000000000   F   F   F
  0.0788198763278689  0.6694628050218083  0.2750426149009941   T   T   T
  0.1666700000000034  0.5833299999999966  0.1351500000000030   F   F   F
  0.1662556573814893  0.5888010300142438  0.4040585147055015   T   T   T
  0.3333332999999996  0.6666667000000004  0.0000000000000000   F   F   F
  0.3363658895911665  0.6735395676709141  0.2755623150844108   T   T   T
  0.4166700000000034  0.5833299999999966  0.1351500000000030   F   F   F
  0.4231260786644980  0.5890583197567052  0.4029330940064786   T   T   T
  0.5833299999999966  0.6666667000000004  0.0000000000000000   F   F   F
  0.5917427304285151  0.6708729401174482  0.2750301069933172   T   T   T
  0.6666667000000004  0.5833299999999966  0.1351500000000030   F   F   F
  0.6716488429291831  0.5886496225156169  0.4092213641578065   T   T   T
  0.8333299999999966  0.6666667000000004  0.0000000000000000   F   F   F
  0.8353172412276336  0.6697111073224261  0.2770165857850246   T   T   T
  0.9166700000000034  0.5833299999999966  0.1351500000000030   F   F   F
  0.9167065873359659  0.5878148387248535  0.4093385000385313   T   T   T
  0.0833299999999966  0.9166700000000034  0.0000000000000000   F   F   F
  0.0869804062617764  0.9239896226998652  0.2771312903661626   T   T   T
  0.1666700000000034  0.8333299999999966  0.1351500000000030   F   F   F
  0.1664348481007632  0.8350857817359664  0.4051367354193620   T   T   T
  0.3333332999999996  0.9166700000000034  0.0000000000000000   F   F   F
  0.3377321242250362  0.9154702369875412  0.2800516875973564   T   T   T
  0.4166700000000034  0.8333299999999966  0.1351500000000030   F   F   F
  0.4106082565522004  0.8205257665824528  0.4188142173902593   T   T   T
  0.5833299999999966  0.9166700000000034  0.0000000000000000   F   F   F
  0.5780028874323642  0.9151312633337562  0.2798935734751382   T   T   T
  0.6666667000000004  0.8333299999999966  0.1351500000000030   F   F   F
  0.6696050190564717  0.8362336839791739  0.4055383778999152   T   T   T
  0.8333299999999966  0.9166700000000034  0.0000000000000000   F   F   F
  0.8376038885639698  0.9244188433875091  0.2772434264781483   T   T   T
  0.9166700000000034  0.8333299999999966  0.1351500000000030   F   F   F
  0.9190100397791455  0.8378664733145418  0.4053748997772205   T   T   T
  0.2911676786827296  0.5801571337619992  0.4896746833145778   T   T   T
  0.3686396483490337  0.5796340338965920  0.5289922583034402   T   T   T
  0.2138877373813638  0.5784255726258255  0.5302627478578392   T   T   T
 
  0.00000000E+00  0.00000000E+00  0.00000000E+00
  0.00000000E+00  0.00000000E+00  0.00000000E+00
  0.00000000E+00  0.00000000E+00  0.00000000E+00
  0.00000000E+00  0.00000000E+00  0.00000000E+00
  0.00000000E+00  0.00000000E+00  0.00000000E+00
  0.00000000E+00  0.00000000E+00  0.00000000E+00
  0.00000000E+00  0.00000000E+00  0.00000000E+00
  0.00000000E+00  0.00000000E+00  0.00000000E+00
  0.00000000E+00  0.00000000E+00  0.00000000E+00
  0.00000000E+00  0.00000000E+00  0.00000000E+00
  0.00000000E+00  0.00000000E+00  0.00000000E+00
  0.00000000E+00  0.00000000E+00  0.00000000E+00
  0.00000000E+00  0.00000000E+00  0.00000000E+00
  0.00000000E+00  0.00000000E+00  0.00000000E+00
  0.00000000E+00  0.00000000E+00  0.00000000E+00
  0.00000000E+00  0.00000000E+00  0.00000000E+00
  0.00000000E+00  0.00000000E+00  0.00000000E+00
  0.00000000E+00  0.00000000E+00  0.00000000E+00
  0.00000000E+00  0.00000000E+00  0.00000000E+00
  0.00000000E+00  0.00000000E+00  0.00000000E+00
  0.00000000E+00  0.00000000E+00  0.00000000E+00
  0.00000000E+00  0.00000000E+00  0.00000000E+00
  0.00000000E+00  0.00000000E+00  0.00000000E+00
  0.00000000E+00  0.00000000E+00  0.00000000E+00
  0.00000000E+00  0.00000000E+00  0.00000000E+00
  0.00000000E+00  0.00000000E+00  0.00000000E+00
  0.00000000E+00  0.00000000E+00  0.00000000E+00
  0.00000000E+00  0.00000000E+00  0.00000000E+00
  0.00000000E+00  0.00000000E+00  0.00000000E+00
  0.00000000E+00  0.00000000E+00  0.00000000E+00
  0.00000000E+00  0.00000000E+00  0.00000000E+00
  0.00000000E+00  0.00000000E+00  0.00000000E+00
  0.00000000E+00  0.00000000E+00  0.00000000E+00
  0.00000000E+00  0.00000000E+00  0.00000000E+00
  0.00000000E+00  0.00000000E+00  0.00000000E+00
  0.00000000E+00  0.00000000E+00  0.00000000E+00
  0.00000000E+00  0.00000000E+00  0.00000000E+00
  0.00000000E+00  0.00000000E+00  0.00000000E+00
  0.00000000E+00  0.00000000E+00  0.00000000E+00
  0.00000000E+00  0.00000000E+00  0.00000000E+00
  0.00000000E+00  0.00000000E+00  0.00000000E+00
  0.00000000E+00  0.00000000E+00  0.00000000E+00
  0.00000000E+00  0.00000000E+00  0.00000000E+00
  0.00000000E+00  0.00000000E+00  0.00000000E+00
  0.00000000E+00  0.00000000E+00  0.00000000E+00
  0.00000000E+00  0.00000000E+00  0.00000000E+00
  0.00000000E+00  0.00000000E+00  0.00000000E+00
  0.00000000E+00  0.00000000E+00  0.00000000E+00
  0.00000000E+00  0.00000000E+00  0.00000000E+00
  0.00000000E+00  0.00000000E+00  0.00000000E+00
  0.00000000E+00  0.00000000E+00  0.00000000E+00
  0.00000000E+00  0.00000000E+00  0.00000000E+00
  0.00000000E+00  0.00000000E+00  0.00000000E+00
  0.00000000E+00  0.00000000E+00  0.00000000E+00
  0.00000000E+00  0.00000000E+00  0.00000000E+00
  0.00000000E+00  0.00000000E+00  0.00000000E+00
  0.00000000E+00  0.00000000E+00  0.00000000E+00
  0.00000000E+00  0.00000000E+00  0.00000000E+00
  0.00000000E+00  0.00000000E+00  0.00000000E+00
  0.00000000E+00  0.00000000E+00  0.00000000E+00
  0.00000000E+00  0.00000000E+00  0.00000000E+00
  0.00000000E+00  0.00000000E+00  0.00000000E+00
  0.00000000E+00  0.00000000E+00  0.00000000E+00
  0.00000000E+00  0.00000000E+00  0.00000000E+00
  0.00000000E+00  0.00000000E+00  0.00000000E+00
  0.00000000E+00  0.00000000E+00  0.00000000E+00
  0.00000000E+00  0.00000000E+00  0.00000000E+00
