Ni_Pol_COC
   1.00000000000000     
     9.8291997910000006    0.0000000000000000    0.0000000000000000
     4.9145998955000003    8.5123367178000002    0.0000000000000000
     0.0000000000000000    0.0000000000000000   19.0128002167000005
   Ni   O    C    O    C 
    64     3     1     1     1
Selective dynamics
Direct
  0.8334846693698452  0.5831541272397156  0.2712626818174904   T   T   T
  0.3339275505732773  0.0831771637519974  0.2705506553118063   T   T   T
  0.8338376096102843  0.0834477267354535  0.2709816664732826   T   T   T
  0.3341540060382425  0.5833444551758490  0.2712481572337985   T   T   T
  0.5838760959091245  0.8335850617858868  0.2708299308918994   T   T   T
  0.8337428115540773  0.8333501868308961  0.2707917670385755   T   T   T
  0.0838756092139179  0.3331556248441426  0.2705549777776652   T   T   T
  0.8335866993679464  0.3329944507981488  0.2713822345666849   T   T   T
  0.5835375702044517  0.5830333518489875  0.2719926695763206   T   T   T
  0.0838892890329367  0.5831792865695169  0.2708939623705118   T   T   T
  0.0833528364225175  0.0841517630864567  0.2703954626404969   T   T   T
  0.5843220794379234  0.0830251725693921  0.2714101555430031   T   T   T
  0.3343431561593383  0.8331037625543968  0.2708552641000475   T   T   T
  0.0836770063690918  0.8334352762087504  0.2705751227056150   T   T   T
  0.3340830662845289  0.3336061003276378  0.2715556724586071   T   T   T
  0.5835722679727372  0.3328490299470547  0.2720777458873004   T   T   T
  0.9177695171212493  0.6654724172001121  0.3751674861408136   T   T   T
  0.9171927825128987  0.4155470838256647  0.3755903827106805   T   T   T
  0.6676498049690491  0.6650030417216011  0.3758167214642268   T   T   T
  0.1676929026088106  0.1656049153331025  0.3758524588528517   T   T   T
  0.9172276627012522  0.1653404876569974  0.3768287718493532   T   T   T
  0.9177476156260350  0.9163135784877787  0.3757290248294025   T   T   T
  0.4175129546835477  0.9158412714644230  0.3760156694254094   T   T   T
  0.4177823648360459  0.1656989550262699  0.3759276079695334   T   T   T
  0.6688609860676451  0.1657318026830752  0.3775677311694389   T   T   T
  0.1682022667448906  0.6660833370837311  0.3758668233284131   T   T   T
  0.4170784446967454  0.6656414580624755  0.3773886596975821   T   T   T
  0.4180344243219146  0.4170146553678243  0.3779198422003996   T   T   T
  0.6668929517763066  0.9167414207419889  0.3777020311063631   T   T   T
  0.1690639498003650  0.4150054573445413  0.3775666514384053   T   T   T
  0.6667479285115200  0.4148854685081323  0.3789660599129818   T   T   T
  0.1675779945503030  0.9164391215929388  0.3778969104253563   T   T   T
  0.0006206765849077  0.2527562906985749  0.4796775402402872   T   T   T
  0.5006091395925178  0.2478493536396256  0.4799081993871639   T   T   T
  0.9978722526580011  0.7455147795801510  0.4797513495694022   T   T   T
  0.5049106010356574  0.7480995878784671  0.4800220281794981   T   T   T
  0.7517162733305703  0.7478453133460955  0.4806402104315106   T   T   T
  0.0010453388698700  0.4990754031759917  0.4805380543457105   T   T   T
  0.7551564879711119  0.5029024576195544  0.4834469814914071   T   T   T
  0.2496752916790399 -0.0025569160605905  0.4853977075401194   T   T   T
  0.0059341011497877  0.9948658156836063  0.4844312882441364   T   T   T
  0.5045060294580146  0.9964444328526070  0.4857435160566085   T   T   T
  0.2477622170952959  0.7531564227835600  0.4845105479724393   T   T   T
  0.7502241467199704  0.9936079571494241  0.4852853340656206   T   T   T
  0.2490676420706957  0.2524802191966442  0.4858260855085088   T   T   T
  0.7523642451730282  0.2469691854927286  0.4931191309336944   T   T   T
  0.2464868737671695  0.4982279152150648  0.4852157762450451   T   T   T
  0.5010761912690280  0.4993871861552446  0.4956832519220206   T   T   T
  0.9970724670000024  0.2558556729999992  0.1637003960000030   F   F   F
  0.4999617989999976  0.2500875830000027  0.1643123180000003   F   F   F
  0.9968841629999972  0.7476992069999966  0.1643590660000029   F   F   F
  0.5054474789999972  0.7476858750000019  0.1651548480000002   F   F   F
  0.7507219769999978  0.7486395119999969  0.1651830500000031   F   F   F
  0.9979410790000003  0.5014025589999989  0.1651978470000017   F   F   F
  0.7507272960000009  0.5014379059999996  0.1654730480000026   F   F   F
  0.2484077359999972  0.9989653640000000  0.1655050250000016   F   F   F
  0.0026835399999996  0.9989392600000002  0.1655775309999967   F   F   F
  0.5037179199999997  0.9979203070000011  0.1655856309999990   F   F   F
  0.2483221529999966  0.7533767729999994  0.1658259459999982   F   F   F
  0.7484137009999969  0.9978805350000002  0.1658943890000018   F   F   F
  0.2473094730000014  0.2543786680000011  0.1660089160000027   F   F   F
  0.7483561820000020  0.2543461500000035  0.1660180820000008   F   F   F
  0.2472921950000000  0.4989472700000022  0.1662971330000005   F   F   F
  0.5037960519999984  0.4989156760000029  0.1664085250000014   F   F   F
  0.3341879723795514  0.0822934988391965  0.5451596644564767   T   T   T
  0.8431670524154105  0.0648645879773229  0.5464454254525971   T   T   T
  0.3167903915893358  0.5911780187320995  0.5470078575494778   T   T   T
  0.6822899272046361  0.4242189069555620  0.5532565265107509   T   T   T
  0.7075237709144272  0.3873551607402893  0.6836968038591330   T   T   T
  0.6954388581158104  0.4054276308412645  0.6226528157326472   T   T   T
 
  0.00000000E+00  0.00000000E+00  0.00000000E+00
  0.00000000E+00  0.00000000E+00  0.00000000E+00
  0.00000000E+00  0.00000000E+00  0.00000000E+00
  0.00000000E+00  0.00000000E+00  0.00000000E+00
  0.00000000E+00  0.00000000E+00  0.00000000E+00
  0.00000000E+00  0.00000000E+00  0.00000000E+00
  0.00000000E+00  0.00000000E+00  0.00000000E+00
  0.00000000E+00  0.00000000E+00  0.00000000E+00
  0.00000000E+00  0.00000000E+00  0.00000000E+00
  0.00000000E+00  0.00000000E+00  0.00000000E+00
  0.00000000E+00  0.00000000E+00  0.00000000E+00
  0.00000000E+00  0.00000000E+00  0.00000000E+00
  0.00000000E+00  0.00000000E+00  0.00000000E+00
  0.00000000E+00  0.00000000E+00  0.00000000E+00
  0.00000000E+00  0.00000000E+00  0.00000000E+00
  0.00000000E+00  0.00000000E+00  0.00000000E+00
  0.00000000E+00  0.00000000E+00  0.00000000E+00
  0.00000000E+00  0.00000000E+00  0.00000000E+00
  0.00000000E+00  0.00000000E+00  0.00000000E+00
  0.00000000E+00  0.00000000E+00  0.00000000E+00
  0.00000000E+00  0.00000000E+00  0.00000000E+00
  0.00000000E+00  0.00000000E+00  0.00000000E+00
  0.00000000E+00  0.00000000E+00  0.00000000E+00
  0.00000000E+00  0.00000000E+00  0.00000000E+00
  0.00000000E+00  0.00000000E+00  0.00000000E+00
  0.00000000E+00  0.00000000E+00  0.00000000E+00
  0.00000000E+00  0.00000000E+00  0.00000000E+00
  0.00000000E+00  0.00000000E+00  0.00000000E+00
  0.00000000E+00  0.00000000E+00  0.00000000E+00
  0.00000000E+00  0.00000000E+00  0.00000000E+00
  0.00000000E+00  0.00000000E+00  0.00000000E+00
  0.00000000E+00  0.00000000E+00  0.00000000E+00
  0.00000000E+00  0.00000000E+00  0.00000000E+00
  0.00000000E+00  0.00000000E+00  0.00000000E+00
  0.00000000E+00  0.00000000E+00  0.00000000E+00
  0.00000000E+00  0.00000000E+00  0.00000000E+00
  0.00000000E+00  0.00000000E+00  0.00000000E+00
  0.00000000E+00  0.00000000E+00  0.00000000E+00
  0.00000000E+00  0.00000000E+00  0.00000000E+00
  0.00000000E+00  0.00000000E+00  0.00000000E+00
  0.00000000E+00  0.00000000E+00  0.00000000E+00
  0.00000000E+00  0.00000000E+00  0.00000000E+00
  0.00000000E+00  0.00000000E+00  0.00000000E+00
  0.00000000E+00  0.00000000E+00  0.00000000E+00
  0.00000000E+00  0.00000000E+00  0.00000000E+00
  0.00000000E+00  0.00000000E+00  0.00000000E+00
  0.00000000E+00  0.00000000E+00  0.00000000E+00
  0.00000000E+00  0.00000000E+00  0.00000000E+00
  0.00000000E+00  0.00000000E+00  0.00000000E+00
  0.00000000E+00  0.00000000E+00  0.00000000E+00
  0.00000000E+00  0.00000000E+00  0.00000000E+00
  0.00000000E+00  0.00000000E+00  0.00000000E+00
  0.00000000E+00  0.00000000E+00  0.00000000E+00
  0.00000000E+00  0.00000000E+00  0.00000000E+00
  0.00000000E+00  0.00000000E+00  0.00000000E+00
  0.00000000E+00  0.00000000E+00  0.00000000E+00
  0.00000000E+00  0.00000000E+00  0.00000000E+00
  0.00000000E+00  0.00000000E+00  0.00000000E+00
  0.00000000E+00  0.00000000E+00  0.00000000E+00
  0.00000000E+00  0.00000000E+00  0.00000000E+00
  0.00000000E+00  0.00000000E+00  0.00000000E+00
  0.00000000E+00  0.00000000E+00  0.00000000E+00
  0.00000000E+00  0.00000000E+00  0.00000000E+00
  0.00000000E+00  0.00000000E+00  0.00000000E+00
  0.00000000E+00  0.00000000E+00  0.00000000E+00
  0.00000000E+00  0.00000000E+00  0.00000000E+00
  0.00000000E+00  0.00000000E+00  0.00000000E+00
  0.00000000E+00  0.00000000E+00  0.00000000E+00
  0.00000000E+00  0.00000000E+00  0.00000000E+00
  0.00000000E+00  0.00000000E+00  0.00000000E+00
