 Ni_Pol_CO2_vacuum                        
   1.00000000000000     
     9.8291997910000006    0.0000000000000000    0.0000000000000000
     4.9145998955000003    8.5123367178000002    0.0000000000000000
     0.0000000000000000    0.0000000000000000   19.0128002167000005
   Ni   O    C    O 
    64     3     1     2
Selective dynamics
Direct
  0.8338361823541561  0.5842093956048940  0.2716865450523837   T   T   T
  0.3337312738268470  0.0848682973522981  0.2703925974569485   T   T   T
  0.8320617855394026  0.0847366198731776  0.2712433148158516   T   T   T
  0.3335811340423539  0.5836283075907839  0.2706827392898571   T   T   T
  0.5836671753088554  0.8345061653273375  0.2707737926537626   T   T   T
  0.8338539576553884  0.8328932238840404  0.2714123265173685   T   T   T
  0.0829295062197673  0.3349886184313924  0.2709347936128711   T   T   T
  0.8338607721881641  0.3348715012495049  0.2711039167452492   T   T   T
  0.5837106643040083  0.5842560697664299  0.2709835186792082   T   T   T
  0.0827426956470028  0.5842360627298080  0.2713858021619530   T   T   T
  0.0818254742680650  0.0855972750388255  0.2697356183686642   T   T   T
  0.5842105074340059  0.0839376911174344  0.2719972255831347   T   T   T
  0.3332380226960939  0.8344588199986087  0.2703746571110162   T   T   T
  0.0816537213675952  0.8344832710164963  0.2699698670582847   T   T   T
  0.3336476371364983  0.3342149613657283  0.2718372168223269   T   T   T
  0.5840598412689479  0.3337825542932797  0.2721862435246298   T   T   T
  0.9182204616309643  0.6645716441237751  0.3776923238591697   T   T   T
  0.9181067386904737  0.4187850104645828  0.3770877315598678   T   T   T
  0.6667874289293184  0.6679517486255732  0.3752252565761746   T   T   T
  0.1660964926713245  0.1676428680145132  0.3745728755379770   T   T   T
  0.9152247659164134  0.1684058411032267  0.3757030966316469   T   T   T
  0.9153292416122781  0.9182989662848410  0.3759082574390288   T   T   T
  0.4157265228984843  0.9185016687933302  0.3750662248509596   T   T   T
  0.4172846094113062  0.1672755089668118  0.3773231505533345   T   T   T
  0.6642500939266868  0.1685713466827236  0.3791494889656605   T   T   T
  0.1661475589426809  0.6683458696881147  0.3748910893228570   T   T   T
  0.4157058786370100  0.6683004886859000  0.3751779127009088   T   T   T
  0.4170830936354800  0.4172742233191802  0.3773936573688145   T   T   T
  0.6666213268379085  0.9181209123826605  0.3780795411216178   T   T   T
  0.1681412782541108  0.4166670836336773  0.3783349397091748   T   T   T
  0.6665922176381512  0.4169371790058168  0.3778873462693811   T   T   T
  0.1642058075107994  0.9190229554413535  0.3758751915951672   T   T   T
  0.9963946712553889  0.2550342900993705  0.4789589572229476   T   T   T
  0.4980968728309525  0.2514766162323165  0.4880163167419862   T   T   T
  0.9962300217544898  0.7502472701344451  0.4793313991174111   T   T   T
  0.5056718430808818  0.7476551797442718  0.4788546987599786   T   T   T
  0.7507768048524438  0.7489724091980859  0.4813285741959349   T   T   T
 -0.0005757598699969  0.5010472144866269  0.4899026492924122   T   T   T
  0.7508075194578303  0.5016857218478863  0.4809096579718957   T   T   T
  0.2453516888521297 -0.0020196590259543  0.4820713357770833   T   T   T
  0.0006535126176985  0.0006775450196625  0.4845319282156644   T   T   T
  0.5055297947206141  0.9942858565147521  0.4851337404030681   T   T   T
  0.2453356815861903  0.7577231320552374  0.4821885989869552   T   T   T
  0.7475561753638490  0.9982595065118344  0.4867169072741371   T   T   T
  0.2489617306489277  0.2490742504820629  0.4842441996523451   T   T   T
  0.7476750024800020  0.2555759651977946  0.4865494783280956   T   T   T
  0.2487376509531193  0.5027943443948573  0.4842495393595163   T   T   T
  0.5049341660508271  0.5015186467221704  0.4850902266861444   T   T   T
  0.9970724670000024  0.2558556729999992  0.1637003960000030   F   F   F
  0.4999617989999976  0.2500875830000027  0.1643123180000003   F   F   F
  0.9968841629999972  0.7476992069999966  0.1643590660000029   F   F   F
  0.5054474789999972  0.7476858750000019  0.1651548480000002   F   F   F
  0.7507219769999978  0.7486395119999969  0.1651830500000031   F   F   F
  0.9979410790000003  0.5014025589999989  0.1651978470000017   F   F   F
  0.7507272960000009  0.5014379059999996  0.1654730480000026   F   F   F
  0.2484077359999972  0.9989653640000000  0.1655050250000016   F   F   F
  0.0026835399999996  0.9989392600000002  0.1655775309999967   F   F   F
  0.5037179199999997  0.9979203070000011  0.1655856309999990   F   F   F
  0.2483221529999966  0.7533767729999994  0.1658259459999982   F   F   F
  0.7484137009999969  0.9978805350000002  0.1658943890000018   F   F   F
  0.2473094730000014  0.2543786680000011  0.1660089160000027   F   F   F
  0.7483561820000020  0.2543461500000035  0.1660180820000008   F   F   F
  0.2472921950000000  0.4989472700000022  0.1662971330000005   F   F   F
  0.5037960519999984  0.4989156760000029  0.1664085250000014   F   F   F
  0.3341650650919012  0.0712436549960987  0.5426295832488677   T   T   T
  0.8325847523733321  0.0844927199150726  0.5448244236174585   T   T   T
  0.3339294457535416  0.5952383657480756  0.5424980071779291   T   T   T
  0.2485498763544436  0.3756034463284169  0.5718682475548988   T   T   T
  0.3817052847298213  0.3091973590998455  0.5982417304918124   T   T   T
  0.1065119842480004  0.4467713596517930  0.5914933494143728   T   T   T
 
  0.00000000E+00  0.00000000E+00  0.00000000E+00
  0.00000000E+00  0.00000000E+00  0.00000000E+00
  0.00000000E+00  0.00000000E+00  0.00000000E+00
  0.00000000E+00  0.00000000E+00  0.00000000E+00
  0.00000000E+00  0.00000000E+00  0.00000000E+00
  0.00000000E+00  0.00000000E+00  0.00000000E+00
  0.00000000E+00  0.00000000E+00  0.00000000E+00
  0.00000000E+00  0.00000000E+00  0.00000000E+00
  0.00000000E+00  0.00000000E+00  0.00000000E+00
  0.00000000E+00  0.00000000E+00  0.00000000E+00
  0.00000000E+00  0.00000000E+00  0.00000000E+00
  0.00000000E+00  0.00000000E+00  0.00000000E+00
  0.00000000E+00  0.00000000E+00  0.00000000E+00
  0.00000000E+00  0.00000000E+00  0.00000000E+00
  0.00000000E+00  0.00000000E+00  0.00000000E+00
  0.00000000E+00  0.00000000E+00  0.00000000E+00
  0.00000000E+00  0.00000000E+00  0.00000000E+00
  0.00000000E+00  0.00000000E+00  0.00000000E+00
  0.00000000E+00  0.00000000E+00  0.00000000E+00
  0.00000000E+00  0.00000000E+00  0.00000000E+00
  0.00000000E+00  0.00000000E+00  0.00000000E+00
  0.00000000E+00  0.00000000E+00  0.00000000E+00
  0.00000000E+00  0.00000000E+00  0.00000000E+00
  0.00000000E+00  0.00000000E+00  0.00000000E+00
  0.00000000E+00  0.00000000E+00  0.00000000E+00
  0.00000000E+00  0.00000000E+00  0.00000000E+00
  0.00000000E+00  0.00000000E+00  0.00000000E+00
  0.00000000E+00  0.00000000E+00  0.00000000E+00
  0.00000000E+00  0.00000000E+00  0.00000000E+00
  0.00000000E+00  0.00000000E+00  0.00000000E+00
  0.00000000E+00  0.00000000E+00  0.00000000E+00
  0.00000000E+00  0.00000000E+00  0.00000000E+00
  0.00000000E+00  0.00000000E+00  0.00000000E+00
  0.00000000E+00  0.00000000E+00  0.00000000E+00
  0.00000000E+00  0.00000000E+00  0.00000000E+00
  0.00000000E+00  0.00000000E+00  0.00000000E+00
  0.00000000E+00  0.00000000E+00  0.00000000E+00
  0.00000000E+00  0.00000000E+00  0.00000000E+00
  0.00000000E+00  0.00000000E+00  0.00000000E+00
  0.00000000E+00  0.00000000E+00  0.00000000E+00
  0.00000000E+00  0.00000000E+00  0.00000000E+00
  0.00000000E+00  0.00000000E+00  0.00000000E+00
  0.00000000E+00  0.00000000E+00  0.00000000E+00
  0.00000000E+00  0.00000000E+00  0.00000000E+00
  0.00000000E+00  0.00000000E+00  0.00000000E+00
  0.00000000E+00  0.00000000E+00  0.00000000E+00
  0.00000000E+00  0.00000000E+00  0.00000000E+00
  0.00000000E+00  0.00000000E+00  0.00000000E+00
  0.00000000E+00  0.00000000E+00  0.00000000E+00
  0.00000000E+00  0.00000000E+00  0.00000000E+00
  0.00000000E+00  0.00000000E+00  0.00000000E+00
  0.00000000E+00  0.00000000E+00  0.00000000E+00
  0.00000000E+00  0.00000000E+00  0.00000000E+00
  0.00000000E+00  0.00000000E+00  0.00000000E+00
  0.00000000E+00  0.00000000E+00  0.00000000E+00
  0.00000000E+00  0.00000000E+00  0.00000000E+00
  0.00000000E+00  0.00000000E+00  0.00000000E+00
  0.00000000E+00  0.00000000E+00  0.00000000E+00
  0.00000000E+00  0.00000000E+00  0.00000000E+00
  0.00000000E+00  0.00000000E+00  0.00000000E+00
  0.00000000E+00  0.00000000E+00  0.00000000E+00
  0.00000000E+00  0.00000000E+00  0.00000000E+00
  0.00000000E+00  0.00000000E+00  0.00000000E+00
  0.00000000E+00  0.00000000E+00  0.00000000E+00
  0.00000000E+00  0.00000000E+00  0.00000000E+00
  0.00000000E+00  0.00000000E+00  0.00000000E+00
  0.00000000E+00  0.00000000E+00  0.00000000E+00
  0.00000000E+00  0.00000000E+00  0.00000000E+00
  0.00000000E+00  0.00000000E+00  0.00000000E+00
  0.00000000E+00  0.00000000E+00  0.00000000E+00
