Ni_COOHC
   1.00000000000000     
     9.8291997910000006    0.0000000000000000    0.0000000000000000
     4.9145998955000003    8.5123367178000002    0.0000000000000000
     0.0000000000000000    0.0000000000000000   19.0128002167000005
   Ni   O    C    H 
    64     2     2     1
Selective dynamics
Direct
      0.8311059439792088      0.5867331344817015      0.2735678896878800   T T T
      0.3316037097001815      0.0870585895307499      0.2723447926318005   T T T
      0.8313110020687460      0.0869691196279901      0.2724366467126808   T T T
      0.3315811848392338      0.5868614965595762      0.2726362423699467   T T T
      0.5818058051808682      0.8368082398545780      0.2727128187196127   T T T
      0.8311001603776204      0.8368740790006387      0.2725150568324086   T T T
      0.0814624316996233      0.3370988687594139      0.2723829011428368   T T T
      0.8316824821419558      0.3367602741516356      0.2715978454358446   T T T
      0.5815556868604124      0.5875874784693125      0.2721591875499237   T T T
      0.0811839752489024      0.5867976721071051      0.2726783708720367   T T T
      0.0815253728164552      0.0870639099997508      0.2716620900544623   T T T
      0.5813591749959737      0.0866585300716697      0.2722264796986868   T T T
      0.3316214616597132      0.8370237921635638      0.2717689747784629   T T T
      0.0813357161993617      0.8368885840212140      0.2719836631810890   T T T
      0.3317204805525035      0.3367237695728176      0.2717986151675856   T T T
      0.5811673302726422      0.3367352083261734      0.2722912627250563   T T T
      0.9142580715981348      0.6688831618623264      0.3788002427051944   T T T
      0.9146190976920607      0.4192446195489332      0.3785918893903782   T T T
      0.6653005274458411      0.6693319664592829      0.3795964683941224   T T T
      0.1645815714969415      0.1700202355039335      0.3770854829236596   T T T
      0.9144269730416394      0.1706291542475396      0.3774253830060161   T T T
      0.9143980934955485      0.9198765942861372      0.3775227683862098   T T T
      0.4148610641051577      0.9196789417553999      0.3773313586009086   T T T
      0.4148927100732603      0.1699200781127725      0.3773817945646425   T T T
      0.6641737360340372      0.1701809789220854      0.3778180711031090   T T T
      0.1652490713775553      0.6692811408693807      0.3775460403189682   T T T
      0.4159332739196777      0.6693439004261251      0.3776979912526004   T T T
      0.4150800336134110      0.4194661480315705      0.3780495390870530   T T T
      0.6660187275284395      0.9173255893309837      0.3792926931294598   T T T
      0.1633570885795095      0.4205026758383079      0.3782529789240558   T T T
      0.6651146476916688      0.4199813977602866      0.3761965432638861   T T T
      0.1645396420241878      0.9197997333038986      0.3769082990230460   T T T
      0.0040021676689558      0.2471093182836198      0.4827093240671743   T T T
      0.4959987976514836      0.2506291846316073      0.4832414194941556   T T T
      0.0004023821005078      0.7536821259354544      0.4823485102830110   T T T
      0.4934577277939856      0.7579857393942550      0.4826991598113429   T T T
      0.7458348136338233      0.7566582258701895      0.4900146766157596   T T T
     -0.0003410053903011      0.5008082008048692      0.4884497288961778   T T T
      0.7511501929568172      0.5016393534175394      0.4864453556801665   T T T
      0.2480344236191860      0.0025540706711369      0.4830814670328076   T T T
      0.0009093293219165      0.0001683916312547      0.4831499624430772   T T T
      0.4960847395052240      0.0042134789921823      0.4831697931611900   T T T
      0.2464628557538780      0.7544680315356728      0.4833149852652795   T T T
      0.7481345756883893      0.0017988508930619      0.4830341315820834   T T T
      0.2485339218417276      0.2520157252143729      0.4829814172541170   T T T
      0.7531095706987336      0.2429299153482028      0.4859363220890300   T T T
      0.2467323191140203      0.5022289628018617      0.4832550800266742   T T T
      0.4901806478765887      0.5065285770052804      0.4864763506985500   T T T
      0.9978405174681398      0.2543943834835009      0.1662946953834926   F F F
      0.4981563113153064      0.2540727340140881      0.1664015954476199   F F F
     -0.0020616503153372      0.7539851859236735      0.1665467630652863   F F F
      0.4981138044644257      0.7540297999574670      0.1664954561924665   F F F
      0.7481661842921139      0.7537683647615269      0.1672160118963815   F F F
     -0.0021759833179309      0.5043476978722435      0.1672287300395782   F F F
      0.7481173817220442      0.5043271299417148      0.1668938127527497   F F F
      0.2481746764553245      0.0041103957413067      0.1662669919704473   F F F
     -0.0021282322007732      0.0040329614828733      0.1664650083892077   F F F
      0.4979169633956129      0.0039442577657755      0.1668170583464383   F F F
      0.2478612463148013      0.7540187342154331      0.1663989070147756   F F F
      0.7481036413350027      0.0039488683102312      0.1668726725296112   F F F
      0.2479254127692765      0.2540029525540781      0.1665796763039910   F F F
      0.7479361116070438      0.2539876958175113      0.1665357481904921   F F F
      0.2476799997267354      0.5044918056347530      0.1669397909702317   F F F
      0.4978607720699678      0.5042744708761133      0.1669034151435267   F F F
      0.8097606740606463      0.6938938650663956      0.5918082719660506   T T T
      0.9985607772101316      0.4678761709816797      0.6351405776998943   T T T
      0.9270164702943747      0.5605701401503910      0.5796702082304263   T T T
      0.6629237194167260      0.4151337149357794      0.5371600852945484   T T T
      0.0854113247709549      0.3690472181260406      0.6164996131385543   T T T
 
  0.00000000E+00  0.00000000E+00  0.00000000E+00
  0.00000000E+00  0.00000000E+00  0.00000000E+00
  0.00000000E+00  0.00000000E+00  0.00000000E+00
  0.00000000E+00  0.00000000E+00  0.00000000E+00
  0.00000000E+00  0.00000000E+00  0.00000000E+00
  0.00000000E+00  0.00000000E+00  0.00000000E+00
  0.00000000E+00  0.00000000E+00  0.00000000E+00
  0.00000000E+00  0.00000000E+00  0.00000000E+00
  0.00000000E+00  0.00000000E+00  0.00000000E+00
  0.00000000E+00  0.00000000E+00  0.00000000E+00
  0.00000000E+00  0.00000000E+00  0.00000000E+00
  0.00000000E+00  0.00000000E+00  0.00000000E+00
  0.00000000E+00  0.00000000E+00  0.00000000E+00
  0.00000000E+00  0.00000000E+00  0.00000000E+00
  0.00000000E+00  0.00000000E+00  0.00000000E+00
  0.00000000E+00  0.00000000E+00  0.00000000E+00
  0.00000000E+00  0.00000000E+00  0.00000000E+00
  0.00000000E+00  0.00000000E+00  0.00000000E+00
  0.00000000E+00  0.00000000E+00  0.00000000E+00
  0.00000000E+00  0.00000000E+00  0.00000000E+00
  0.00000000E+00  0.00000000E+00  0.00000000E+00
  0.00000000E+00  0.00000000E+00  0.00000000E+00
  0.00000000E+00  0.00000000E+00  0.00000000E+00
  0.00000000E+00  0.00000000E+00  0.00000000E+00
  0.00000000E+00  0.00000000E+00  0.00000000E+00
  0.00000000E+00  0.00000000E+00  0.00000000E+00
  0.00000000E+00  0.00000000E+00  0.00000000E+00
  0.00000000E+00  0.00000000E+00  0.00000000E+00
  0.00000000E+00  0.00000000E+00  0.00000000E+00
  0.00000000E+00  0.00000000E+00  0.00000000E+00
  0.00000000E+00  0.00000000E+00  0.00000000E+00
  0.00000000E+00  0.00000000E+00  0.00000000E+00
  0.00000000E+00  0.00000000E+00  0.00000000E+00
  0.00000000E+00  0.00000000E+00  0.00000000E+00
  0.00000000E+00  0.00000000E+00  0.00000000E+00
  0.00000000E+00  0.00000000E+00  0.00000000E+00
  0.00000000E+00  0.00000000E+00  0.00000000E+00
  0.00000000E+00  0.00000000E+00  0.00000000E+00
  0.00000000E+00  0.00000000E+00  0.00000000E+00
  0.00000000E+00  0.00000000E+00  0.00000000E+00
  0.00000000E+00  0.00000000E+00  0.00000000E+00
  0.00000000E+00  0.00000000E+00  0.00000000E+00
  0.00000000E+00  0.00000000E+00  0.00000000E+00
  0.00000000E+00  0.00000000E+00  0.00000000E+00
  0.00000000E+00  0.00000000E+00  0.00000000E+00
  0.00000000E+00  0.00000000E+00  0.00000000E+00
  0.00000000E+00  0.00000000E+00  0.00000000E+00
  0.00000000E+00  0.00000000E+00  0.00000000E+00
  0.00000000E+00  0.00000000E+00  0.00000000E+00
  0.00000000E+00  0.00000000E+00  0.00000000E+00
  0.00000000E+00  0.00000000E+00  0.00000000E+00
  0.00000000E+00  0.00000000E+00  0.00000000E+00
  0.00000000E+00  0.00000000E+00  0.00000000E+00
  0.00000000E+00  0.00000000E+00  0.00000000E+00
  0.00000000E+00  0.00000000E+00  0.00000000E+00
  0.00000000E+00  0.00000000E+00  0.00000000E+00
  0.00000000E+00  0.00000000E+00  0.00000000E+00
  0.00000000E+00  0.00000000E+00  0.00000000E+00
  0.00000000E+00  0.00000000E+00  0.00000000E+00
  0.00000000E+00  0.00000000E+00  0.00000000E+00
  0.00000000E+00  0.00000000E+00  0.00000000E+00
  0.00000000E+00  0.00000000E+00  0.00000000E+00
  0.00000000E+00  0.00000000E+00  0.00000000E+00
  0.00000000E+00  0.00000000E+00  0.00000000E+00
  0.00000000E+00  0.00000000E+00  0.00000000E+00
  0.00000000E+00  0.00000000E+00  0.00000000E+00
  0.00000000E+00  0.00000000E+00  0.00000000E+00
  0.00000000E+00  0.00000000E+00  0.00000000E+00
  0.00000000E+00  0.00000000E+00  0.00000000E+00
