Ni_COCH3
   1.00000000000000     
     9.8291997910000006    0.0000000000000000    0.0000000000000000
     4.9145998955000003    8.5123367178000002    0.0000000000000000
     0.0000000000000000    0.0000000000000000   19.0128002167000005
   Ni   O    C    H 
    64     1     2     3
Selective dynamics
Direct
      0.8305863880435629      0.5882509089496821      0.2711853577273611   T T T
      0.3311246836053033      0.0880199584001961      0.2707444221842947   T T T
      0.8308453958251282      0.0881540331673527      0.2704558315019049   T T T
      0.3307112411211189      0.5884868362707445      0.2709271232795771   T T T
      0.5808545377449437      0.8376917881972020      0.2713308954164522   T T T
      0.8308622092657689      0.8381429375922209      0.2712497424696526   T T T
      0.0808247237074929      0.3379158231577296      0.2713927713800661   T T T
      0.8307455445443944      0.3380925391000765      0.2716727239140958   T T T
      0.5809578782021191      0.5882242794837339      0.2714730763202108   T T T
      0.0807637434393383      0.5880910158837614      0.2709313514680005   T T T
      0.0810523078483036      0.0883459068859937      0.2714782374497604   T T T
      0.5808405208590911      0.0881655614269294      0.2712271912929015   T T T
      0.3311037536349133      0.8380730574549222      0.2710811349713673   T T T
      0.0805770175669985      0.8384757930197971      0.2709402075944247   T T T
      0.3309042589552319      0.3380863415832379      0.2711787110942124   T T T
      0.5809620271346952      0.3385675536297371      0.2708317651497585   T T T
      0.9137595712014446      0.6713304147992609      0.3762313287246286   T T T
      0.9132049346809319      0.4217990789509952      0.3771786245945152   T T T
      0.6644561960349183      0.6704623764736322      0.3781580579498485   T T T
      0.1623138387088486      0.1731071721080683      0.3775658925095057   T T T
      0.9147841212771561      0.1724706232537236      0.3768647215805115   T T T
      0.9136665351003351      0.9222566508432920      0.3760108450358945   T T T
      0.4134203352136742      0.9221793350384870      0.3762088191741991   T T T
      0.4134506570749858      0.1718706306698685      0.3763192265123773   T T T
      0.6645334758999368      0.1721389175836951      0.3759375771565153   T T T
      0.1636995919101999      0.6716243916469135      0.3763146446639919   T T T
      0.4137460616241715      0.6720263015664149      0.3762888515259484   T T T
      0.4143377763618988      0.4215603089063889      0.3759682326149257   T T T
      0.6637396415257186      0.9215752088666472      0.3763585869749128   T T T
      0.1638304906733156      0.4212810695514582      0.3760908868388873   T T T
      0.6643445688907499      0.4224491452476655      0.3772566673890165   T T T
      0.1640159929103171      0.9219245494635246      0.3761604804987915   T T T
      0.9947361916119951      0.2565316068414836      0.4891119629423723   T T T
      0.4960580414066366      0.2571693802169916      0.4818826143658369   T T T
      0.9956944482668909      0.7573480638026449      0.4820662108158257   T T T
      0.4935639429791736      0.7592426314382510      0.4820288727367213   T T T
      0.7458553342177174      0.7591800664087612      0.4818412104600315   T T T
     -0.0013918801486766      0.5079260420061577      0.4809250643104120   T T T
      0.7423035440722322      0.5112658465499827      0.4874027937170581   T T T
      0.2461027466121815      0.0070963410177444      0.4820109341361697   T T T
      0.9967600035481337      0.0045352872674096      0.4815542693174238   T T T
      0.4955514572779560      0.0076948553346092      0.4821007549191881   T T T
      0.2453426990788151      0.7573172926879336      0.4821453275718831   T T T
      0.7457834668332598      0.0068394307105322      0.4820703435082906   T T T
      0.2469490742437701      0.2568901821875746      0.4821664351213729   T T T
      0.7454853943277642      0.2537312501536236      0.4812416684996676   T T T
      0.2458729340407102      0.5072290797169750      0.4820664174114700   T T T
      0.4929683304611018      0.5076859711797750      0.4814006588670502   T T T
      0.9980389270528911      0.2544991272052893      0.1657891289104700   F F F
      0.4979892207879019      0.2545621426061282      0.1655431561818647   F F F
      0.9979792761208144      0.7542598578949334      0.1654754810518386   F F F
      0.4977456962207911      0.7542564713411348      0.1656481123325567   F F F
      0.7478334238632579      0.7541721021338533      0.1656377626870182   F F F
      0.9978918391742595      0.5042092523007742      0.1655340172940604   F F F
      0.7478638547415610      0.5042332935519119      0.1658034284896774   F F F
      0.2477567743534122      0.0043429675427986      0.1654498916384796   F F F
      0.9980926730447224      0.0044302638180318      0.1654021962260782   F F F
      0.4982108292905236      0.0044679636751326      0.1654102126604127   F F F
      0.2479734153362810      0.7542986309488460      0.1653462740663598   F F F
      0.7479264509234484      0.0043433937037369      0.1654076458336325   F F F
      0.2478507992874450      0.2545296957626577      0.1654414281328288   F F F
      0.7482492414419784      0.2543857895867042      0.1653304597526595   F F F
      0.2478017721912182      0.5044641804698825      0.1653535012123346   F F F
      0.4981243111702178      0.5043538916906363      0.1653182856189040   F F F
      0.7945861605280560      0.4515783300793636      0.5875742154060092   T T T
      0.9164055797230753      0.3194600308541276      0.5783176727718956   T T T
      0.9986307242094465      0.2217353442514656      0.6418001339463461   T T T
      0.0684059504532985      0.2701451558295803      0.6649818053870010   T T T
      0.0778350678121789      0.0987138913640829      0.6273660968269816   T T T
      0.9106910038565543      0.2321361376950991      0.6806558759133449   T T T
 
  0.00000000E+00  0.00000000E+00  0.00000000E+00
  0.00000000E+00  0.00000000E+00  0.00000000E+00
  0.00000000E+00  0.00000000E+00  0.00000000E+00
  0.00000000E+00  0.00000000E+00  0.00000000E+00
  0.00000000E+00  0.00000000E+00  0.00000000E+00
  0.00000000E+00  0.00000000E+00  0.00000000E+00
  0.00000000E+00  0.00000000E+00  0.00000000E+00
  0.00000000E+00  0.00000000E+00  0.00000000E+00
  0.00000000E+00  0.00000000E+00  0.00000000E+00
  0.00000000E+00  0.00000000E+00  0.00000000E+00
  0.00000000E+00  0.00000000E+00  0.00000000E+00
  0.00000000E+00  0.00000000E+00  0.00000000E+00
  0.00000000E+00  0.00000000E+00  0.00000000E+00
  0.00000000E+00  0.00000000E+00  0.00000000E+00
  0.00000000E+00  0.00000000E+00  0.00000000E+00
  0.00000000E+00  0.00000000E+00  0.00000000E+00
  0.00000000E+00  0.00000000E+00  0.00000000E+00
  0.00000000E+00  0.00000000E+00  0.00000000E+00
  0.00000000E+00  0.00000000E+00  0.00000000E+00
  0.00000000E+00  0.00000000E+00  0.00000000E+00
  0.00000000E+00  0.00000000E+00  0.00000000E+00
  0.00000000E+00  0.00000000E+00  0.00000000E+00
  0.00000000E+00  0.00000000E+00  0.00000000E+00
  0.00000000E+00  0.00000000E+00  0.00000000E+00
  0.00000000E+00  0.00000000E+00  0.00000000E+00
  0.00000000E+00  0.00000000E+00  0.00000000E+00
  0.00000000E+00  0.00000000E+00  0.00000000E+00
  0.00000000E+00  0.00000000E+00  0.00000000E+00
  0.00000000E+00  0.00000000E+00  0.00000000E+00
  0.00000000E+00  0.00000000E+00  0.00000000E+00
  0.00000000E+00  0.00000000E+00  0.00000000E+00
  0.00000000E+00  0.00000000E+00  0.00000000E+00
  0.00000000E+00  0.00000000E+00  0.00000000E+00
  0.00000000E+00  0.00000000E+00  0.00000000E+00
  0.00000000E+00  0.00000000E+00  0.00000000E+00
  0.00000000E+00  0.00000000E+00  0.00000000E+00
  0.00000000E+00  0.00000000E+00  0.00000000E+00
  0.00000000E+00  0.00000000E+00  0.00000000E+00
  0.00000000E+00  0.00000000E+00  0.00000000E+00
  0.00000000E+00  0.00000000E+00  0.00000000E+00
  0.00000000E+00  0.00000000E+00  0.00000000E+00
  0.00000000E+00  0.00000000E+00  0.00000000E+00
  0.00000000E+00  0.00000000E+00  0.00000000E+00
  0.00000000E+00  0.00000000E+00  0.00000000E+00
  0.00000000E+00  0.00000000E+00  0.00000000E+00
  0.00000000E+00  0.00000000E+00  0.00000000E+00
  0.00000000E+00  0.00000000E+00  0.00000000E+00
  0.00000000E+00  0.00000000E+00  0.00000000E+00
  0.00000000E+00  0.00000000E+00  0.00000000E+00
  0.00000000E+00  0.00000000E+00  0.00000000E+00
  0.00000000E+00  0.00000000E+00  0.00000000E+00
  0.00000000E+00  0.00000000E+00  0.00000000E+00
  0.00000000E+00  0.00000000E+00  0.00000000E+00
  0.00000000E+00  0.00000000E+00  0.00000000E+00
  0.00000000E+00  0.00000000E+00  0.00000000E+00
  0.00000000E+00  0.00000000E+00  0.00000000E+00
  0.00000000E+00  0.00000000E+00  0.00000000E+00
  0.00000000E+00  0.00000000E+00  0.00000000E+00
  0.00000000E+00  0.00000000E+00  0.00000000E+00
  0.00000000E+00  0.00000000E+00  0.00000000E+00
  0.00000000E+00  0.00000000E+00  0.00000000E+00
  0.00000000E+00  0.00000000E+00  0.00000000E+00
  0.00000000E+00  0.00000000E+00  0.00000000E+00
  0.00000000E+00  0.00000000E+00  0.00000000E+00
  0.00000000E+00  0.00000000E+00  0.00000000E+00
  0.00000000E+00  0.00000000E+00  0.00000000E+00
  0.00000000E+00  0.00000000E+00  0.00000000E+00
  0.00000000E+00  0.00000000E+00  0.00000000E+00
  0.00000000E+00  0.00000000E+00  0.00000000E+00
  0.00000000E+00  0.00000000E+00  0.00000000E+00
