 Layer\(9)                              
   1.00000000000000     
     9.8291997910000006    0.0000000000000000    0.0000000000000000
     4.9145998955000003    8.5123367178000002    0.0000000000000000
     0.0000000000000000    0.0000000000000000   30.7147998810000011
   Ni   O    H    C 
    64    32    62     2
Direct
  0.0832119736982795  0.0989221221934593  0.1147867865813972
  0.3186339174541891  0.0959195090860776  0.1158483547112045
  0.3229769665670428  0.8458570051893176  0.1163236761492863
  0.5758766717001405  0.3555928428613345  0.1190641727525233
  0.3167687832779556  0.6058148423106695  0.1205616172198633
  0.3237343422861800  0.3433547162192682  0.1136379747735864
  0.8114213361567714  0.1025156857998096  0.1169414549552103
  0.5743429533090479  0.0956803377178021  0.1184299467014642
  0.8300266806733368  0.3485253606045690  0.1181049485015127
  0.5621355171780285  0.5987289622820612  0.1254774724342849
  0.0657889700184499  0.8473484709340743  0.1185977830651527
  0.5757762626622182  0.8393154382716327  0.1220649881454146
  0.0676837011103668  0.3555715847767879  0.1191325032410304
  0.8169145129023613  0.5965095923049719  0.1236083239700195
  0.0583803860210342  0.6060238486598407  0.1197653157286270
  0.8163583813556404  0.8497207954855255  0.1221378496134985
  0.1547777668410092  0.1877459321739343  0.1831171792763209
  0.1465648533307509  0.9323450522394894  0.1876427687891979
  0.3986780832368348  0.1795276871933602  0.1836991283337829
  0.3834607860077860  0.9296063045726560  0.1858378288936181
  0.4028695240363198  0.4317822273075796  0.1851315171550572
  0.4000887302604952  0.6745560144372248  0.1883704371549172
  0.9082787347328133  0.1750397051666336  0.1835430471979292
  0.6463185582513549  0.1808243217488039  0.1844911638830921
  0.6527324921855202  0.4295844838741079  0.1859490132340597
  0.1460448788443096  0.6800618619653516  0.1877450860908882
  0.9104555979831320  0.4266825563176423  0.1882083021046796
  0.6439056484530793  0.6855846860445511  0.1903254709915983
  0.9011635490235222  0.9287878081310234  0.1879887766776651
  0.6459777511545692  0.9366953250656993  0.1871327846773597
  0.1656668307510792  0.4300078031957207  0.1827271460616237
  0.8954000901385233  0.6882459158785373  0.1903730668371729
  0.2341167881749981  0.0191176778561463  0.2523614920436669
  0.4859409410167071  0.2612640181061837  0.2513354097310725
  0.4864364815829713  0.5219228336661048  0.2533143200574339
  0.2353331696884332  0.2571976037430870  0.2491262674700278
 -0.0185391975524103  0.2727964411951199  0.2545571197920788
  0.7215230714387317  0.2637502183401578  0.2519839452919826
  0.4895661921614529  0.7710255630565701  0.2544254460622906
  0.2377937680291401  0.7735410625030814  0.2608842820756910
  0.4846921149656815  0.0149241606795361  0.2522925088493073
  0.9770146891200348  0.0184452345189063  0.2502542298628510
  0.2379489112036982  0.5183229478643330  0.2494789213822896
  0.7417428278331448  0.5138298522231997  0.2554745061734153
  0.7313989689339401  0.0015397782557482  0.2525886540206739
 -0.0144345437429058  0.7586252483784511  0.2533310564840336
  0.7445887956839171  0.7582431804610421  0.2569013133962765
  0.0019369233403020  0.5027702018196547  0.2536663268225062
  0.2497835540746579 -0.0029975617693816  0.0479895933490758
  0.5049385366257921  0.2582260264170569  0.0541350738129508
  0.4907711465552530  0.5180789953582886  0.0569772731275145
  0.2471997661428735  0.2552388846846154  0.0461908873779706
  0.0041429450165569  0.2597413144278201  0.0532612008497316
  0.7485623394191976  0.2662708127170800  0.0534610293888831
  0.4910117412501582  0.7701146553018555  0.0559551196464007
  0.2286391740821846  0.7694062886693783  0.0511895893882420
  0.4926038970183062  0.0160199983215718  0.0551388517643458
  0.9875475036073125  0.0113043876535708  0.0546045923881069
  0.2437347133195924  0.4973899269188931  0.0497699318768285
  0.7485565578937142  0.5187025626236266  0.0583171784660608
  0.7403365438378335  0.0154108207703346  0.0529801378086577
 -0.0159428595125023  0.7635610721758261  0.0512907009024661
  0.7453363735289192  0.7705876421784109  0.0567782123297079
  0.9865777646159629  0.5152825858792830  0.0548782518602937
  0.2462996772683570  0.6621714896574667  0.5417887393846563
  0.7837522430302512  0.9483152063320749  0.6131611190011710
  0.5014766279420940  0.7989638630048179  0.3739693696341165
  1.0226307430844253  0.3314441273950584  0.3737167820384542
  0.5308510409402485  0.0345290041827677  0.3997970594986173
  0.2147025141647702  0.4218977442355931  0.5852522824695878
  0.6405453618280614  0.6453967166480419  0.4469052697272529
  0.2457095094291464  0.5855215805686879  0.3795967737237327
  0.7256666729384840  0.7994292157491106  0.3203386477263473
  0.3696392672960979  0.8717475273865036  0.4859593540057156
  1.0798796951215435  0.0527722592086432  0.3450134208707158
  0.4617266946754887  0.1845879002862161  0.5494628996128370
  0.3517378920019225  1.0260552463842236  0.6232786351301077
  0.6512236391730556  0.3859113790900523  0.4524761119155322
  0.7646732522543113  0.4664599407758427  0.5796260897380623
  0.3329230651647316  0.5065873246211455  0.4634714837152270
  0.8808220299590762  0.7010480767373459  0.4709511607292697
  0.9914725575479473  0.4610652707009343  0.5273851338060961
  0.0224283009568414  0.2037935853887907  0.6313874486079953
  0.6847443756669378  0.2519245450235770  0.5248867160670511
  0.9724388066005177  0.6063157229399356  0.6348750351294323
  0.4718701529501037  0.7452478779628783  0.5641793510121040
  0.9368366818437666  0.7295551233603403  0.3878059356277929
  0.9316238146664343  0.9118933215905884  0.5339273245799274
  0.3745321225291882  0.1411459795138422  0.4734112288368601
  0.0512895944201304  1.0428572684681880  0.4775582230081853
  0.8412885299449568  0.0233131486421618  0.4143274063154613
  1.0422015732270831  0.3106664535157673  0.4558620871464205
  0.2678185325558378  0.7816802658908460  0.3246515019207348
  0.3027547052737376  0.2851293354751778  0.3517491605025204
  0.7620782951440086  0.2891620121526705  0.3645487733696421
  0.7782527950910910  0.4506070131091651  0.3161448675258117
  0.3175052597802491  0.6777408368206267  0.5585706421197709
  0.2320567090851791  0.5792215473062429  0.5585956284549333
  0.8203924603249876  0.9088847668578548  0.5832551889611431
  0.6807036157810953  0.9520755429352039  0.6160794487116229
  0.4819839349611213  0.9079652548112029  0.3842326280038890
  0.4260046310294074  0.7964516078780186  0.3541350813057589
  0.9483181812129999  0.3858672917918619  0.3493108714591248
  0.1192329927476186  0.3201763405186280  0.3617913411039127
  0.4803630470973155  0.0757442926335610  0.4304240082036671
  0.4569396960950174  0.1351727163287132  0.3826787473148676
  0.1419034606635653  0.5005126546523759  0.6055133878151970
  0.1419767646669464  0.4225257822980008  0.5639338438033182
  0.7264054236733817  0.6669744779480867  0.4529399002177610
  0.6060243729697482  0.6821863999570337  0.4152901321970291
  0.1288788155414118  0.6294434055974000  0.3865853612686627
  0.2943369660073484  0.5792656677334981  0.4093843246801784
  0.6509751549694216  0.7867542130481235  0.3367597759437074
  0.8137590214258317  0.7704521868705869  0.3429621705969099
  0.3748877130514493  0.9708445872138832  0.4792321915116698
  0.4600072174461330  0.7795011631708447  0.4734695033763562
  0.9771373170094414  0.0818340399011098  0.3327884893678995
  1.0620236986781824  0.1665117483380879  0.3538208525882752
  0.5442899710311098  0.2121156681279195  0.5430829108811553
  0.3767660786150330  0.2766981951887851  0.5663447554585561
  0.2370807338238641  1.0829769703283638  0.6198800436161753
  0.3842437963693239  0.0985298011884283  0.6116292678071974
  0.6614838340122992  0.4857209878464880  0.4492341968661191
  0.6826959016573031  0.3406467899650063  0.4229863489172542
  0.6720770653879700  0.5696502120690009  0.5814567369486883
  0.7266642342401934  0.4053715965121565  0.5639251325311231
  0.4510750475094187  0.4484257051039968  0.4597485176290514
  0.3017506502782394  0.5637864177866582  0.4911952992497601
  0.9381663352211960  0.6086315492102133  0.4925252898240483
  0.8874783031967175  0.7887349972106119  0.4843683964054997
  1.0178790230781385  0.4031728369927987  0.4969817094865839
  0.8927317189765136  0.4928480249394513  0.5428641276181198
 -0.0196358689899729  0.1351417661258461  0.6218326425615831
 -0.0235071683084140  0.2886333993063230  0.6095490941386921
  0.6690370513938958  0.2857825738377768  0.4934722430487828
  0.7866838477256036  0.1528778774609776  0.5290096177094379
  0.9079060518481360  0.7194832433628747  0.6301442430345656
  0.8886400950943146  0.5807096570529217  0.6402441749713399
  0.4347231743400520  0.8372307203324684  0.5845789316909898
  0.4329742341811895  0.8027625519852311  0.5345810485856312
  0.9133627557916215  0.8434370837835783  0.3953172215148262
  0.8895884090706053  0.7101269353975215  0.4154781151376583
  0.9798857638330325  0.9568902348629967  0.5127329631721829
  1.0295166647110627  0.8224228215469090  0.5479563464491950
  0.2627035302230375  0.2236877248178815  0.4658646313667490
  0.4109374496370388  0.1676841350788620  0.5037445027549610
 -0.0080161928727809  1.0214981906558973  0.4552479333828549
  0.1631939864544130  0.9605668820291637  0.4767455314750049
  0.8359202817366559  0.0923853918117363  0.3896844812380530
  0.7339247908140476  0.0376180778703107  0.4083004338626894
  1.0078833076566678  0.3311827383827459  0.4257600961462425
  1.0486434537712648  0.2144414259266068  0.4663549930904712
  0.2469306007492282  0.7068532262546787  0.3461915024440163
  0.1920802666163064  0.9052101753583132  0.3330988184275318
  0.3117413087862282  0.3007378679204698  0.3201794934756155
  0.2822823371445035  0.3929260191246455  0.3600564713090436
  0.5184163181509629  1.3368039636182998  0.3234622885187194
  0.4883438191729426  0.5052143623022235  0.3087871793058644
  0.7042400457332538  0.3700827300499839  0.3311465130143251
  0.5928503374142954  0.3816947866929737  0.3092978451191418
 
  0.19130898E-02 -0.69062225E-03  0.27250889E-03
 -0.86458239E-03  0.66012660E-03 -0.61597371E-02
 -0.36113526E-03  0.11683953E-02  0.10950195E-02
 -0.99925834E-04 -0.84169585E-03  0.35559160E-02
 -0.83556582E-03 -0.32905650E-02  0.44617452E-04
 -0.30278613E-03 -0.33086100E-02  0.22720621E-02
  0.57642365E-03 -0.15781804E-02 -0.11609036E-02
 -0.32510096E-02  0.15138316E-02 -0.28146960E-03
  0.19664130E-02 -0.16351351E-02  0.16703156E-02
  0.13894909E-02  0.31221770E-02  0.79760821E-04
  0.30951071E-03  0.16672433E-03 -0.17368133E-02
 -0.56953128E-03 -0.99697187E-03  0.17026682E-02
  0.23221704E-02  0.12690029E-02 -0.15557940E-02
 -0.15904975E-02 -0.15942847E-02  0.19388371E-02
  0.15165356E-02  0.40272109E-02 -0.10116850E-02
  0.10279013E-02 -0.87912948E-03  0.17290546E-02
  0.26982542E-03 -0.26946524E-02  0.16558909E-02
 -0.47299119E-02  0.22180779E-02 -0.18731479E-02
  0.71891728E-03  0.13602179E-02  0.11934577E-02
 -0.51299217E-02 -0.38542690E-02  0.15990962E-02
  0.15469448E-02 -0.28233198E-04 -0.12589519E-02
 -0.31921774E-02  0.19430776E-02 -0.55914696E-03
 -0.14931189E-02  0.48116306E-03 -0.75709206E-03
 -0.27710824E-03  0.12764681E-02  0.23292305E-02
  0.51456892E-03 -0.13269128E-02 -0.45467996E-02
 -0.77307808E-03  0.57135578E-03  0.18720940E-02
  0.12361173E-02 -0.16216671E-02  0.19284960E-03
  0.13257696E-02 -0.43953836E-03  0.34935586E-03
 -0.29069690E-02 -0.88380283E-03  0.25669613E-02
 -0.11632646E-02  0.18628625E-03 -0.29889556E-03
 -0.22052327E-02  0.19838268E-02 -0.14979370E-02
 -0.26638405E-02 -0.27951445E-02 -0.35860196E-03
  0.25441170E-02  0.16490882E-02  0.19951205E-02
 -0.30024290E-02 -0.47789538E-03 -0.31481184E-02
  0.14752810E-02  0.40181993E-03 -0.18615882E-02
 -0.15190318E-03  0.38841282E-02 -0.31079708E-03
 -0.13900862E-02 -0.11319806E-02 -0.49101677E-03
  0.20957669E-02 -0.21599274E-02  0.20524940E-02
  0.25046908E-03  0.33012852E-02  0.26473173E-02
 -0.34510388E-02  0.27230795E-02 -0.34480115E-02
  0.17218329E-02 -0.32873218E-03 -0.21869235E-03
  0.14650819E-02  0.81588041E-03  0.16283395E-02
 -0.78436045E-03  0.24241824E-02 -0.13273214E-02
  0.28762801E-02  0.10647733E-02 -0.19557751E-02
  0.28968034E-03 -0.30967577E-04  0.95200733E-04
  0.38310614E-02  0.62471250E-03  0.88999038E-03
 -0.26416370E-02  0.14330623E-02  0.17130664E-02
  0.63301902E-03 -0.57424540E-03  0.16750895E-02
 -0.33170738E-03  0.21145123E-02  0.10889030E-02
  0.49330441E-04  0.60737073E-03  0.71823865E-03
 -0.32846629E-02 -0.15011432E-02  0.16806364E-02
 -0.39196344E-03 -0.79830235E-03  0.12539881E-02
 -0.69894740E-03  0.27998388E-02  0.25400736E-03
  0.93824105E-03 -0.51200590E-02 -0.15678025E-02
  0.24497768E-02 -0.84491358E-03  0.40792480E-03
  0.26928446E-02 -0.30830168E-03  0.61617584E-03
  0.60090721E-03 -0.25946736E-02  0.98795607E-03
  0.22714734E-02  0.23408706E-03  0.27873470E-02
  0.20197167E-02 -0.68099355E-03 -0.12602297E-02
  0.22073798E-02  0.24799613E-02 -0.12850748E-02
 -0.17802296E-02  0.10574008E-02  0.55228881E-03
 -0.11680878E-02  0.34504035E-03 -0.21132535E-02
 -0.61343798E-03 -0.58677631E-03  0.14421603E-02
  0.35162023E-02  0.12902313E-03  0.20494091E-02
 -0.32831776E-02 -0.61640922E-03  0.28475535E-02
 -0.49855742E-02 -0.62271231E-02  0.11621416E-02
  0.71961299E-03 -0.14941140E-02 -0.30905854E-02
  0.64272517E-02  0.24172847E-02  0.18385158E-02
 -0.48945155E-02  0.38261029E-02 -0.23953056E-02
 -0.59215748E-02 -0.50574770E-02  0.46765703E-02
  0.71916384E-02 -0.87756412E-02  0.10980655E-02
 -0.25253640E-02 -0.60551271E-02 -0.50652466E-02
  0.17922613E-03 -0.42105566E-02  0.41626342E-03
  0.27689300E-02  0.10791519E-02  0.24651371E-02
  0.13511468E-02 -0.28408206E-02 -0.30046113E-02
 -0.60983356E-02  0.40836359E-03 -0.21348037E-02
  0.96083653E-02  0.39655306E-02  0.33970671E-02
  0.51622857E-02 -0.13272476E-02 -0.41594831E-02
 -0.19627252E-02 -0.62663848E-02  0.31674243E-02
 -0.27352646E-02  0.19277478E-02  0.14139451E-02
 -0.64849895E-02 -0.32773935E-02 -0.37230405E-02
  0.11746360E-01  0.28024664E-02 -0.13659599E-02
  0.29044047E-02 -0.80526943E-02 -0.57107685E-02
 -0.13950461E-02  0.37841500E-02 -0.52295530E-03
 -0.37988461E-02  0.24870092E-02 -0.34894464E-02
  0.44386049E-02  0.76870934E-02 -0.14660902E-02
  0.69037903E-02  0.39031115E-02 -0.50553644E-03
  0.20358982E-02  0.32421649E-02 -0.29250536E-02
 -0.48983055E-02  0.37867339E-02 -0.36628652E-02
 -0.35857066E-02 -0.65825810E-02  0.47713818E-02
  0.11547551E-02  0.11905813E-01  0.37919012E-02
  0.25291175E-02 -0.15233416E-02 -0.84814233E-02
 -0.85915184E-03 -0.20060352E-02  0.14307445E-02
 -0.73192515E-03 -0.29303913E-02  0.18156884E-03
  0.34485243E-02 -0.13111299E-01 -0.24090810E-02
 -0.19511921E-02  0.64393180E-04 -0.36267868E-02
  0.68875849E-02  0.36662080E-03 -0.99039402E-02
 -0.36093675E-02 -0.40015074E-02 -0.39149796E-01
 -0.20505851E-01  0.39099172E-01 -0.90459312E-02
 -0.20011519E-01  0.74461723E-02  0.25923131E-01
 -0.11281122E-01 -0.28854302E-02 -0.19474824E-01
 -0.17774933E-01  0.21072254E-01  0.17636367E-01
 -0.61049288E-02 -0.10455090E-01 -0.17509998E-01
  0.17151547E-01  0.27464854E-02  0.11819709E-01
  0.14447253E-02 -0.11077687E-01 -0.13096421E-01
 -0.51301341E-02  0.14711675E-01 -0.11577861E-01
  0.18745669E-01  0.98111144E-02 -0.14013696E-01
 -0.23267067E-01 -0.10217411E-02 -0.23395778E-01
  0.34249170E-01 -0.71587348E-02  0.33392524E-02
  0.60174887E-02  0.20328737E-01 -0.18892808E-01
 -0.51543766E-02 -0.16221384E-01 -0.29576023E-01
 -0.10960969E-01 -0.10201778E-02 -0.17363925E-01
 -0.38785757E-01  0.95695011E-02  0.15957227E-01
 -0.54851258E-02 -0.41462176E-04 -0.46045708E-02
  0.13469728E-02  0.12080937E-01 -0.30883604E-02
  0.31146483E-01  0.38377372E-02 -0.12678982E-02
  0.40533252E-02 -0.83235269E-02  0.19732822E-01
  0.80153002E-02 -0.10604560E-01  0.63252774E-02
 -0.66490283E-04  0.29228174E-01 -0.14808385E-01
  0.10663810E-02  0.83674073E-02  0.10060278E-01
  0.58041173E-02  0.14770269E-01  0.39915175E-02
 -0.34723395E-01 -0.85123174E-03 -0.53283008E-02
  0.35937393E-02 -0.66393241E-02 -0.38254701E-02
 -0.85728528E-02 -0.24822038E-01 -0.66922300E-02
  0.10841785E-01 -0.17315531E-01 -0.15954219E-01
 -0.17289948E-01  0.12373695E-01  0.10754211E-01
 -0.98728437E-02  0.19797849E-01  0.13972942E-01
  0.21683058E-03 -0.13353246E-02  0.15513788E-01
  0.62949935E-02  0.26109406E-01  0.33829252E-02
  0.81825858E-02  0.14329549E-01  0.10567229E-01
  0.61540714E-02 -0.15800206E-01  0.14641779E-01
  0.13411541E-01  0.72721892E-02 -0.10287293E-01
  0.14533079E-01  0.12314119E-02  0.17447848E-01
 -0.86507086E-02 -0.97671024E-02 -0.44068625E-02
 -0.87947178E-04  0.17880641E-01  0.28174513E-01
 -0.12501623E-01  0.13223242E-01  0.25757336E-02
  0.19507080E-01  0.13215086E-01  0.19511063E-01
  0.15669190E-01 -0.24580074E-01  0.25198856E-01
 -0.10665861E-01 -0.62785271E-03  0.46972624E-01
  0.19844938E-02 -0.11522491E-01  0.11155524E-01
 -0.44196328E-02 -0.10737152E-01 -0.10328882E-01
  0.10984967E-01  0.65196906E-02 -0.68460536E-02
  0.65981543E-02  0.24335058E-01 -0.37381516E-01
  0.10213112E-01 -0.25500100E-01 -0.10791201E-01
 -0.12938035E-01 -0.85534872E-02 -0.21781119E-02
  0.54033546E-02  0.60371657E-02  0.71617518E-02
 -0.14816517E-01 -0.94917034E-02  0.66434422E-02
  0.93915053E-02  0.14349497E-02 -0.85856590E-02
  0.61352982E-02  0.39145322E-01 -0.11051485E-01
 -0.64996288E-02 -0.73265686E-03 -0.98899563E-02
 -0.10680872E-01 -0.19542592E-01  0.25228121E-02
  0.99952488E-02  0.13939282E-01 -0.60858161E-02
  0.15868173E-01  0.47947641E-02 -0.57154911E-02
  0.43716791E-02  0.77409104E-02 -0.38175662E-02
 -0.93229869E-02  0.52904891E-02 -0.16621932E-01
 -0.18645258E-02 -0.43199086E-04 -0.64226280E-02
  0.23066829E-01 -0.27720920E-01  0.87517348E-02
  0.12178736E-01 -0.19157205E-01 -0.18152991E-01
 -0.57554754E-02 -0.33805003E-03 -0.60724566E-02
 -0.49468839E-02  0.46680832E-02 -0.50881332E-02
 
           1
   1.00000000000000     
 -0.27703502E-01 -0.22886404E-02 -0.19372383E-02 -0.25590563E-01
  0.83447173E-01  0.98840990E-01  0.11479566E+00
  0.31850718E+00  0.95997058E-01  0.11564781E+00
  0.32287160E+00  0.84599426E+00  0.11635933E+00
  0.57591595E+00  0.35549396E+00  0.11917994E+00
  0.31687706E+00  0.60542828E+00  0.12056307E+00
  0.32389788E+00  0.34296603E+00  0.11371195E+00
  0.81157268E+00  0.10233029E+00  0.11690366E+00
  0.57392328E+00  0.95858177E-01  0.11842078E+00
  0.83032278E+00  0.34833327E+00  0.11815933E+00
  0.56209349E+00  0.59909574E+00  0.12548007E+00
  0.65810666E-01  0.84736806E+00  0.11854124E+00
  0.57577688E+00  0.83919832E+00  0.12212042E+00
  0.67845414E-01  0.35572066E+00  0.11908185E+00
  0.81684634E+00  0.59632230E+00  0.12367145E+00
  0.58298123E-01  0.60649695E+00  0.11973238E+00
  0.81651460E+00  0.84961752E+00  0.12219414E+00
  0.15496350E+00  0.18742937E+00  0.18317109E+00
  0.14595336E+00  0.93260562E+00  0.18758178E+00
  0.39867133E+00  0.17968748E+00  0.18373798E+00
  0.38316527E+00  0.92915352E+00  0.18588989E+00
  0.40302856E+00  0.43177891E+00  0.18509053E+00
  0.39964983E+00  0.67478428E+00  0.18835223E+00
  0.90809857E+00  0.17509623E+00  0.18351840E+00
  0.64621539E+00  0.18097428E+00  0.18456700E+00
  0.65286278E+00  0.42942860E+00  0.18580098E+00
  0.14593267E+00  0.68012898E+00  0.18780604E+00
  0.91067661E+00  0.42649205E+00  0.18821458E+00
  0.64406635E+00  0.68553305E+00  0.19033685E+00
  0.90091971E+00  0.92868398E+00  0.18807235E+00
  0.64584846E+00  0.93671721E+00  0.18712305E+00
  0.16532595E+00  0.43024086E+00  0.18267838E+00
  0.89529326E+00  0.68791755E+00  0.19036139E+00
  0.23427876E+00  0.19311407E-01  0.25242645E+00
  0.48566355E+00  0.26120788E+00  0.25123291E+00
  0.48656297E+00  0.52197004E+00  0.25325371E+00
  0.23508957E+00  0.25765390E+00  0.24911615E+00
  0.98138587E+00  0.27266346E+00  0.25454113E+00
  0.72186316E+00  0.26349648E+00  0.25205077E+00
  0.48939776E+00  0.77141339E+00  0.25451164E+00
  0.23728272E+00  0.77386096E+00  0.26077202E+00
  0.48488660E+00  0.14885542E-01  0.25228539E+00
  0.97711582E+00  0.18541081E-01  0.25030724E+00
  0.23772672E+00  0.51860773E+00  0.24943571E+00
  0.74197291E+00  0.51395494E+00  0.25541083E+00
  0.73143026E+00  0.15361403E-02  0.25259175E+00
  0.98591853E+00  0.75869864E+00  0.25336003E+00
  0.74423587E+00  0.75841153E+00  0.25695709E+00
  0.20350554E-02  0.50270274E+00  0.25372086E+00
  0.24962560E+00  0.99725084E+00  0.48025045E-01
  0.50490788E+00  0.25829738E+00  0.54158458E-01
  0.49052515E+00  0.51790265E+00  0.57031991E-01
  0.24720678E+00  0.25514510E+00  0.46231714E-01
  0.39073780E-02  0.26007023E+00  0.53269471E-01
  0.74895854E+00  0.26566933E+00  0.53409986E-01
  0.49131060E+00  0.77001540E+00  0.55968401E-01
  0.22893125E+00  0.76937007E+00  0.51209651E-01
  0.49281744E+00  0.15715185E-01  0.55171017E-01
  0.98776485E+00  0.11331887E-01  0.54695342E-01
  0.24398019E+00  0.49730993E+00  0.49728902E-01
  0.74863546E+00  0.51899390E+00  0.58275340E-01
  0.74009332E+00  0.15535041E-01  0.52998119E-01
  0.98391803E+00  0.76360161E+00  0.51221898E-01
  0.74530843E+00  0.77051871E+00  0.56825166E-01
  0.98692792E+00  0.51529774E+00  0.54944976E-01
  0.24600186E+00  0.66209908E+00  0.54188145E+00
  0.78361079E+00  0.94758367E+00  0.61319896E+00
  0.50163760E+00  0.79878834E+00  0.37386875E+00
  0.23142650E-01  0.33172810E+00  0.37377664E+00
  0.53012835E+00  0.34978482E-01  0.39971907E+00
  0.21439713E+00  0.42130361E+00  0.58540454E+00
  0.64179249E+00  0.64436578E+00  0.44694102E+00
  0.24580825E+00  0.58481025E+00  0.37943186E+00
  0.72593223E+00  0.79893457E+00  0.32035220E+00
  0.36985758E+00  0.87187430E+00  0.48603961E+00
  0.80184023E-01  0.52438529E-01  0.34491560E+00
  0.46108228E+00  0.18463587E+00  0.54939340E+00
  0.35248250E+00  0.26521103E-01  0.62338924E+00
  0.65182680E+00  0.38575546E+00  0.45234069E+00
  0.76484165E+00  0.46572379E+00  0.57972921E+00
  0.33253155E+00  0.50681379E+00  0.46351752E+00
  0.88035477E+00  0.70066306E+00  0.47082995E+00
  0.99250299E+00  0.46139449E+00  0.52734066E+00
  0.23196790E-01  0.20284758E+00  0.63120152E+00
  0.68438017E+00  0.25236909E+00  0.52486969E+00
  0.97190624E+00  0.60660789E+00  0.63476143E+00
  0.47187020E+00  0.74615093E+00  0.56413162E+00
  0.93730980E+00  0.73001365E+00  0.38778948E+00
  0.93164050E+00  0.91227420E+00  0.53383209E+00
  0.37381135E+00  0.14159083E+00  0.47329197E+00
  0.51311442E-01  0.42083970E-01  0.47771357E+00
  0.84070669E+00  0.24711803E-01  0.41445086E+00
  0.42548358E-01  0.31048750E+00  0.45558595E+00
  0.26784896E+00  0.78144460E+00  0.32469808E+00
  0.30285237E+00  0.28478508E+00  0.35175507E+00
  0.76319928E+00  0.28762174E+00  0.36447034E+00
  0.77805050E+00  0.45061458E+00  0.31602679E+00
  0.31818445E+00  0.67778391E+00  0.55824819E+00
  0.23192454E+00  0.57875146E+00  0.55732101E+00
  0.81600962E+00  0.91347800E+00  0.58296068E+00
  0.67823031E+00  0.95295029E+00  0.61692344E+00
  0.48100570E+00  0.90762628E+00  0.38359857E+00
  0.42295850E+00  0.79892710E+00  0.35470928E+00
  0.94831119E+00  0.38463906E+00  0.34874079E+00
  0.12081663E+00  0.32049899E+00  0.36217616E+00
  0.48116071E+00  0.74442924E-01  0.42999762E+00
  0.45555363E+00  0.13690099E+00  0.38230180E+00
  0.14323431E+00  0.50166523E+00  0.60505714E+00
  0.13966964E+00  0.42240575E+00  0.56317213E+00
  0.73031035E+00  0.66613349E+00  0.45304862E+00
  0.60544250E+00  0.68457455E+00  0.41467503E+00
  0.12930724E+00  0.62753777E+00  0.38562244E+00
  0.29328175E+00  0.57914582E+00  0.40881900E+00
  0.64646709E+00  0.78787841E+00  0.33727930E+00
  0.81320341E+00  0.77044732E+00  0.34281226E+00
  0.37431514E+00  0.97226381E+00  0.47913164E+00
  0.46295057E+00  0.77995201E+00  0.47342822E+00
  0.97803860E+00  0.80856221E-01  0.33343094E+00
  0.63462050E-01  0.16526596E+00  0.35402679E+00
  0.54256639E+00  0.21554929E+00  0.54260079E+00
  0.37638308E+00  0.27768117E+00  0.56667229E+00
  0.23680365E+00  0.84712131E-01  0.62001000E+00
  0.38076112E+00  0.98429801E-01  0.61145579E+00
  0.66223944E+00  0.48494102E+00  0.44910965E+00
  0.68328172E+00  0.33773078E+00  0.42276847E+00
  0.67419717E+00  0.56761604E+00  0.58093731E+00
  0.72417839E+00  0.40682522E+00  0.56427526E+00
  0.44890772E+00  0.45075149E+00  0.46020344E+00
  0.30185114E+00  0.56362955E+00  0.49170039E+00
  0.93727315E+00  0.61169879E+00  0.49263543E+00
  0.88746909E+00  0.79041838E+00  0.48471244E+00
  0.19433201E-01  0.40131668E+00  0.49745841E+00
  0.89366902E+00  0.49370234E+00  0.54252920E+00
  0.98177036E+00  0.13528643E+00  0.62240070E+00
  0.97618643E+00  0.28748599E+00  0.60940562E+00
  0.66797783E+00  0.28788313E+00  0.49438954E+00
  0.78463525E+00  0.15443130E+00  0.52909348E+00
  0.90911443E+00  0.72103571E+00  0.63077948E+00
  0.89167803E+00  0.57782207E+00  0.64106459E+00
  0.43367493E+00  0.83715696E+00  0.58610825E+00
  0.43385294E+00  0.80140893E+00  0.53494425E+00
  0.91354379E+00  0.84217572E+00  0.39498094E+00
  0.89032304E+00  0.71089285E+00  0.41525522E+00
  0.97912765E+00  0.95974903E+00  0.51151591E+00
  0.32053555E-01  0.81942716E+00  0.54760501E+00
  0.26188966E+00  0.22268289E+00  0.46579372E+00
  0.41113256E+00  0.16839336E+00  0.50397767E+00
  0.99103394E+00  0.20383138E-01  0.45546423E+00
  0.16406517E+00  0.96073545E+00  0.47646600E+00
  0.83424514E+00  0.96984049E-01  0.38932467E+00
  0.73330657E+00  0.37532008E-01  0.40797844E+00
  0.79445587E-02  0.32888694E+00  0.42584223E+00
  0.48841578E-01  0.21607896E+00  0.46615685E+00
  0.24826336E+00  0.70741650E+00  0.34600542E+00
  0.19207034E+00  0.90611955E+00  0.33297453E+00
  0.31048206E+00  0.30135938E+00  0.31963832E+00
  0.28209518E+00  0.39292094E+00  0.35984737E+00
  0.52239136E+00  0.33354741E+00  0.32374722E+00
  0.49070812E+00  0.50296384E+00  0.30819616E+00
  0.70367435E+00  0.37004302E+00  0.33094881E+00
  0.59207286E+00  0.38224318E+00  0.30913219E+00
  0.00000000E+00  0.00000000E+00  0.00000000E+00
  0.00000000E+00  0.00000000E+00  0.00000000E+00
  0.00000000E+00  0.00000000E+00  0.00000000E+00
  0.00000000E+00  0.00000000E+00  0.00000000E+00
  0.00000000E+00  0.00000000E+00  0.00000000E+00
  0.00000000E+00  0.00000000E+00  0.00000000E+00
  0.00000000E+00  0.00000000E+00  0.00000000E+00
  0.00000000E+00  0.00000000E+00  0.00000000E+00
  0.00000000E+00  0.00000000E+00  0.00000000E+00
  0.00000000E+00  0.00000000E+00  0.00000000E+00
  0.00000000E+00  0.00000000E+00  0.00000000E+00
  0.00000000E+00  0.00000000E+00  0.00000000E+00
  0.00000000E+00  0.00000000E+00  0.00000000E+00
  0.00000000E+00  0.00000000E+00  0.00000000E+00
  0.00000000E+00  0.00000000E+00  0.00000000E+00
  0.00000000E+00  0.00000000E+00  0.00000000E+00
  0.00000000E+00  0.00000000E+00  0.00000000E+00
  0.00000000E+00  0.00000000E+00  0.00000000E+00
  0.00000000E+00  0.00000000E+00  0.00000000E+00
  0.00000000E+00  0.00000000E+00  0.00000000E+00
  0.00000000E+00  0.00000000E+00  0.00000000E+00
  0.00000000E+00  0.00000000E+00  0.00000000E+00
  0.00000000E+00  0.00000000E+00  0.00000000E+00
  0.00000000E+00  0.00000000E+00  0.00000000E+00
  0.00000000E+00  0.00000000E+00  0.00000000E+00
  0.00000000E+00  0.00000000E+00  0.00000000E+00
  0.00000000E+00  0.00000000E+00  0.00000000E+00
  0.00000000E+00  0.00000000E+00  0.00000000E+00
  0.00000000E+00  0.00000000E+00  0.00000000E+00
  0.00000000E+00  0.00000000E+00  0.00000000E+00
  0.00000000E+00  0.00000000E+00  0.00000000E+00
  0.00000000E+00  0.00000000E+00  0.00000000E+00
  0.00000000E+00  0.00000000E+00  0.00000000E+00
  0.00000000E+00  0.00000000E+00  0.00000000E+00
  0.00000000E+00  0.00000000E+00  0.00000000E+00
  0.00000000E+00  0.00000000E+00  0.00000000E+00
  0.00000000E+00  0.00000000E+00  0.00000000E+00
  0.00000000E+00  0.00000000E+00  0.00000000E+00
  0.00000000E+00  0.00000000E+00  0.00000000E+00
  0.00000000E+00  0.00000000E+00  0.00000000E+00
  0.00000000E+00  0.00000000E+00  0.00000000E+00
  0.00000000E+00  0.00000000E+00  0.00000000E+00
  0.00000000E+00  0.00000000E+00  0.00000000E+00
  0.00000000E+00  0.00000000E+00  0.00000000E+00
  0.00000000E+00  0.00000000E+00  0.00000000E+00
  0.00000000E+00  0.00000000E+00  0.00000000E+00
  0.00000000E+00  0.00000000E+00  0.00000000E+00
  0.00000000E+00  0.00000000E+00  0.00000000E+00
  0.00000000E+00  0.00000000E+00  0.00000000E+00
  0.00000000E+00  0.00000000E+00  0.00000000E+00
  0.00000000E+00  0.00000000E+00  0.00000000E+00
  0.00000000E+00  0.00000000E+00  0.00000000E+00
  0.00000000E+00  0.00000000E+00  0.00000000E+00
  0.00000000E+00  0.00000000E+00  0.00000000E+00
  0.00000000E+00  0.00000000E+00  0.00000000E+00
  0.00000000E+00  0.00000000E+00  0.00000000E+00
  0.00000000E+00  0.00000000E+00  0.00000000E+00
  0.00000000E+00  0.00000000E+00  0.00000000E+00
  0.00000000E+00  0.00000000E+00  0.00000000E+00
  0.00000000E+00  0.00000000E+00  0.00000000E+00
  0.00000000E+00  0.00000000E+00  0.00000000E+00
  0.00000000E+00  0.00000000E+00  0.00000000E+00
  0.00000000E+00  0.00000000E+00  0.00000000E+00
  0.00000000E+00  0.00000000E+00  0.00000000E+00
  0.00000000E+00  0.00000000E+00  0.00000000E+00
  0.00000000E+00  0.00000000E+00  0.00000000E+00
  0.00000000E+00  0.00000000E+00  0.00000000E+00
  0.00000000E+00  0.00000000E+00  0.00000000E+00
  0.00000000E+00  0.00000000E+00  0.00000000E+00
  0.00000000E+00  0.00000000E+00  0.00000000E+00
  0.00000000E+00  0.00000000E+00  0.00000000E+00
  0.00000000E+00  0.00000000E+00  0.00000000E+00
  0.00000000E+00  0.00000000E+00  0.00000000E+00
  0.00000000E+00  0.00000000E+00  0.00000000E+00
  0.00000000E+00  0.00000000E+00  0.00000000E+00
  0.00000000E+00  0.00000000E+00  0.00000000E+00
  0.00000000E+00  0.00000000E+00  0.00000000E+00
  0.00000000E+00  0.00000000E+00  0.00000000E+00
  0.00000000E+00  0.00000000E+00  0.00000000E+00
  0.00000000E+00  0.00000000E+00  0.00000000E+00
  0.00000000E+00  0.00000000E+00  0.00000000E+00
  0.00000000E+00  0.00000000E+00  0.00000000E+00
  0.00000000E+00  0.00000000E+00  0.00000000E+00
  0.00000000E+00  0.00000000E+00  0.00000000E+00