Rh                                      
   1.00000000000000     
    10.6386000000000003    0.0000000000000000    0.0000000000000007
    -5.3192999999999993    9.2132978607011307    0.0000000000000007
     0.0000000000000000    0.0000000000000000   21.5148000000000010
   Rh   C    O 
    64     1     1
Selective dynamics
Direct
  0.9999994000000001  0.0000005999999999  0.9987502999999975   F   F   F
  0.3333362999999991  0.1666669999999968  0.1014054999999985   F   F   F
  0.1663306607344783  0.3326052122399271  0.2009271293102257   T   T   T
 -0.0000429430880561 -0.0002477455799564  0.3040356497594000   T   T   T
  0.2499994000000001  0.0000005999999999  0.9987502999999975   F   F   F
  0.0833330000000032  0.1666669999999968  0.1014054999999985   F   F   F
  0.4166046764401767  0.3335167502164949  0.2012723326201151   T   T   T
  0.2499264260617143 -0.0008776805976687  0.3036045482818072   T   T   T
  0.2499994000000001  0.2500005999999999  0.9987502999999975   F   F   F
  0.0833330000000032  0.4166669999999968  0.1014054999999985   F   F   F
  0.4166061718912688  0.0829156037488754  0.2012702867389320   T   T   T
  0.2499074103224871  0.2502623862120136  0.3036071805947823   T   T   T
  0.9999994000000001  0.2500005999999999  0.9987502999999975   F   F   F
  0.3333362999999991  0.4166669999999968  0.1014054999999985   F   F   F
  0.1664275085913977  0.0831275618265550  0.2012811376105725   T   T   T
  0.0004870363826963  0.2502699871780250  0.3036139211463325   T   T   T
  0.4999994000000001  0.0000005999999999  0.9987502999999975   F   F   F
  0.8333330000000032  0.1666669999999968  0.1014054999999985   F   F   F
  0.6666638118575114  0.3332793191226541  0.2007914918540069   T   T   T
  0.5015247419227904  0.0029365905631219  0.3038998687915949   T   T   T
  0.7499994000000001  0.0000005999999999  0.9987502999999975   F   F   F
  0.5833330000000032  0.1666669999999968  0.1014054999999985   F   F   F
  0.9169774533618007  0.3335108070632284  0.2012765937682374   T   T   T
  0.7493389920930913 -0.0008487928098283  0.3036036727178548   T   T   T
  0.7499994000000001  0.2500005999999999  0.9987502999999975   F   F   F
  0.5833330000000032  0.4166669999999968  0.1014054999999985   F   F   F
  0.9167684640834310  0.0831258948993961  0.2012865284296564   T   T   T
  0.7501141545091858  0.2496439992524848  0.3036620433650692   T   T   T
  0.4999994000000001  0.2500005999999999  0.9987502999999975   F   F   F
  0.8333330000000032  0.4166669999999968  0.1014054999999985   F   F   F
  0.6663732604714587  0.0829208828418667  0.2012738696758656   T   T   T
  0.4996468879510416  0.2496264934860581  0.3036643580507218   T   T   T
  0.9999994000000001  0.5000005999999999  0.9987502999999975   F   F   F
  0.3333362999999991  0.6666637000000009  0.1014054999999985   F   F   F
  0.1663866645307094  0.8335452501176951  0.2009795349075865   T   T   T
 -0.0032322864457741  0.4982228251547805  0.3038912084178339   T   T   T
  0.2499994000000001  0.5000005999999999  0.9987502999999975   F   F   F
  0.0833330000000032  0.6666637000000009  0.1014054999999985   F   F   F
  0.4164141776788907  0.8327652096884079  0.2018210530118912   T   T   T
  0.2491000903665742  0.4980497164133466  0.3078862199252052   T   T   T
  0.2499994000000001  0.7500005999999999  0.9987502999999975   F   F   F
  0.0833330000000032  0.9166669999999968  0.1014054999999985   F   F   F
  0.4164371443703586  0.5835013900354433  0.2017724800892279   T   T   T
  0.2491928649989488  0.7504486076120294  0.3080868742184953   T   T   T
  0.9999994000000001  0.7500005999999999  0.9987502999999975   F   F   F
  0.3333362999999991  0.9166669999999968  0.1014054999999985   F   F   F
  0.1671394349712767  0.5835104529702103  0.2017846068036549   T   T   T
  0.0006209153877425  0.7498939754982668  0.3036241014859556   T   T   T
  0.4999994000000001  0.5000005999999999  0.9987502999999975   F   F   F
  0.8333330000000032  0.6666637000000009  0.1014054999999985   F   F   F
  0.6672503840093388  0.8335680224893729  0.2009702465120601   T   T   T
  0.5016241964210957  0.4981954827852315  0.3038837596736480   T   T   T
  0.7499994000000001  0.5000005999999999  0.9987502999999975   F   F   F
  0.5833330000000032  0.6666637000000009  0.1014054999999985   F   F   F
  0.9167636826392711  0.8334737695929484  0.2012962806662883   T   T   T
  0.7501727371285962  0.5001699764839577  0.3036555453352960   T   T   T
  0.7499994000000001  0.7500005999999999  0.9987502999999975   F   F   F
  0.5833330000000032  0.9166669999999968  0.1014054999999985   F   F   F
  0.9170027484190043  0.5833368601370348  0.2012627795324965   T   T   T
  0.7494690493980002  0.7498833108147480  0.3036229162799308   T   T   T
  0.4999994000000001  0.7500005999999999  0.9987502999999975   F   F   F
  0.8333330000000032  0.9166669999999968  0.1014054999999985   F   F   F
  0.6663992774626423  0.5833223993627024  0.2012625179991109   T   T   T
  0.5015434707894760  0.7505212727878291  0.3080080372796151   T   T   T
  0.3331394809096286  0.6653707603413969  0.3731718622993269   T   T   T
  0.3330987674441849  0.6649262544278612  0.4287800747844425   T   T   T
 
  0.00000000E+00  0.00000000E+00  0.00000000E+00
  0.00000000E+00  0.00000000E+00  0.00000000E+00
  0.00000000E+00  0.00000000E+00  0.00000000E+00
  0.00000000E+00  0.00000000E+00  0.00000000E+00
  0.00000000E+00  0.00000000E+00  0.00000000E+00
  0.00000000E+00  0.00000000E+00  0.00000000E+00
  0.00000000E+00  0.00000000E+00  0.00000000E+00
  0.00000000E+00  0.00000000E+00  0.00000000E+00
  0.00000000E+00  0.00000000E+00  0.00000000E+00
  0.00000000E+00  0.00000000E+00  0.00000000E+00
  0.00000000E+00  0.00000000E+00  0.00000000E+00
  0.00000000E+00  0.00000000E+00  0.00000000E+00
  0.00000000E+00  0.00000000E+00  0.00000000E+00
  0.00000000E+00  0.00000000E+00  0.00000000E+00
  0.00000000E+00  0.00000000E+00  0.00000000E+00
  0.00000000E+00  0.00000000E+00  0.00000000E+00
  0.00000000E+00  0.00000000E+00  0.00000000E+00
  0.00000000E+00  0.00000000E+00  0.00000000E+00
  0.00000000E+00  0.00000000E+00  0.00000000E+00
  0.00000000E+00  0.00000000E+00  0.00000000E+00
  0.00000000E+00  0.00000000E+00  0.00000000E+00
  0.00000000E+00  0.00000000E+00  0.00000000E+00
  0.00000000E+00  0.00000000E+00  0.00000000E+00
  0.00000000E+00  0.00000000E+00  0.00000000E+00
  0.00000000E+00  0.00000000E+00  0.00000000E+00
  0.00000000E+00  0.00000000E+00  0.00000000E+00
  0.00000000E+00  0.00000000E+00  0.00000000E+00
  0.00000000E+00  0.00000000E+00  0.00000000E+00
  0.00000000E+00  0.00000000E+00  0.00000000E+00
  0.00000000E+00  0.00000000E+00  0.00000000E+00
  0.00000000E+00  0.00000000E+00  0.00000000E+00
  0.00000000E+00  0.00000000E+00  0.00000000E+00
  0.00000000E+00  0.00000000E+00  0.00000000E+00
  0.00000000E+00  0.00000000E+00  0.00000000E+00
  0.00000000E+00  0.00000000E+00  0.00000000E+00
  0.00000000E+00  0.00000000E+00  0.00000000E+00
  0.00000000E+00  0.00000000E+00  0.00000000E+00
  0.00000000E+00  0.00000000E+00  0.00000000E+00
  0.00000000E+00  0.00000000E+00  0.00000000E+00
  0.00000000E+00  0.00000000E+00  0.00000000E+00
  0.00000000E+00  0.00000000E+00  0.00000000E+00
  0.00000000E+00  0.00000000E+00  0.00000000E+00
  0.00000000E+00  0.00000000E+00  0.00000000E+00
  0.00000000E+00  0.00000000E+00  0.00000000E+00
  0.00000000E+00  0.00000000E+00  0.00000000E+00
  0.00000000E+00  0.00000000E+00  0.00000000E+00
  0.00000000E+00  0.00000000E+00  0.00000000E+00
  0.00000000E+00  0.00000000E+00  0.00000000E+00
  0.00000000E+00  0.00000000E+00  0.00000000E+00
  0.00000000E+00  0.00000000E+00  0.00000000E+00
  0.00000000E+00  0.00000000E+00  0.00000000E+00
  0.00000000E+00  0.00000000E+00  0.00000000E+00
  0.00000000E+00  0.00000000E+00  0.00000000E+00
  0.00000000E+00  0.00000000E+00  0.00000000E+00
  0.00000000E+00  0.00000000E+00  0.00000000E+00
  0.00000000E+00  0.00000000E+00  0.00000000E+00
  0.00000000E+00  0.00000000E+00  0.00000000E+00
  0.00000000E+00  0.00000000E+00  0.00000000E+00
  0.00000000E+00  0.00000000E+00  0.00000000E+00
  0.00000000E+00  0.00000000E+00  0.00000000E+00
  0.00000000E+00  0.00000000E+00  0.00000000E+00
  0.00000000E+00  0.00000000E+00  0.00000000E+00
  0.00000000E+00  0.00000000E+00  0.00000000E+00
  0.00000000E+00  0.00000000E+00  0.00000000E+00
  0.00000000E+00  0.00000000E+00  0.00000000E+00
  0.00000000E+00  0.00000000E+00  0.00000000E+00
