Nb                                      
   1.00000000000000     
    13.0459995269999993    0.0000000000000000    0.0000000000000000
     0.0000000000000000    9.2249002457000007    0.0000000000000000
     0.0000000000000000    0.0000000000000000   16.9186992644999989
   Nb   H 
    64     1
Selective dynamics
Direct
  0.0000000000000000  0.2500000000000000  0.0000000000000000   F   F   F
  0.0000000000000000  0.0000000000000000  0.1363100000000017   F   F   F
  0.0000708763845870  0.2494387198124814  0.2734725731931101   T   T   T
  0.0001247002295236  0.0042289854729401  0.4068517507939544   T   T   T
  0.1250000000000000  0.0000000000000000  0.0000000000000000   F   F   F
  0.1250000000000000  0.2500000000000000  0.1363100000000017   F   F   F
  0.1254858557930323 -0.0006264285000808  0.2739315705858735   T   T   T
  0.1259489053923979  0.2488606663877968  0.4080086365303537   T   T   T
  0.2500000000000000  0.2500000000000000  0.0000000000000000   F   F   F
  0.2500000000000000  0.0000000000000000  0.1363100000000017   F   F   F
  0.2500451611234867  0.2502242422681467  0.2739533822628635   T   T   T
  0.2509523905818213 -0.0006787253242776  0.4077353980626988   T   T   T
  0.3750000000000000  0.0000000000000000  0.0000000000000000   F   F   F
  0.3750000000000000  0.2500000000000000  0.1363100000000017   F   F   F
  0.3753691175897355  0.0002334203858688  0.2737622617566856   T   T   T
  0.3744852914613355  0.2512298729860183  0.4080611807043473   T   T   T
  0.5000000000000000  0.2500000000000000  0.0000000000000000   F   F   F
  0.5000000000000000  0.0000000000000000  0.1363100000000017   F   F   F
  0.5001422605247374  0.2508672397552745  0.2741090392054864   T   T   T
  0.5001735153688431  0.0011976346617386  0.4081139192126996   T   T   T
  0.6250000000000000  0.0000000000000000  0.0000000000000000   F   F   F
  0.6250000000000000  0.2500000000000000  0.1363100000000017   F   F   F
  0.6247674451103723  0.0003893621659743  0.2737521252444223   T   T   T
  0.6257079292534251  0.2511759433493907  0.4080472829915984   T   T   T
  0.7500000000000000  0.2500000000000000  0.0000000000000000   F   F   F
  0.7500000000000000  0.0000000000000000  0.1363100000000017   F   F   F
  0.7498989127202003  0.2502047289677978  0.2739530917724880   T   T   T
  0.7493331264533476 -0.0006824523071667  0.4077211853796005   T   T   T
  0.8750000000000000  0.0000000000000000  0.0000000000000000   F   F   F
  0.8750000000000000  0.2500000000000000  0.1363100000000017   F   F   F
  0.8746328393254854 -0.0008159944409046  0.2739434933524952   T   T   T
  0.8742080495424147  0.2488486115674164  0.4080057865313214   T   T   T
  0.0000000000000000  0.7500000000000000  0.0000000000000000   F   F   F
  0.0000000000000000  0.5000000000000000  0.1363100000000017   F   F   F
  0.0000516286111418  0.7508936499878589  0.2750194999280654   T   T   T
  0.0001361815783760  0.4969764143559160  0.4066916717551585   T   T   T
  0.1250000000000000  0.5000000000000000  0.0000000000000000   F   F   F
  0.1250000000000000  0.7500000000000000  0.1363100000000017   F   F   F
  0.1252170188776205  0.5000967755476800  0.2740417994126139   T   T   T
  0.1246534764750927  0.7527987183074084  0.4099811042100577   T   T   T
  0.2500000000000000  0.7500000000000000  0.0000000000000000   F   F   F
  0.2500000000000000  0.5000000000000000  0.1363100000000017   F   F   F
  0.2504254936406665  0.7505650425703093  0.2731612818336340   T   T   T
  0.2496811835462119  0.4994277366586122  0.4075896380061749   T   T   T
  0.3750000000000000  0.5000000000000000  0.0000000000000000   F   F   F
  0.3750000000000000  0.7500000000000000  0.1363100000000017   F   F   F
  0.3748781466931436  0.5007139539386223  0.2741381569411860   T   T   T
  0.3750651679557743  0.7518647953605230  0.4079712344743704   T   T   T
  0.5000000000000000  0.7500000000000000  0.0000000000000000   F   F   F
  0.5000000000000000  0.5000000000000000  0.1363100000000017   F   F   F
  0.4999391673657932  0.7509143501521096  0.2740779875848677   T   T   T
  0.5001814869564317  0.5009376102806465  0.4071751477501085   T   T   T
  0.6250000000000000  0.5000000000000000  0.0000000000000000   F   F   F
  0.6250000000000000  0.7500000000000000  0.1363100000000017   F   F   F
  0.6252666189021735  0.5005365216930283  0.2741367727347075   T   T   T
  0.6250687266401509  0.7517785918253312  0.4079691692585288   T   T   T
  0.7500000000000000  0.7500000000000000  0.0000000000000000   F   F   F
  0.7500000000000000  0.5000000000000000  0.1363100000000017   F   F   F
  0.7497788696800213  0.7505383933298166  0.2732694026709345   T   T   T
  0.7506285690059255  0.4993506263642422  0.4075821765915524   T   T   T
  0.8750000000000000  0.5000000000000000  0.0000000000000000   F   F   F
  0.8750000000000000  0.7500000000000000  0.1363100000000017   F   F   F
  0.8749089954368354  0.5001751120251241  0.2740128595194904   T   T   T
  0.8755225796562001  0.7527650946434827  0.4099641504139299   T   T   T
  0.0000410785420812  0.6805583634026003  0.4716658215137500   T   T   T
 
  0.00000000E+00  0.00000000E+00  0.00000000E+00
  0.00000000E+00  0.00000000E+00  0.00000000E+00
  0.00000000E+00  0.00000000E+00  0.00000000E+00
  0.00000000E+00  0.00000000E+00  0.00000000E+00
  0.00000000E+00  0.00000000E+00  0.00000000E+00
  0.00000000E+00  0.00000000E+00  0.00000000E+00
  0.00000000E+00  0.00000000E+00  0.00000000E+00
  0.00000000E+00  0.00000000E+00  0.00000000E+00
  0.00000000E+00  0.00000000E+00  0.00000000E+00
  0.00000000E+00  0.00000000E+00  0.00000000E+00
  0.00000000E+00  0.00000000E+00  0.00000000E+00
  0.00000000E+00  0.00000000E+00  0.00000000E+00
  0.00000000E+00  0.00000000E+00  0.00000000E+00
  0.00000000E+00  0.00000000E+00  0.00000000E+00
  0.00000000E+00  0.00000000E+00  0.00000000E+00
  0.00000000E+00  0.00000000E+00  0.00000000E+00
  0.00000000E+00  0.00000000E+00  0.00000000E+00
  0.00000000E+00  0.00000000E+00  0.00000000E+00
  0.00000000E+00  0.00000000E+00  0.00000000E+00
  0.00000000E+00  0.00000000E+00  0.00000000E+00
  0.00000000E+00  0.00000000E+00  0.00000000E+00
  0.00000000E+00  0.00000000E+00  0.00000000E+00
  0.00000000E+00  0.00000000E+00  0.00000000E+00
  0.00000000E+00  0.00000000E+00  0.00000000E+00
  0.00000000E+00  0.00000000E+00  0.00000000E+00
  0.00000000E+00  0.00000000E+00  0.00000000E+00
  0.00000000E+00  0.00000000E+00  0.00000000E+00
  0.00000000E+00  0.00000000E+00  0.00000000E+00
  0.00000000E+00  0.00000000E+00  0.00000000E+00
  0.00000000E+00  0.00000000E+00  0.00000000E+00
  0.00000000E+00  0.00000000E+00  0.00000000E+00
  0.00000000E+00  0.00000000E+00  0.00000000E+00
  0.00000000E+00  0.00000000E+00  0.00000000E+00
  0.00000000E+00  0.00000000E+00  0.00000000E+00
  0.00000000E+00  0.00000000E+00  0.00000000E+00
  0.00000000E+00  0.00000000E+00  0.00000000E+00
  0.00000000E+00  0.00000000E+00  0.00000000E+00
  0.00000000E+00  0.00000000E+00  0.00000000E+00
  0.00000000E+00  0.00000000E+00  0.00000000E+00
  0.00000000E+00  0.00000000E+00  0.00000000E+00
  0.00000000E+00  0.00000000E+00  0.00000000E+00
  0.00000000E+00  0.00000000E+00  0.00000000E+00
  0.00000000E+00  0.00000000E+00  0.00000000E+00
  0.00000000E+00  0.00000000E+00  0.00000000E+00
  0.00000000E+00  0.00000000E+00  0.00000000E+00
  0.00000000E+00  0.00000000E+00  0.00000000E+00
  0.00000000E+00  0.00000000E+00  0.00000000E+00
  0.00000000E+00  0.00000000E+00  0.00000000E+00
  0.00000000E+00  0.00000000E+00  0.00000000E+00
  0.00000000E+00  0.00000000E+00  0.00000000E+00
  0.00000000E+00  0.00000000E+00  0.00000000E+00
  0.00000000E+00  0.00000000E+00  0.00000000E+00
  0.00000000E+00  0.00000000E+00  0.00000000E+00
  0.00000000E+00  0.00000000E+00  0.00000000E+00
  0.00000000E+00  0.00000000E+00  0.00000000E+00
  0.00000000E+00  0.00000000E+00  0.00000000E+00
  0.00000000E+00  0.00000000E+00  0.00000000E+00
  0.00000000E+00  0.00000000E+00  0.00000000E+00
  0.00000000E+00  0.00000000E+00  0.00000000E+00
  0.00000000E+00  0.00000000E+00  0.00000000E+00
  0.00000000E+00  0.00000000E+00  0.00000000E+00
  0.00000000E+00  0.00000000E+00  0.00000000E+00
  0.00000000E+00  0.00000000E+00  0.00000000E+00
  0.00000000E+00  0.00000000E+00  0.00000000E+00
  0.00000000E+00  0.00000000E+00  0.00000000E+00
