Ni_O                                    
   1.00000000000000     
     9.8292000000000002    0.0000000000000000    0.0000000000000000
     4.9146000000000001    8.5123370000000005    0.0000000000000000
     0.0000000000000000    0.0000000000000000   33.0127999999999986
   Ni   O    O    H    C    O 
    64     3    30    60     1     2
Direct
  0.8290442899999988  0.5878593999999993  0.1232090299999982
  0.3277711499999967  0.0828260500000013  0.1239152799999985
  0.8193819899999966  0.0891859899999972  0.1236577299999979
  0.3293406299999972  0.5917067199999977  0.1179075699999999
  0.5840770699999993  0.8303633299999973  0.1204693999999975
  0.8175679000000002  0.8337413699999985  0.1224972199999996
  0.0695133799999965  0.3400501699999978  0.1248502899999977
  0.8175088099999996  0.3439038200000013  0.1223114399999972
  0.5835329900000019  0.5870484599999983  0.1232701599999970
  0.0834908499999969  0.5878385299999991  0.1214021099999982
  0.0665594999999968  0.0880024800000001  0.1231843899999987
  0.5712144499999994  0.0856744299999974  0.1234444199999984
  0.3281686699999966  0.8299845700000006  0.1219355300000018
  0.0720690300000015  0.8317963300000031  0.1205729699999978
  0.3221896399999977  0.3311714499999994  0.1238853799999973
  0.5803563199999999  0.3299838200000025  0.1221196600000027
  0.9087231399999993  0.6793377300000003  0.1797308000000015
  0.9040620700000019  0.4148001200000024  0.1839479300000022
  0.6652991400000019  0.6765147699999972  0.1863598899999985
  0.1506995700000004  0.1723485899999986  0.1846097999999969
  0.9020501999999979  0.1630443600000007  0.1853997099999987
  0.9057039300000014  0.9213938999999982  0.1830799299999981
  0.4067668799999993  0.9242878599999997  0.1842861399999975
  0.3957312300000027  0.1752742199999986  0.1843740999999994
  0.6531621600000008  0.1605824900000030  0.1863943000000035
  0.1601389799999993  0.6786184700000035  0.1829273399999991
  0.4161261100000004  0.6619149500000034  0.1831613399999981
  0.4069937800000005  0.4146857699999984  0.1829195500000012
  0.6439224599999989  0.9205289000000008  0.1886534100000006
  0.1489820700000024  0.4334812800000023  0.1855526000000012
  0.6554360000000017  0.4109991199999996  0.1843818299999995
  0.1621959300000029  0.9155022799999983  0.1832885600000012
  0.9759329600000015  0.2588481100000024  0.2490064200000006
  0.4810161099999988  0.2589968699999972  0.2512619199999975
  0.9829688900000022  0.7535488899999976  0.2404981199999980
  0.4853823600000027  0.7537726700000036  0.2451866600000017
  0.7366535299999981  0.7597313400000019  0.2494806199999999
  0.9767221700000022  0.5083627799999988  0.2419221500000006
  0.7259061299999985  0.5008211700000018  0.2434619300000023
  0.2197658700000034  0.0117585300000016  0.2421354900000026
  0.9801507500000000  0.0017938900000019  0.2431251499999973
  0.4838126499999973  0.0070237700000035  0.2491810400000034
  0.2341176799999971  0.7714439599999992  0.2441342600000027
  0.7335005999999993  0.9983268599999988  0.2471121199999970
  0.2226157300000011  0.2706509200000013  0.2472800700000022
  0.7247990799999968  0.2570238899999993  0.2448175000000035
  0.2262032000000005  0.5212341599999988  0.2479531500000007
  0.4796446900000007  0.5077224899999990  0.2441195600000015
  0.9970724699999991  0.2558556700000025  0.0591330299999981
  0.4999618000000012  0.2500875799999989  0.0594854499999968
  0.9968841600000005  0.7476992100000004  0.0595123700000002
  0.5054474800000008  0.7476858799999988  0.0599706799999993
  0.7507219800000016  0.7486395099999967  0.0599869200000001
  0.9979410799999968  0.5014025600000025  0.0599954500000024
  0.7507273000000012  0.5014379099999999  0.0601539399999993
  0.2484077399999975  0.9989653599999997  0.0601723600000028
  0.0026835399999996  0.9989392600000002  0.0602141099999969
  0.5037179199999997  0.9979203099999978  0.0602187799999996
  0.2483221499999999  0.7533767700000027  0.0603571799999969
  0.7484137000000004  0.9978805399999970  0.0603965999999971
  0.2473094699999976  0.2543786700000013  0.0604625599999977
  0.7483561800000018  0.2543461500000035  0.0604678400000012
  0.2472921999999969  0.4989472700000022  0.0606285499999970
  0.5037960499999983  0.4989156800000032  0.0606926999999970
  0.3164670299999983  0.0772477399999971  0.2807152399999993
  0.8243569899999983  0.0772167000000010  0.2827978299999998
  0.3145499399999991  0.6051223099999987  0.2795990700000033
  0.5236889299999987  0.1707201299999994  0.5943105300000013
  0.4940935400000015  0.0663488799999996  0.4806363800000000
  0.4484043599999978  0.8042579999999973  0.4700704899999977
  0.1445450399999970  0.9423583600000001  0.4794592399999971
  0.9657927100000023  0.2949815099999995  0.3131257499999975
  0.3144527400000001  0.1731038499999968  0.5477843000000036
  0.7773443000000029  0.7369806700000012  0.3100138100000009
  0.2406213699999995  0.7160338899999985  0.3577034500000025
  0.5690424399999969  0.8146414799999988  0.3952135899999973
  0.6779396800000015  0.1896138399999998  0.4640832199999991
  0.2502731000000011  0.5087500100000000  0.5133936000000006
  0.7727682100000024  0.8897705099999982  0.5770912400000014
  0.6212867599999967  0.5904075199999994  0.5225804299999979
  0.7146986200000001  0.9708006600000019  0.3628685500000017
  0.9334441900000030  0.8999251400000006  0.4328238599999992
  0.3366308900000021  0.5166798300000011  0.4244742899999991
  0.0101630699999973  0.5161002199999984  0.3537337899999997
  0.4870567500000007  0.7433288699999991  0.3072580500000015
  0.1086405799999994  0.2780352400000012  0.4814311000000018
  0.9427868599999982  0.5352409699999967  0.4287145899999985
  0.6477319199999982  0.7901620100000031  0.6334267299999965
  0.1768673799999974  0.8041167900000019  0.5572512800000027
  0.3180698999999976  0.2469991299999990  0.4205600900000022
  0.0126914599999992  0.0486005100000000  0.3504442699999970
  0.6720890200000014  0.4510394899999994  0.3410463499999992
  0.5553720400000017  0.3676760800000025  0.5406424800000025
  0.8676368699999983  0.6562832600000021  0.5159191500000020
  0.4206790900000001  0.8230754800000000  0.5792902800000022
  0.6621230000000011  0.4356476600000008  0.4281018399999965
  0.2942292099999975  0.0560525499999969  0.3604400400000003
  0.4921443400000030  0.1901171599999998  0.6221934900000008
  0.4268860999999973  0.1942961199999971  0.5784135800000030
  0.4383039900000014  0.1383821699999999  0.5035845499999994
  0.5816401499999984  0.0886386999999971  0.4742321599999997
  0.3274211499999993  0.8677087599999993  0.4701762500000015
  0.4841079099999988  0.8838157200000012  0.4776205499999975
  0.0573812499999988  0.9477912600000025  0.4649859800000016
  0.1407851700000009  0.9037599700000030  0.5055029600000012
  0.9976718400000024  0.1956305799999996  0.3294963499999994
  0.0245582599999992  0.3444891999999982  0.3248453400000031
  0.2162610299999983  0.2248690699999969  0.5292912000000030
  0.3363267399999970  0.0674623299999979  0.5556867800000020
  0.8599103600000007  0.6411458199999984  0.3216357000000016
  0.7736678200000000  0.8256144200000008  0.3291382099999964
  0.2277646100000013  0.6727089600000014  0.3312415899999976
  0.3220055600000009  0.7407663299999996  0.3515912399999976
  0.4783354200000005  0.8856125900000009  0.3789295199999998
  0.5423921499999977  0.8271024399999973  0.4237517899999972
  0.6891721200000021  0.2542252499999975  0.4437033800000023
  0.6508711399999996  0.2456950799999973  0.4912435900000034
  0.2127145700000028  0.6114975400000020  0.5254175800000027
  0.2415078800000003  0.5244578799999999  0.4841852599999967
  0.6875653099999965  0.9775164200000006  0.5635042600000020
  0.8190423499999966  0.8065903600000013  0.5568581400000028
  0.5511510700000031  0.6586764400000007  0.4999511199999986
  0.6183288300000029  0.4977806200000003  0.5262861499999971
  0.6460029100000000  0.9470598699999968  0.3799692699999966
  0.6464719200000033  0.0698444300000034  0.3482743799999994
  0.9500250399999999  0.8603503100000012  0.4056307299999986
  0.8327642599999976  0.9970722799999976  0.4388656599999976
  0.4513714799999988  0.4714110399999996  0.4292086399999988
  0.3169490800000005  0.5819704999999971  0.4009922500000016
  0.1248979499999976  0.4754899799999990  0.3469787499999981
  0.9929104799999990  0.5140969099999992  0.3850993000000003
  0.5381846699999997  0.8057264199999992  0.3137890200000015
  0.5685142900000031  0.6311657099999977  0.3163192600000002
  0.0986379400000033  0.1821546199999986  0.4820699400000024
  0.1738634299999973  0.2722853400000034  0.4586107499999983
  0.9192414400000004  0.6092886400000026  0.4498928599999985
  0.9605339399999977  0.4422652700000000  0.4423265400000034
  0.6853640799999994  0.8423723000000010  0.6164964800000021
  0.7085042499999972  0.6789819099999974  0.6294974500000023
  0.2559161399999965  0.8217861199999987  0.5726865099999969
  0.0803304699999998  0.8633199499999975  0.5722693199999966
  0.3948803700000028  0.1900580900000008  0.4424479500000018
  0.3284346499999984  0.3441124200000019  0.4172551200000001
  0.0970529700000000  0.9369133800000000  0.3549328900000006
  0.9521237700000000  0.0342009100000027  0.3290932299999980
  0.6374427000000011  0.3738808299999974  0.3360892399999997
  0.7895827299999993  0.3868169200000011  0.3322616800000020
  0.4445092200000005  0.4024343900000034  0.5317162799999977
  0.5724771599999983  0.2989217399999973  0.5651695000000032
  0.8029373500000005  0.6102279999999993  0.5238803399999981
  0.9741259199999988  0.5679280199999965  0.5147107900000023
  0.4848538000000033  0.8233449100000030  0.6005212299999982
  0.4970429999999979  0.7428974099999976  0.5578378499999985
  0.6825976000000011  0.5240366000000023  0.4355862399999992
  0.6867605600000033  0.4201043300000009  0.3983089399999997
  0.3153350600000024  0.1335176600000025  0.3731032600000006
  0.2937209400000000  0.0712149900000014  0.3297459099999998
  0.4262287600000008  0.2937768999999975  0.3074608499999982
  0.2794849200000016  0.3525224199999997  0.3094614500000006
  0.5228965000000017  0.2717321200000029  0.3330206600000025
 
  0.00000000E+00  0.00000000E+00  0.00000000E+00
  0.00000000E+00  0.00000000E+00  0.00000000E+00
  0.00000000E+00  0.00000000E+00  0.00000000E+00
  0.00000000E+00  0.00000000E+00  0.00000000E+00
  0.00000000E+00  0.00000000E+00  0.00000000E+00
  0.00000000E+00  0.00000000E+00  0.00000000E+00
  0.00000000E+00  0.00000000E+00  0.00000000E+00
  0.00000000E+00  0.00000000E+00  0.00000000E+00
  0.00000000E+00  0.00000000E+00  0.00000000E+00
  0.00000000E+00  0.00000000E+00  0.00000000E+00
  0.00000000E+00  0.00000000E+00  0.00000000E+00
  0.00000000E+00  0.00000000E+00  0.00000000E+00
  0.00000000E+00  0.00000000E+00  0.00000000E+00
  0.00000000E+00  0.00000000E+00  0.00000000E+00
  0.00000000E+00  0.00000000E+00  0.00000000E+00
  0.00000000E+00  0.00000000E+00  0.00000000E+00
  0.00000000E+00  0.00000000E+00  0.00000000E+00
  0.00000000E+00  0.00000000E+00  0.00000000E+00
  0.00000000E+00  0.00000000E+00  0.00000000E+00
  0.00000000E+00  0.00000000E+00  0.00000000E+00
  0.00000000E+00  0.00000000E+00  0.00000000E+00
  0.00000000E+00  0.00000000E+00  0.00000000E+00
  0.00000000E+00  0.00000000E+00  0.00000000E+00
  0.00000000E+00  0.00000000E+00  0.00000000E+00
  0.00000000E+00  0.00000000E+00  0.00000000E+00
  0.00000000E+00  0.00000000E+00  0.00000000E+00
  0.00000000E+00  0.00000000E+00  0.00000000E+00
  0.00000000E+00  0.00000000E+00  0.00000000E+00
  0.00000000E+00  0.00000000E+00  0.00000000E+00
  0.00000000E+00  0.00000000E+00  0.00000000E+00
  0.00000000E+00  0.00000000E+00  0.00000000E+00
  0.00000000E+00  0.00000000E+00  0.00000000E+00
  0.00000000E+00  0.00000000E+00  0.00000000E+00
  0.00000000E+00  0.00000000E+00  0.00000000E+00
  0.00000000E+00  0.00000000E+00  0.00000000E+00
  0.00000000E+00  0.00000000E+00  0.00000000E+00
  0.00000000E+00  0.00000000E+00  0.00000000E+00
  0.00000000E+00  0.00000000E+00  0.00000000E+00
  0.00000000E+00  0.00000000E+00  0.00000000E+00
  0.00000000E+00  0.00000000E+00  0.00000000E+00
  0.00000000E+00  0.00000000E+00  0.00000000E+00
  0.00000000E+00  0.00000000E+00  0.00000000E+00
  0.00000000E+00  0.00000000E+00  0.00000000E+00
  0.00000000E+00  0.00000000E+00  0.00000000E+00
  0.00000000E+00  0.00000000E+00  0.00000000E+00
  0.00000000E+00  0.00000000E+00  0.00000000E+00
  0.00000000E+00  0.00000000E+00  0.00000000E+00
  0.00000000E+00  0.00000000E+00  0.00000000E+00
  0.00000000E+00  0.00000000E+00  0.00000000E+00
  0.00000000E+00  0.00000000E+00  0.00000000E+00
  0.00000000E+00  0.00000000E+00  0.00000000E+00
  0.00000000E+00  0.00000000E+00  0.00000000E+00
  0.00000000E+00  0.00000000E+00  0.00000000E+00
  0.00000000E+00  0.00000000E+00  0.00000000E+00
  0.00000000E+00  0.00000000E+00  0.00000000E+00
  0.00000000E+00  0.00000000E+00  0.00000000E+00
  0.00000000E+00  0.00000000E+00  0.00000000E+00
  0.00000000E+00  0.00000000E+00  0.00000000E+00
  0.00000000E+00  0.00000000E+00  0.00000000E+00
  0.00000000E+00  0.00000000E+00  0.00000000E+00
  0.00000000E+00  0.00000000E+00  0.00000000E+00
  0.00000000E+00  0.00000000E+00  0.00000000E+00
  0.00000000E+00  0.00000000E+00  0.00000000E+00
  0.00000000E+00  0.00000000E+00  0.00000000E+00
  0.00000000E+00  0.00000000E+00  0.00000000E+00
  0.00000000E+00  0.00000000E+00  0.00000000E+00
  0.00000000E+00  0.00000000E+00  0.00000000E+00
  0.00000000E+00  0.00000000E+00  0.00000000E+00
  0.00000000E+00  0.00000000E+00  0.00000000E+00
  0.00000000E+00  0.00000000E+00  0.00000000E+00
  0.00000000E+00  0.00000000E+00  0.00000000E+00
  0.00000000E+00  0.00000000E+00  0.00000000E+00
  0.00000000E+00  0.00000000E+00  0.00000000E+00
  0.00000000E+00  0.00000000E+00  0.00000000E+00
  0.00000000E+00  0.00000000E+00  0.00000000E+00
  0.00000000E+00  0.00000000E+00  0.00000000E+00
  0.00000000E+00  0.00000000E+00  0.00000000E+00
  0.00000000E+00  0.00000000E+00  0.00000000E+00
  0.00000000E+00  0.00000000E+00  0.00000000E+00
  0.00000000E+00  0.00000000E+00  0.00000000E+00
  0.00000000E+00  0.00000000E+00  0.00000000E+00
  0.00000000E+00  0.00000000E+00  0.00000000E+00
  0.00000000E+00  0.00000000E+00  0.00000000E+00
  0.00000000E+00  0.00000000E+00  0.00000000E+00
  0.00000000E+00  0.00000000E+00  0.00000000E+00
  0.00000000E+00  0.00000000E+00  0.00000000E+00
  0.00000000E+00  0.00000000E+00  0.00000000E+00
  0.00000000E+00  0.00000000E+00  0.00000000E+00
  0.00000000E+00  0.00000000E+00  0.00000000E+00
  0.00000000E+00  0.00000000E+00  0.00000000E+00
  0.00000000E+00  0.00000000E+00  0.00000000E+00
  0.00000000E+00  0.00000000E+00  0.00000000E+00
  0.00000000E+00  0.00000000E+00  0.00000000E+00
  0.00000000E+00  0.00000000E+00  0.00000000E+00
  0.00000000E+00  0.00000000E+00  0.00000000E+00
  0.00000000E+00  0.00000000E+00  0.00000000E+00
  0.00000000E+00  0.00000000E+00  0.00000000E+00
  0.00000000E+00  0.00000000E+00  0.00000000E+00
  0.00000000E+00  0.00000000E+00  0.00000000E+00
  0.00000000E+00  0.00000000E+00  0.00000000E+00
  0.00000000E+00  0.00000000E+00  0.00000000E+00
  0.00000000E+00  0.00000000E+00  0.00000000E+00
  0.00000000E+00  0.00000000E+00  0.00000000E+00
  0.00000000E+00  0.00000000E+00  0.00000000E+00
  0.00000000E+00  0.00000000E+00  0.00000000E+00
  0.00000000E+00  0.00000000E+00  0.00000000E+00
  0.00000000E+00  0.00000000E+00  0.00000000E+00
  0.00000000E+00  0.00000000E+00  0.00000000E+00
  0.00000000E+00  0.00000000E+00  0.00000000E+00
  0.00000000E+00  0.00000000E+00  0.00000000E+00
  0.00000000E+00  0.00000000E+00  0.00000000E+00
  0.00000000E+00  0.00000000E+00  0.00000000E+00
  0.00000000E+00  0.00000000E+00  0.00000000E+00
  0.00000000E+00  0.00000000E+00  0.00000000E+00
  0.00000000E+00  0.00000000E+00  0.00000000E+00
  0.00000000E+00  0.00000000E+00  0.00000000E+00
  0.00000000E+00  0.00000000E+00  0.00000000E+00
  0.00000000E+00  0.00000000E+00  0.00000000E+00
  0.00000000E+00  0.00000000E+00  0.00000000E+00
  0.00000000E+00  0.00000000E+00  0.00000000E+00
  0.00000000E+00  0.00000000E+00  0.00000000E+00
  0.00000000E+00  0.00000000E+00  0.00000000E+00
  0.00000000E+00  0.00000000E+00  0.00000000E+00
  0.00000000E+00  0.00000000E+00  0.00000000E+00
  0.00000000E+00  0.00000000E+00  0.00000000E+00
  0.00000000E+00  0.00000000E+00  0.00000000E+00
  0.00000000E+00  0.00000000E+00  0.00000000E+00
  0.00000000E+00  0.00000000E+00  0.00000000E+00
  0.00000000E+00  0.00000000E+00  0.00000000E+00
  0.00000000E+00  0.00000000E+00  0.00000000E+00
  0.00000000E+00  0.00000000E+00  0.00000000E+00
  0.00000000E+00  0.00000000E+00  0.00000000E+00
  0.00000000E+00  0.00000000E+00  0.00000000E+00
  0.00000000E+00  0.00000000E+00  0.00000000E+00
  0.00000000E+00  0.00000000E+00  0.00000000E+00
  0.00000000E+00  0.00000000E+00  0.00000000E+00
  0.00000000E+00  0.00000000E+00  0.00000000E+00
  0.00000000E+00  0.00000000E+00  0.00000000E+00
  0.00000000E+00  0.00000000E+00  0.00000000E+00
  0.00000000E+00  0.00000000E+00  0.00000000E+00
  0.00000000E+00  0.00000000E+00  0.00000000E+00
  0.00000000E+00  0.00000000E+00  0.00000000E+00
  0.00000000E+00  0.00000000E+00  0.00000000E+00
  0.00000000E+00  0.00000000E+00  0.00000000E+00
  0.00000000E+00  0.00000000E+00  0.00000000E+00
  0.00000000E+00  0.00000000E+00  0.00000000E+00
  0.00000000E+00  0.00000000E+00  0.00000000E+00
  0.00000000E+00  0.00000000E+00  0.00000000E+00
  0.00000000E+00  0.00000000E+00  0.00000000E+00
  0.00000000E+00  0.00000000E+00  0.00000000E+00
  0.00000000E+00  0.00000000E+00  0.00000000E+00
  0.00000000E+00  0.00000000E+00  0.00000000E+00
  0.00000000E+00  0.00000000E+00  0.00000000E+00
  0.00000000E+00  0.00000000E+00  0.00000000E+00
  0.00000000E+00  0.00000000E+00  0.00000000E+00
  0.00000000E+00  0.00000000E+00  0.00000000E+00
  0.00000000E+00  0.00000000E+00  0.00000000E+00
  0.00000000E+00  0.00000000E+00  0.00000000E+00
  0.00000000E+00  0.00000000E+00  0.00000000E+00
  0.00000000E+00  0.00000000E+00  0.00000000E+00
