 Ni\(1\1\1)                             
   1.00000000000000     
     9.8291997910000006    0.0000000000000000    0.0000000000000000
     4.9145998955000003    8.5123367178000002    0.0000000000000000
     0.0000000000000000    0.0000000000000000   33.0128002167000005
   Ni   O    O    H 
    64     3    30    60
Selective dynamics
Direct
  0.8397911402430898  0.5878707043059143  0.1220752180884256   T   T   T
  0.3207524080328762  0.0901224695636690  0.1227720198523606   T   T   T
  0.8341466959489786  0.0914162938437695  0.1227435535829978   T   T   T
  0.3348783109929089  0.5768971680347315  0.1215846388219047   T   T   T
  0.5743383847561608  0.8414476323740543  0.1255168681327092   T   T   T
  0.8320458720632061  0.8502044337554779  0.1207009098305536   T   T   T
  0.0766196552716401  0.3398545062831328  0.1243685567974509   T   T   T
  0.8277594827549780  0.3343751915220537  0.1222616893494229   T   T   T
  0.5841635132459853  0.5891014004160650  0.1237307306147367   T   T   T
  0.0784006565316503  0.5962759679459436  0.1266582300006449   T   T   T
  0.0782656710219923  0.0825728752647159  0.1211861772315245   T   T   T
  0.5757748740349345  0.0923465819859360  0.1232943078075574   T   T   T
  0.3330312259966520  0.8407260487640428  0.1216658252777852   T   T   T
  0.0842981745355573  0.8404778856066243  0.1229266669292801   T   T   T
  0.3181767570698369  0.3494431550021818  0.1249904802617891   T   T   T
  0.5779664235242925  0.3364811945021929  0.1252293861936992   T   T   T
  0.9169468001219980  0.6653574846577406  0.1839858331619565   T   T   T
  0.8997630977024270  0.4225378450758719  0.1843482302463081   T   T   T
  0.6661759750408549  0.6719381169096913  0.1818930354554543   T   T   T
  0.1566469922613676  0.1703356452427650  0.1869528398296678   T   T   T
  0.9162402342276067  0.1603036382786015  0.1832465041776801   T   T   T
  0.9084981476611854  0.9278026648169386  0.1847629189893089   T   T   T
  0.4053397514205938  0.9258571467510696  0.1826738343329400   T   T   T
  0.3926574397982205  0.1776776082451328  0.1851487986232933   T   T   T
  0.6614688794870794  0.1798431473667629  0.1874392013849349   T   T   T
  0.1679762916934300  0.6699041841521746  0.1841515668036063   T   T   T
  0.4146406326207366  0.6707057395846200  0.1842282220945367   T   T   T
  0.4029738723998150  0.4152649985924007  0.1845317090692989   T   T   T
  0.6706496009449950  0.9175707986349555  0.1836417744772593   T   T   T
  0.1653684356182883  0.4111259491568354  0.1907797299924194   T   T   T
  0.6532876116557472  0.4316887125425153  0.1918919395159396   T   T   T
  0.1653884531487276  0.9111058685118988  0.1893106809063526   T   T   T
  0.9951074877443764  0.2529963347696309  0.2447941792889157   T   T   T
  0.4923891448144935  0.2596175598005555  0.2514681187488790   T   T   T
  0.0024498191584952  0.7476372524621040  0.2450057968927382   T   T   T
  0.5012779766526251  0.7506089508718724  0.2431456583483447   T   T   T
  0.7520319944496080  0.7564048722700222  0.2453723088721194   T   T   T
  0.9862837857955268  0.5121900287319239  0.2542747525255383   T   T   T
  0.7442847244372826  0.5058989605086802  0.2509754246010810   T   T   T
  0.2528947415496119  0.9918631728987399  0.2496702212301592   T   T   T
  0.0030322371701475  0.9961430298037116  0.2545443050850523   T   T   T
  0.5129233024490537  0.9865591818966307  0.2454438667719554   T   T   T
  0.2486363749678790  0.7544892636306878  0.2474102364835444   T   T   T
  0.7476193393057164  0.9959887210666989  0.2490031258250601   T   T   T
  0.2515116022031022  0.2333405041684228  0.2510000412937266   T   T   T
  0.7485317175604349  0.2396519898632354  0.2503913585890047   T   T   T
  0.2393657397715670  0.4980831581051929  0.2485416056255158   T   T   T
  0.4872823740915027  0.5084199882957450  0.2474078381970179   T   T   T
  0.9970724666754620  0.2558556730310926  0.0591330299999981   F   F   F
  0.4999617994073233  0.2500875833011236  0.0594854499999968   F   F   F
  0.9968841634502041  0.7476992072800570  0.0595123729999969   F   F   F
  0.5054474787370111  0.7476858751006858  0.0599706819999994   F   F   F
  0.7507219768486166  0.7486395117188209  0.0599869240000004   F   F   F
  0.9979410792479300  0.5014025590734690  0.0599954460000021   F   F   F
  0.7507272959160147  0.5014379058895102  0.0601539399999993   F   F   F
  0.2484077360003596  0.9989653641424212  0.0601723560000025   F   F   F
  0.0026835401693219  0.9989392601468481  0.0602141139999972   F   F   F
  0.5037179195970367  0.9979203075034633  0.0602187790000031   F   F   F
  0.2483221526645849  0.7533767732178518  0.0603571819999971   F   F   F
  0.7484137013454841  0.9978805352280915  0.0603965990000006   F   F   F
  0.2473094733631029  0.2543786677836692  0.0604625579999976   F   F   F
  0.7483561822084468  0.2543461498031050  0.0604678369999974   F   F   F
  0.2472921951577476  0.4989472698041553  0.0606285479999968   F   F   F
  0.5037960521228442  0.4989156761291298  0.0606927010000007   F   F   F
  0.3567871777636833  0.0503703171735278  0.2829378051761541   T   T   T
  0.8273515229836256  0.0613797145343200  0.2897290782419185   T   T   T
  0.3231077987976482  0.5903430383987406  0.2840356314961902   T   T   T
  0.0935374329823416  0.2238227956255350  0.5992262002273626   T   T   T
  0.9811762156351952  0.4633794198353089  0.4273836655657143   T   T   T
  0.1543064428056551  0.1104400026964769  0.3520127579196973   T   T   T
  0.8408649983872474  0.2764199116299838  0.4295609742888526   T   T   T
  0.4883627385408396  0.2458199226941725  0.3175001972826590   T   T   T
  0.0037581468198154  0.5041131302612554  0.5104180772831534   T   T   T
  0.9586470211666175  0.5512538046184423  0.3212837865837542   T   T   T
  0.9758199329874582  0.8050001311623409  0.3455906168829623   T   T   T
  0.4965342565262795  0.7845563988365881  0.3311459237796761   T   T   T
  0.5859963608137044  0.5956657477905117  0.5338617766431091   T   T   T
  0.5432700644472738  0.7576434937204485  0.4289911968042402   T   T   T
  0.3099689718516284  0.9130475045543638  0.5548814186685641   T   T   T
  0.2005976944104444  0.1447259331966090  0.4924143165636404   T   T   T
  0.7337147625825959  0.4987617145193110  0.3155911516376421   T   T   T
  0.3914676846844740  0.3652411451585042  0.5238342236712037   T   T   T
  0.2163800127281402  0.9389063002685589  0.4281508862491490   T   T   T
  0.3145437923392866  0.6567599393397890  0.3596690013888388   T   T   T
  0.3119790021499974  0.4848614686976045  0.4235376042488172   T   T   T
  0.6850671487566201  0.7966834479159211  0.4887289644752730   T   T   T
  0.4161574149734621  0.1888957585245614  0.4329800668071332   T   T   T
  0.1087600511943764  0.7919354407968421  0.5434898407156405   T   T   T
  0.8795237374468136  0.3309162092632976  0.5365701994255102   T   T   T
  0.5523238862421547  0.5015844877214743  0.4556503048831239   T   T   T
  0.6287015063107042  0.0987377533318612  0.4886607192364333   T   T   T
  0.5487609409554619  0.9964502215024965  0.3641187452720923   T   T   T
  0.1043163428995153  0.7454371881077001  0.4600785787981962   T   T   T
  0.8275294102071428  0.8413372288838095  0.4178308034631365   T   T   T
  0.8968347460053493  0.0887255730928913  0.4925038830002720   T   T   T
  0.7289475137278165  0.2658963542763686  0.3507414077945627   T   T   T
  0.1935063927037894  0.3515516984326826  0.3548318824927185   T   T   T
  0.1639093155114162  0.1080562310973017  0.5951147348013092   T   T   T
  0.1253708172186553  0.2636771198029695  0.5772950402121538   T   T   T
  0.0124327709220582  0.4740560085889696  0.4564352796243968   T   T   T
  0.0644574662223207  0.4618703015682572  0.4098433472349702   T   T   T
  0.1894197954921427  0.0394775811546657  0.3284034888031657   T   T   T
  0.1898118785822087  0.0486055374180716  0.3771938083574324   T   T   T
  0.8779391448385989  0.1903224784171239  0.4497769644215492   T   T   T
  0.9092890368045912  0.3235903816763113  0.4333967064712321   T   T   T
  0.5318192673963776  0.1347287222213628  0.3295161789693424   T   T   T
  0.5544428042594592  0.2806318565128900  0.3296964522490899   T   T   T
  0.9304222960088182  0.6184760353788396  0.5089961782216328   T   T   T
  0.9297961249909323  0.4657861637653751  0.5204815343401193   T   T   T
  0.0627741529964096  0.4633760590052096  0.3335262488674062   T   T   T
  0.9538578823919516  0.6542049616928067  0.3289284944594930   T   T   T
  0.9362259671703713  0.8964974144002272  0.3272228459156243   T   T   T
  0.9240798511132746  0.8355679057321206  0.3733335854288027   T   T   T
  0.4216140581898623  0.7544686044732274  0.3415542930665935   T   T   T
  0.5891051898306324  0.6850470336527582  0.3233838192638028   T   T   T
  0.6959121845518759  0.5019440340247394  0.5411886168253408   T   T   T
  0.5572313957263977  0.5613786353126302  0.5090649178174298   T   T   T
  0.6041224958683025  0.7901647814949712  0.4490979853666749   T   T   T
  0.5903014794536425  0.7497948416977496  0.4039693203237914   T   T   T
  0.2806252963457128  0.9898496976914799  0.5323031619818129   T   T   T
  0.4248173975975560  0.8221718436806130  0.5500521660503032   T   T   T
  0.2863618634217711  0.1135017930226985  0.4730108364768609   T   T   T
  0.1625393724337097  0.0787051762052454  0.4797101612807505   T   T   T
  0.7227307167617461  0.4099608157097450  0.3297115552533526   T   T   T
  0.8242992287499809  0.5104663449074772  0.3263182049878052   T   T   T
  0.2925735483747187  0.3802579987633425  0.5144299793932184   T   T   T
  0.3840773793590331  0.4670435135949003  0.5271636565764377   T   T   T
  0.1831732634313674  0.8663632981031859  0.4390876080824490   T   T   T
  0.3326767779476026  0.8777028343684760  0.4249323667865084   T   T   T
  0.3238851432476907  0.6211163451396025  0.3307274572188555   T   T   T
  0.2000633617111615  0.7320179391742182  0.3599432532519105   T   T   T
  0.3109194188003147  0.5201231042684215  0.3959113372389927   T   T   T
  0.3898727057748858  0.5169200465952781  0.4323591352150228   T   T   T
  0.6509104865748194  0.9142265229216043  0.4940418195094222   T   T   T
  0.6515762267337625  0.7504831470505809  0.5095219419250830   T   T   T
  0.4666320704906544  0.1168058093617756  0.4091407698404753   T   T   T
  0.3693573423544517  0.3072991989875294  0.4295732095550095   T   T   T
  0.1918425449146154  0.8199132063808519  0.5480098828504559   T   T   T
  0.0974324268181685  0.7383574388062026  0.5681567395218812   T   T   T
  0.9292636099256584  0.2805844146482503  0.5627233803522134   T   T   T
  0.8724235630039421  0.2500290775099587  0.5212640523192053   T   T   T
  0.6576278022362513  0.4063429715811572  0.4495888964468170   T   T   T
  0.5480323937808198  0.5990202653672443  0.4451134096347208   T   T   T
  0.5415745087456725  0.1288296635461623  0.4672158731701503   T   T   T
  0.5541470225977787  0.1855000629646866  0.5064389917617204   T   T   T
  0.6530303317268292  0.9573283265045979  0.3722602553251281   T   T   T
  0.5319373121706340  0.9150201634344386  0.3492329483288965   T   T   T
  0.1523206772882346  0.6399929083666455  0.4448819204448726   T   T   T
  0.1258481065246135  0.7149885060196606  0.4899576092788620   T   T   T
  0.8771843955184422  0.8673717280903286  0.4416129004014561   T   T   T
  0.8511779405113309  0.7363535609148100  0.4243756281503454   T   T   T
  0.7896765388968563  0.0907053525968886  0.4905310514728898   T   T   T
  0.9841218391138277  0.9882356949345550  0.5044480776406534   T   T   T
  0.7898200413919223  0.2504073061432617  0.3763603256254278   T   T   T
  0.7839070819387532  0.1784415886280477  0.3288329225327174   T   T   T
  0.2883863132677726  0.3140272187663695  0.3371930900426155   T   T   T
  0.1784500114281895  0.2593950825512191  0.3553723405731521   T   T   T
 
 -0.53344937E-03  0.20474204E-02  0.35884129E-03
 -0.15925813E-02  0.22126392E-02 -0.26270463E-02
 -0.11755888E-02  0.17216493E-02 -0.18146290E-02
  0.20293486E-02 -0.82956414E-03 -0.19921830E-02
  0.18496485E-02  0.29260663E-03  0.25544939E-02
 -0.12677566E-02 -0.11237865E-02  0.19690598E-02
  0.16851676E-02  0.18508536E-03 -0.50149049E-03
  0.21006004E-02 -0.37238531E-02  0.23065793E-02
  0.73440208E-03 -0.32599193E-04 -0.10460912E-02
 -0.53220227E-03 -0.43771348E-03 -0.52006975E-04
  0.75766120E-03  0.25085537E-02 -0.37933167E-02
  0.42946156E-03 -0.35685927E-02  0.82190006E-03
 -0.17874734E-02  0.48458867E-03 -0.17253459E-02
 -0.53337053E-03 -0.23247376E-02 -0.39052245E-03
 -0.92795942E-03  0.13197176E-02 -0.31692971E-02
 -0.45037442E-02 -0.30771880E-02 -0.11074862E-02
 -0.22687549E-02 -0.12230359E-03 -0.55318544E-03
 -0.18584373E-02  0.16325928E-03 -0.17807751E-02
  0.15248707E-02  0.37086664E-02 -0.16784775E-02
  0.28198059E-02 -0.63165521E-03 -0.62871364E-03
 -0.20449726E-02 -0.10247284E-02 -0.20330510E-02
  0.10523172E-02  0.18600894E-02  0.68798148E-03
  0.50726646E-03  0.20625530E-02  0.21072728E-02
  0.80702892E-04  0.64180296E-02 -0.97703567E-03
  0.20616839E-02  0.74615935E-03  0.19483260E-02
 -0.11588608E-02 -0.25891928E-02  0.14718510E-03
 -0.48013172E-03 -0.21453831E-02 -0.27498652E-02
 -0.51892355E-02  0.16396513E-03 -0.15186608E-04
  0.12235319E-02 -0.13334551E-02  0.15374675E-02
  0.64520205E-03 -0.22127132E-02 -0.33359906E-02
 -0.44823508E-02  0.25803577E-02 -0.59313781E-02
  0.17209683E-03  0.12419719E-02  0.26588213E-03
 -0.15903895E-02 -0.95146780E-03  0.15329636E-02
 -0.20499607E-02  0.38294836E-03 -0.39042316E-03
  0.87671562E-03  0.73789379E-04  0.24454065E-02
  0.25517064E-02  0.34673321E-02  0.91071977E-03
  0.86302761E-03 -0.52192450E-03  0.73432322E-03
 -0.31467119E-03  0.29430212E-02 -0.25661435E-02
  0.92716173E-03  0.43726439E-02 -0.26197404E-02
 -0.20664477E-02 -0.91801310E-03  0.25637752E-02
  0.10325915E-03  0.23489821E-02 -0.12277672E-02
  0.25825074E-02 -0.85725900E-03  0.21023460E-02
 -0.11507928E-02  0.65278711E-03 -0.75902812E-03
  0.71457135E-03  0.13558533E-02 -0.20943755E-02
  0.66145415E-03  0.23633432E-02 -0.16410504E-03
  0.46143826E-03 -0.53831605E-03 -0.13758660E-02
 -0.10805168E-03  0.36136407E-03 -0.53487540E-02
 -0.14131635E-03  0.36386879E-02  0.55467109E-03
  0.00000000E+00  0.00000000E+00  0.00000000E+00
  0.00000000E+00  0.00000000E+00  0.00000000E+00
  0.00000000E+00  0.00000000E+00  0.00000000E+00
  0.00000000E+00  0.00000000E+00  0.00000000E+00
  0.00000000E+00  0.00000000E+00  0.00000000E+00
  0.00000000E+00  0.00000000E+00  0.00000000E+00
  0.00000000E+00  0.00000000E+00  0.00000000E+00
  0.00000000E+00  0.00000000E+00  0.00000000E+00
  0.00000000E+00  0.00000000E+00  0.00000000E+00
  0.00000000E+00  0.00000000E+00  0.00000000E+00
  0.00000000E+00  0.00000000E+00  0.00000000E+00
  0.00000000E+00  0.00000000E+00  0.00000000E+00
  0.00000000E+00  0.00000000E+00  0.00000000E+00
  0.00000000E+00  0.00000000E+00  0.00000000E+00
  0.00000000E+00  0.00000000E+00  0.00000000E+00
  0.00000000E+00  0.00000000E+00  0.00000000E+00
 -0.84572427E-03  0.48665692E-02  0.27372298E-02
 -0.19405933E-02 -0.26179822E-02 -0.10962525E-02
 -0.77288516E-02  0.40804573E-03 -0.18040278E-02
 -0.53816625E-02 -0.19138709E-02 -0.57821670E-02
 -0.83766120E-02  0.37924611E-02 -0.15242796E-02
 -0.64661366E-02 -0.73105294E-02 -0.25010927E-02
  0.34559947E-02  0.52549026E-02  0.11535112E-02
  0.51921917E-03  0.62051389E-02 -0.36882621E-02
  0.28893663E-02  0.47678273E-02  0.25705005E-02
  0.10047520E-02 -0.45319941E-02 -0.57817995E-02
  0.21715356E-03 -0.12635589E-02 -0.46087947E-02
 -0.10501529E-02 -0.27385415E-02  0.61257527E-03
 -0.98693216E-03 -0.50892441E-02  0.11142395E-02
  0.79532021E-02 -0.65575550E-03 -0.48720433E-02
  0.31739324E-02 -0.16474707E-02 -0.10808903E-02
  0.35075403E-02  0.63061256E-03  0.11178086E-02
  0.34612313E-02  0.11406725E-02  0.15954791E-02
 -0.82932228E-03 -0.23138442E-02  0.26343007E-02
  0.19104677E-02 -0.85993129E-02  0.41963083E-02
 -0.29707832E-02  0.51856029E-02 -0.19508208E-02
  0.37669720E-02 -0.25491820E-02 -0.54807213E-02
 -0.24071117E-02  0.48707408E-02 -0.34322249E-02
  0.51936834E-02  0.38597563E-02 -0.13101597E-02
  0.28566807E-02  0.78575279E-02 -0.53535913E-02
 -0.90035694E-04 -0.91127893E-02 -0.44337626E-02
  0.21117145E-02  0.43527809E-02  0.48403834E-02
 -0.15579435E-02  0.15534192E-02  0.39757293E-02
  0.56298555E-02  0.44050668E-02 -0.22974688E-02
  0.20153689E-02  0.40335478E-02  0.68446816E-02
  0.57763911E-03 -0.88759081E-04 -0.30692125E-03
 -0.92722524E-03  0.25958830E-02 -0.39528647E-02
  0.77362441E-02 -0.95509866E-03 -0.60613225E-02
  0.15367290E-02 -0.14339066E-02  0.18449743E-02
  0.18790508E-01 -0.41608558E-02 -0.82602181E-02
 -0.35343575E-01  0.87313167E-02 -0.13569024E-01
  0.12687356E-01  0.20274762E-01  0.37899795E-02
 -0.13385162E-01  0.15361494E-01  0.45380004E-02
 -0.12887454E-01 -0.12207447E-01 -0.22292290E-02
 -0.67086128E-03  0.23172899E-01 -0.14228123E-01
 -0.10828909E-01  0.35068048E-01  0.64908684E-02
 -0.11179105E-01  0.28271459E-02  0.23091100E-01
 -0.45629951E-02  0.15613531E-01 -0.15191739E-01
 -0.11831300E-01 -0.23471687E-01 -0.60915182E-02
 -0.20143987E-01  0.19692757E-02 -0.48578561E-02
  0.10241741E-01 -0.22925391E-02  0.59203372E-02
 -0.22937164E-01 -0.71489798E-02  0.45850326E-02
  0.73428997E-02  0.14755195E-01 -0.53238742E-02
 -0.28466009E-01  0.15265129E-01 -0.26591110E-01
 -0.26982442E-01 -0.68022368E-02  0.30004482E-02
  0.19368233E-01 -0.29817981E-01  0.31537180E-01
 -0.20620086E-01 -0.16911157E-01  0.77562157E-02
  0.20344455E-01 -0.36067327E-01 -0.16012566E-01
 -0.15203764E-02  0.20270544E-01  0.21317728E-01
  0.15409611E-01  0.13161081E-01  0.62628067E-02
 -0.17143172E-01 -0.95408671E-02  0.28389088E-01
  0.13193367E-01 -0.61817790E-02 -0.34236990E-02
  0.31606997E-01 -0.61034557E-02 -0.13710960E-02
 -0.16276873E-02 -0.69404791E-02 -0.17382633E-01
  0.91392766E-02 -0.16468549E-01  0.59804386E-02
  0.80611390E-02  0.45529786E-03  0.94639136E-02
 -0.22274421E-01 -0.92480990E-02 -0.14367656E-01
  0.15019869E-02  0.28767355E-01  0.21445713E-01
 -0.23042558E-01  0.13242861E-01  0.15445159E-01
  0.22243196E-01 -0.18187348E-01 -0.14163228E-02
 -0.20282675E-01 -0.55479189E-02 -0.93533032E-02
 -0.14583618E-01 -0.46105210E-02  0.21334117E-01
  0.79276462E-02 -0.30017852E-02  0.10404925E-01
  0.11702586E-01 -0.28852012E-01 -0.34702263E-02
 -0.11536869E-01 -0.54115360E-02  0.87693133E-02
 -0.29680528E-01  0.17400029E-01 -0.44979098E-02
 -0.28671329E-02  0.18458132E-01  0.33786375E-02
 -0.62926760E-02  0.10053605E-01 -0.85161806E-02
 -0.24699690E-01  0.80635949E-02 -0.13898076E-01
  0.53855008E-02  0.19011081E-02 -0.12362573E-01
 -0.69296020E-02 -0.40068481E-02  0.20125866E-01
 -0.16369150E-01 -0.13931102E-01  0.22181513E-01
 -0.24071388E-01  0.30005437E-01  0.23227203E-01
  0.14193421E-02 -0.27765421E-01  0.27201143E-02
  0.28236463E-02 -0.25824290E-01 -0.93567001E-02
 -0.22761089E-01  0.28983707E-02 -0.22793572E-01
  0.73661395E-02 -0.11117045E-01  0.18922269E-01
 -0.16147282E-01 -0.27552654E-02 -0.28708493E-01
  0.18725839E-01  0.33058201E-01  0.11290006E-01
 -0.24725453E-02  0.61832367E-02 -0.24598055E-01
  0.85506213E-02  0.40457975E-01 -0.48494310E-03
 -0.75467154E-02 -0.79985806E-02  0.13131312E-01
  0.97197761E-02  0.63365629E-02  0.24732541E-01
  0.18480292E-01  0.56447873E-04 -0.64506968E-02
 -0.21767787E-02 -0.11209568E-01 -0.23997989E-02
 -0.81616276E-02  0.15350453E-01 -0.16515383E-02
  0.16126831E-01 -0.87904392E-02 -0.12621797E-01
  0.84841796E-02 -0.38396490E-01  0.14403379E-01
  0.15182478E-02  0.29958226E-01  0.41582676E-02
 
           1
   1.00000000000000     
  0.73087400E+00  0.12617026E-01  0.12539052E-01  0.71829596E+00
  0.83979114E+00  0.58787070E+00  0.12207522E+00
  0.32075241E+00  0.90122470E-01  0.12277202E+00
  0.83414670E+00  0.91416294E-01  0.12274355E+00
  0.33487831E+00  0.57689717E+00  0.12158464E+00
  0.57433838E+00  0.84144763E+00  0.12551687E+00
  0.83204587E+00  0.85020443E+00  0.12070091E+00
  0.76619655E-01  0.33985451E+00  0.12436856E+00
  0.82775948E+00  0.33437519E+00  0.12226169E+00
  0.58416351E+00  0.58910140E+00  0.12373073E+00
  0.78400657E-01  0.59627597E+00  0.12665823E+00
  0.78265671E-01  0.82572875E-01  0.12118618E+00
  0.57577487E+00  0.92346582E-01  0.12329431E+00
  0.33303123E+00  0.84072605E+00  0.12166583E+00
  0.84298175E-01  0.84047789E+00  0.12292667E+00
  0.31817676E+00  0.34944316E+00  0.12499048E+00
  0.57796642E+00  0.33648119E+00  0.12522939E+00
  0.91694680E+00  0.66535748E+00  0.18398583E+00
  0.89976310E+00  0.42253785E+00  0.18434823E+00
  0.66617598E+00  0.67193812E+00  0.18189304E+00
  0.15664699E+00  0.17033565E+00  0.18695284E+00
  0.91624023E+00  0.16030364E+00  0.18324650E+00
  0.90849815E+00  0.92780266E+00  0.18476292E+00
  0.40533975E+00  0.92585715E+00  0.18267383E+00
  0.39265744E+00  0.17767761E+00  0.18514880E+00
  0.66146888E+00  0.17984315E+00  0.18743920E+00
  0.16797629E+00  0.66990418E+00  0.18415157E+00
  0.41464063E+00  0.67070574E+00  0.18422822E+00
  0.40297387E+00  0.41526500E+00  0.18453171E+00
  0.67064960E+00  0.91757080E+00  0.18364177E+00
  0.16536844E+00  0.41112595E+00  0.19077973E+00
  0.65328761E+00  0.43168871E+00  0.19189194E+00
  0.16538845E+00  0.91110587E+00  0.18931068E+00
  0.99510749E+00  0.25299633E+00  0.24479418E+00
  0.49238914E+00  0.25961756E+00  0.25146812E+00
  0.24498192E-02  0.74763725E+00  0.24500580E+00
  0.50127798E+00  0.75060895E+00  0.24314566E+00
  0.75203199E+00  0.75640487E+00  0.24537231E+00
  0.98628379E+00  0.51219003E+00  0.25427475E+00
  0.74428472E+00  0.50589896E+00  0.25097542E+00
  0.25289474E+00  0.99186317E+00  0.24967022E+00
  0.30322372E-02  0.99614303E+00  0.25454431E+00
  0.51292330E+00  0.98655918E+00  0.24544387E+00
  0.24863637E+00  0.75448926E+00  0.24741024E+00
  0.74761934E+00  0.99598872E+00  0.24900313E+00
  0.25151160E+00  0.23334050E+00  0.25100004E+00
  0.74853172E+00  0.23965199E+00  0.25039136E+00
  0.23936574E+00  0.49808316E+00  0.24854161E+00
  0.48728237E+00  0.50841999E+00  0.24740784E+00
  0.99707247E+00  0.25585567E+00  0.59133030E-01
  0.49996180E+00  0.25008758E+00  0.59485450E-01
  0.99688416E+00  0.74769921E+00  0.59512373E-01
  0.50544748E+00  0.74768588E+00  0.59970682E-01
  0.75072198E+00  0.74863951E+00  0.59986924E-01
  0.99794108E+00  0.50140256E+00  0.59995446E-01
  0.75072730E+00  0.50143791E+00  0.60153940E-01
  0.24840774E+00  0.99896536E+00  0.60172356E-01
  0.26835402E-02  0.99893926E+00  0.60214114E-01
  0.50371792E+00  0.99792031E+00  0.60218779E-01
  0.24832215E+00  0.75337677E+00  0.60357182E-01
  0.74841370E+00  0.99788054E+00  0.60396599E-01
  0.24730947E+00  0.25437867E+00  0.60462558E-01
  0.74835618E+00  0.25434615E+00  0.60467837E-01
  0.24729220E+00  0.49894727E+00  0.60628548E-01
  0.50379605E+00  0.49891568E+00  0.60692701E-01
  0.35678718E+00  0.50370317E-01  0.28293781E+00
  0.82735152E+00  0.61379715E-01  0.28972908E+00
  0.32310780E+00  0.59034304E+00  0.28403563E+00
  0.93537433E-01  0.22382280E+00  0.59922620E+00
  0.98117622E+00  0.46337942E+00  0.42738367E+00
  0.15430644E+00  0.11044000E+00  0.35201276E+00
  0.84086500E+00  0.27641991E+00  0.42956097E+00
  0.48836274E+00  0.24581992E+00  0.31750020E+00
  0.37581468E-02  0.50411313E+00  0.51041808E+00
  0.95864702E+00  0.55125380E+00  0.32128379E+00
  0.97581993E+00  0.80500013E+00  0.34559062E+00
  0.49653426E+00  0.78455640E+00  0.33114592E+00
  0.58599636E+00  0.59566575E+00  0.53386178E+00
  0.54327006E+00  0.75764349E+00  0.42899120E+00
  0.30996897E+00  0.91304750E+00  0.55488142E+00
  0.20059769E+00  0.14472593E+00  0.49241432E+00
  0.73371476E+00  0.49876171E+00  0.31559115E+00
  0.39146768E+00  0.36524115E+00  0.52383422E+00
  0.21638001E+00  0.93890630E+00  0.42815089E+00
  0.31454379E+00  0.65675994E+00  0.35966900E+00
  0.31197900E+00  0.48486147E+00  0.42353760E+00
  0.68506715E+00  0.79668345E+00  0.48872896E+00
  0.41615741E+00  0.18889576E+00  0.43298007E+00
  0.10876005E+00  0.79193544E+00  0.54348984E+00
  0.87952374E+00  0.33091621E+00  0.53657020E+00
  0.55232389E+00  0.50158449E+00  0.45565030E+00
  0.62870151E+00  0.98737753E-01  0.48866072E+00
  0.54876094E+00  0.99645022E+00  0.36411875E+00
  0.10431634E+00  0.74543719E+00  0.46007858E+00
  0.82752941E+00  0.84133723E+00  0.41783080E+00
  0.89683475E+00  0.88725573E-01  0.49250388E+00
  0.72894751E+00  0.26589635E+00  0.35074141E+00
  0.19350639E+00  0.35155170E+00  0.35483188E+00
  0.16390932E+00  0.10805623E+00  0.59511473E+00
  0.12537082E+00  0.26367712E+00  0.57729504E+00
  0.12432771E-01  0.47405601E+00  0.45643528E+00
  0.64457466E-01  0.46187030E+00  0.40984335E+00
  0.18941980E+00  0.39477581E-01  0.32840349E+00
  0.18981188E+00  0.48605537E-01  0.37719381E+00
  0.87793914E+00  0.19032248E+00  0.44977696E+00
  0.90928904E+00  0.32359038E+00  0.43339671E+00
  0.53181927E+00  0.13472872E+00  0.32951618E+00
  0.55444280E+00  0.28063186E+00  0.32969645E+00
  0.93042230E+00  0.61847604E+00  0.50899618E+00
  0.92979612E+00  0.46578616E+00  0.52048153E+00
  0.62774153E-01  0.46337606E+00  0.33352625E+00
  0.95385788E+00  0.65420496E+00  0.32892849E+00
  0.93622597E+00  0.89649741E+00  0.32722285E+00
  0.92407985E+00  0.83556791E+00  0.37333359E+00
  0.42161406E+00  0.75446860E+00  0.34155429E+00
  0.58910519E+00  0.68504703E+00  0.32338382E+00
  0.69591218E+00  0.50194403E+00  0.54118862E+00
  0.55723140E+00  0.56137864E+00  0.50906492E+00
  0.60412250E+00  0.79016478E+00  0.44909799E+00
  0.59030148E+00  0.74979484E+00  0.40396932E+00
  0.28062530E+00  0.98984970E+00  0.53230316E+00
  0.42481740E+00  0.82217184E+00  0.55005217E+00
  0.28636186E+00  0.11350179E+00  0.47301084E+00
  0.16253937E+00  0.78705176E-01  0.47971016E+00
  0.72273072E+00  0.40996082E+00  0.32971156E+00
  0.82429923E+00  0.51046634E+00  0.32631820E+00
  0.29257355E+00  0.38025800E+00  0.51442998E+00
  0.38407738E+00  0.46704351E+00  0.52716366E+00
  0.18317326E+00  0.86636330E+00  0.43908761E+00
  0.33267678E+00  0.87770283E+00  0.42493237E+00
  0.32388514E+00  0.62111635E+00  0.33072746E+00
  0.20006336E+00  0.73201794E+00  0.35994325E+00
  0.31091942E+00  0.52012310E+00  0.39591134E+00
  0.38987271E+00  0.51692005E+00  0.43235914E+00
  0.65091049E+00  0.91422652E+00  0.49404182E+00
  0.65157623E+00  0.75048315E+00  0.50952194E+00
  0.46663207E+00  0.11680581E+00  0.40914077E+00
  0.36935734E+00  0.30729920E+00  0.42957321E+00
  0.19184254E+00  0.81991321E+00  0.54800988E+00
  0.97432427E-01  0.73835744E+00  0.56815674E+00
  0.92926361E+00  0.28058441E+00  0.56272338E+00
  0.87242356E+00  0.25002908E+00  0.52126405E+00
  0.65762780E+00  0.40634297E+00  0.44958890E+00
  0.54803239E+00  0.59902027E+00  0.44511341E+00
  0.54157451E+00  0.12882966E+00  0.46721587E+00
  0.55414702E+00  0.18550006E+00  0.50643899E+00
  0.65303033E+00  0.95732833E+00  0.37226026E+00
  0.53193731E+00  0.91502016E+00  0.34923295E+00
  0.15232068E+00  0.63999291E+00  0.44488192E+00
  0.12584811E+00  0.71498851E+00  0.48995761E+00
  0.87718440E+00  0.86737173E+00  0.44161290E+00
  0.85117794E+00  0.73635356E+00  0.42437563E+00
  0.78967654E+00  0.90705353E-01  0.49053105E+00
  0.98412184E+00  0.98823569E+00  0.50444808E+00
  0.78982004E+00  0.25040731E+00  0.37636033E+00
  0.78390708E+00  0.17844159E+00  0.32883292E+00
  0.28838631E+00  0.31402722E+00  0.33719309E+00
  0.17845001E+00  0.25939508E+00  0.35537234E+00
  0.00000000E+00  0.00000000E+00  0.00000000E+00
  0.00000000E+00  0.00000000E+00  0.00000000E+00
  0.00000000E+00  0.00000000E+00  0.00000000E+00
  0.00000000E+00  0.00000000E+00  0.00000000E+00
  0.00000000E+00  0.00000000E+00  0.00000000E+00
  0.00000000E+00  0.00000000E+00  0.00000000E+00
  0.00000000E+00  0.00000000E+00  0.00000000E+00
  0.00000000E+00  0.00000000E+00  0.00000000E+00
  0.00000000E+00  0.00000000E+00  0.00000000E+00
  0.00000000E+00  0.00000000E+00  0.00000000E+00
  0.00000000E+00  0.00000000E+00  0.00000000E+00
  0.00000000E+00  0.00000000E+00  0.00000000E+00
  0.00000000E+00  0.00000000E+00  0.00000000E+00
  0.00000000E+00  0.00000000E+00  0.00000000E+00
  0.00000000E+00  0.00000000E+00  0.00000000E+00
  0.00000000E+00  0.00000000E+00  0.00000000E+00
  0.00000000E+00  0.00000000E+00  0.00000000E+00
  0.00000000E+00  0.00000000E+00  0.00000000E+00
  0.00000000E+00  0.00000000E+00  0.00000000E+00
  0.00000000E+00  0.00000000E+00  0.00000000E+00
  0.00000000E+00  0.00000000E+00  0.00000000E+00
  0.00000000E+00  0.00000000E+00  0.00000000E+00
  0.00000000E+00  0.00000000E+00  0.00000000E+00
  0.00000000E+00  0.00000000E+00  0.00000000E+00
  0.00000000E+00  0.00000000E+00  0.00000000E+00
  0.00000000E+00  0.00000000E+00  0.00000000E+00
  0.00000000E+00  0.00000000E+00  0.00000000E+00
  0.00000000E+00  0.00000000E+00  0.00000000E+00
  0.00000000E+00  0.00000000E+00  0.00000000E+00
  0.00000000E+00  0.00000000E+00  0.00000000E+00
  0.00000000E+00  0.00000000E+00  0.00000000E+00
  0.00000000E+00  0.00000000E+00  0.00000000E+00
  0.00000000E+00  0.00000000E+00  0.00000000E+00
  0.00000000E+00  0.00000000E+00  0.00000000E+00
  0.00000000E+00  0.00000000E+00  0.00000000E+00
  0.00000000E+00  0.00000000E+00  0.00000000E+00
  0.00000000E+00  0.00000000E+00  0.00000000E+00
  0.00000000E+00  0.00000000E+00  0.00000000E+00
  0.00000000E+00  0.00000000E+00  0.00000000E+00
  0.00000000E+00  0.00000000E+00  0.00000000E+00
  0.00000000E+00  0.00000000E+00  0.00000000E+00
  0.00000000E+00  0.00000000E+00  0.00000000E+00
  0.00000000E+00  0.00000000E+00  0.00000000E+00
  0.00000000E+00  0.00000000E+00  0.00000000E+00
  0.00000000E+00  0.00000000E+00  0.00000000E+00
  0.00000000E+00  0.00000000E+00  0.00000000E+00
  0.00000000E+00  0.00000000E+00  0.00000000E+00
  0.00000000E+00  0.00000000E+00  0.00000000E+00
  0.00000000E+00  0.00000000E+00  0.00000000E+00
  0.00000000E+00  0.00000000E+00  0.00000000E+00
  0.00000000E+00  0.00000000E+00  0.00000000E+00
  0.00000000E+00  0.00000000E+00  0.00000000E+00
  0.00000000E+00  0.00000000E+00  0.00000000E+00
  0.00000000E+00  0.00000000E+00  0.00000000E+00
  0.00000000E+00  0.00000000E+00  0.00000000E+00