 Ni\(1\1\1)                             
   1.00000000000000     
     9.8291997910000006    0.0000000000000000    0.0000000000000000
     4.9145998955000003    8.5123367178000002    0.0000000000000000
     0.0000000000000000    0.0000000000000000   19.0128002167000005
   Ni   O    C    H 
    64     2     2     1
Direct
  0.8328894862786900  0.5850936467257054  0.2717531338582290
  0.3328514058742133  0.0845104010832062  0.2707339889907500
  0.8334247235238061  0.0845063828365925  0.2715604449253379
  0.3328522396662718  0.5851973644342592  0.2714430212402042
  0.5830299440813326  0.8348483822999744  0.2713024669104542
  0.8331626899393103  0.8348984197503064  0.2712892578609497
  0.0833522167243951  0.3343240921244970  0.2716884933162869
  0.8332345469586315  0.3340979031693704  0.2719947431844569
  0.5830196555143701  0.5850189751006616  0.2718867650248577
  0.0827722403666319  0.5849018151115556  0.2717156883043723
  0.0833284014451430  0.0847167355679363  0.2712842891987350
  0.5828236927984154  0.0848697081606844  0.2717380178759533
  0.3330162105940261  0.8350805512401479  0.2709872817505267
  0.0830672947395045  0.8349013240284688  0.2714332581817243
  0.3328187962249454  0.3346944468811730  0.2713365688478122
  0.5828747383091074  0.3349922016543370  0.2719681544844458
  0.9166114600163534  0.6662706702284639  0.3775911446777009
  0.9165500246565548  0.4162643873253629  0.3766124851724115
  0.6670644224548906  0.6659840827374615  0.3773609007207741
  0.1661113371361898  0.1670845547615392  0.3771434747296118
  0.9162162611412096  0.1672457815254172  0.3778736312989833
  0.9166079713323121  0.9172465411751671  0.3767781107554838
  0.4167732428505992  0.9165573901615049  0.3765122842589499
  0.4161102666130780  0.1672935912088212  0.3768133053765778
  0.6665736269158625  0.1673918023966146  0.3769447021382610
  0.1669045440432071  0.6664343609077844  0.3767737706684757
  0.4174564601504219  0.6658492839870405  0.3771788531527284
  0.4163635849030907  0.4169981386081968  0.3766013014000917
  0.6664043929042064  0.9170418737429071  0.3765705486957808
  0.1660438630985139  0.4164347486936536  0.3770753850042630
  0.6670123584093917  0.4165826449200498  0.3777782279638239
  0.1666015955899325  0.9169881188859867  0.3767211274202065
  0.0009879746914293  0.2475664189808129  0.4856783484687994
  0.4987166224915649  0.2486063187705785  0.4861394628284137
  0.0006633746476569  0.7488762731363378  0.4828704892194428
  0.4998219453004653  0.7485790544699252  0.4824862808723783
  0.7480015437680098  0.7522325398582662  0.4824298368249818
  0.0008997421117677  0.4987100310581484  0.4862955576735681
  0.7517786751397997  0.5005570554109989  0.4859703061570841
  0.2504026848568093 -0.0017408024222287  0.4824204757786124
  0.0005611567670125 -0.0015298437769337  0.4826191587117714
  0.4999218972449586 -0.0007435793330668  0.4822834202382562
  0.2506200710181331  0.7483383694446281  0.4825703291988542
  0.7522309327770096  0.9951168779477499  0.4823080033232194
  0.2533590294605994  0.2470715411835067  0.4820658231450941
  0.7498928451220735  0.2471138637365946  0.4876382913068814
  0.2462215331051662  0.5008391974669684  0.4823139704963000
  0.4996078494484807  0.4997822407484527  0.4867914650570594
  0.9991353264919712  0.2524365974161383  0.1661631185349551
  0.4995577945402619  0.2522128101430198  0.1662890264552015
 -0.0001943820952913  0.7517803757373931  0.1656361771913907
  0.5000342792275704  0.7516146627384768  0.1658054275321255
  0.7501616284306312  0.7515842405077929  0.1657874989089947
 -0.0005988872471953  0.5021383952885750  0.1661122904805505
  0.7493530910638337  0.5020770640286446  0.1662430166788955
  0.2493653783457701  0.0020671663289166  0.1654255297745564
 -0.0006280373992194  0.0019914280615501  0.1658848433771362
  0.5001451512877476  0.0017941697055442  0.1658372902187266
  0.2494702765882714  0.7518020947444397  0.1656752377543826
  0.7495407338547766  0.0020692339684128  0.1658428445451451
  0.2492228995125469  0.2524569284455878  0.1659168504539372
  0.7494725165796979  0.2523321234725390  0.1665117487373446
  0.2492254392607353  0.5022060276685305  0.1658097154115716
  0.4993592984862638  0.5022132081173392  0.1662336434709052
  0.9185947748399832  0.4123301616028028  0.6185091675675523
  0.5826035640081795  0.3320221048596755  0.6192310624895885
  0.9191486964801187  0.4136075707155919  0.5556471924473321
  0.5815918312293673  0.3298682178014560  0.5493370152269385
  0.4937509253084348  0.3242653245319823  0.6381624580528336
 
  0.00000000E+00  0.00000000E+00  0.00000000E+00
  0.00000000E+00  0.00000000E+00  0.00000000E+00
  0.00000000E+00  0.00000000E+00  0.00000000E+00
  0.00000000E+00  0.00000000E+00  0.00000000E+00
  0.00000000E+00  0.00000000E+00  0.00000000E+00
  0.00000000E+00  0.00000000E+00  0.00000000E+00
  0.00000000E+00  0.00000000E+00  0.00000000E+00
  0.00000000E+00  0.00000000E+00  0.00000000E+00
  0.00000000E+00  0.00000000E+00  0.00000000E+00
  0.00000000E+00  0.00000000E+00  0.00000000E+00
  0.00000000E+00  0.00000000E+00  0.00000000E+00
  0.00000000E+00  0.00000000E+00  0.00000000E+00
  0.00000000E+00  0.00000000E+00  0.00000000E+00
  0.00000000E+00  0.00000000E+00  0.00000000E+00
  0.00000000E+00  0.00000000E+00  0.00000000E+00
  0.00000000E+00  0.00000000E+00  0.00000000E+00
  0.00000000E+00  0.00000000E+00  0.00000000E+00
  0.00000000E+00  0.00000000E+00  0.00000000E+00
  0.00000000E+00  0.00000000E+00  0.00000000E+00
  0.00000000E+00  0.00000000E+00  0.00000000E+00
  0.00000000E+00  0.00000000E+00  0.00000000E+00
  0.00000000E+00  0.00000000E+00  0.00000000E+00
  0.00000000E+00  0.00000000E+00  0.00000000E+00
  0.00000000E+00  0.00000000E+00  0.00000000E+00
  0.00000000E+00  0.00000000E+00  0.00000000E+00
  0.00000000E+00  0.00000000E+00  0.00000000E+00
  0.00000000E+00  0.00000000E+00  0.00000000E+00
  0.00000000E+00  0.00000000E+00  0.00000000E+00
  0.00000000E+00  0.00000000E+00  0.00000000E+00
  0.00000000E+00  0.00000000E+00  0.00000000E+00
  0.00000000E+00  0.00000000E+00  0.00000000E+00
  0.00000000E+00  0.00000000E+00  0.00000000E+00
  0.00000000E+00  0.00000000E+00  0.00000000E+00
  0.00000000E+00  0.00000000E+00  0.00000000E+00
  0.00000000E+00  0.00000000E+00  0.00000000E+00
  0.00000000E+00  0.00000000E+00  0.00000000E+00
  0.00000000E+00  0.00000000E+00  0.00000000E+00
  0.00000000E+00  0.00000000E+00  0.00000000E+00
  0.00000000E+00  0.00000000E+00  0.00000000E+00
  0.00000000E+00  0.00000000E+00  0.00000000E+00
  0.00000000E+00  0.00000000E+00  0.00000000E+00
  0.00000000E+00  0.00000000E+00  0.00000000E+00
  0.00000000E+00  0.00000000E+00  0.00000000E+00
  0.00000000E+00  0.00000000E+00  0.00000000E+00
  0.00000000E+00  0.00000000E+00  0.00000000E+00
  0.00000000E+00  0.00000000E+00  0.00000000E+00
  0.00000000E+00  0.00000000E+00  0.00000000E+00
  0.00000000E+00  0.00000000E+00  0.00000000E+00
  0.00000000E+00  0.00000000E+00  0.00000000E+00
  0.00000000E+00  0.00000000E+00  0.00000000E+00
  0.00000000E+00  0.00000000E+00  0.00000000E+00
  0.00000000E+00  0.00000000E+00  0.00000000E+00
  0.00000000E+00  0.00000000E+00  0.00000000E+00
  0.00000000E+00  0.00000000E+00  0.00000000E+00
  0.00000000E+00  0.00000000E+00  0.00000000E+00
  0.00000000E+00  0.00000000E+00  0.00000000E+00
  0.00000000E+00  0.00000000E+00  0.00000000E+00
  0.00000000E+00  0.00000000E+00  0.00000000E+00
  0.00000000E+00  0.00000000E+00  0.00000000E+00
  0.00000000E+00  0.00000000E+00  0.00000000E+00
  0.00000000E+00  0.00000000E+00  0.00000000E+00
  0.00000000E+00  0.00000000E+00  0.00000000E+00
  0.00000000E+00  0.00000000E+00  0.00000000E+00
  0.00000000E+00  0.00000000E+00  0.00000000E+00
  0.00000000E+00  0.00000000E+00  0.00000000E+00
  0.00000000E+00  0.00000000E+00  0.00000000E+00
  0.00000000E+00  0.00000000E+00  0.00000000E+00
  0.00000000E+00  0.00000000E+00  0.00000000E+00
  0.00000000E+00  0.00000000E+00  0.00000000E+00
