Fe                                      
   1.00000000000000     
    11.2207002639999995    0.0000000000000000    0.0000000000000000
     0.0000000000000000    7.9341998100000000    0.0000000000000000
     0.0000000000000000    0.0000000000000000   15.9506998061999994
   Fe   C    H 
    64     1     2
Selective dynamics
Direct
  0.0000000000000000  0.2500000000000000  0.0000000000000000   F   F   F
  0.2500000000000000  0.2500000000000000  0.0000000000000000   F   F   F
  0.0000000000000000  0.0000000000000000  0.1243600000000029   F   F   F
  0.2500000000000000  0.0000000000000000  0.1243600000000029   F   F   F
  1.0000124398887320  0.2486865315008539  0.2507505660757431   T   T   T
  0.2499052026053600  0.2487330870908654  0.2505488436481396   T   T   T
  0.0000160933558843  1.0000125113632647  0.3742156640931556   T   T   T
  0.2507364774961275  0.9986868803557859  0.3740061385777139   T   T   T
  0.1250000000000000  0.0000000000000000  0.0000000000000000   F   F   F
  0.3750000000000000  0.0000000000000000  0.0000000000000000   F   F   F
  0.1250000000000000  0.2500000000000000  0.1243600000000029   F   F   F
  0.3750000000000000  0.2500000000000000  0.1243600000000029   F   F   F
  0.1249656941993561  0.9990266136508162  0.2503240238723766   T   T   T
  0.3752052258603720  0.9989968430180582  0.2501824386847358   T   T   T
  0.1242502436258681  0.2481759563050648  0.3754988357193491   T   T   T
  0.3753067781990093  0.2480865238800475  0.3748725964462000   T   T   T
  0.5000000000000000  0.2500000000000000  0.0000000000000000   F   F   F
  0.7500000000000000  0.2500000000000000  0.0000000000000000   F   F   F
  0.5000000000000000  0.0000000000000000  0.1243600000000029   F   F   F
  0.7500000000000000  0.0000000000000000  0.1243600000000029   F   F   F
  0.5000088097091359  0.2486585801376458  0.2503935427485265   T   T   T
  0.7501162000599422  0.2487336831402188  0.2505503017954396   T   T   T
  0.5000181960173824  0.9978206702558431  0.3751770442278609   T   T   T
  0.7492960817981679  0.9986866810148498  0.3740061798977571   T   T   T
  0.6250000000000000  0.0000000000000000  0.0000000000000000   F   F   F
  0.8750000000000000  0.0000000000000000  0.0000000000000000   F   F   F
  0.6250000000000000  0.2500000000000000  0.1243600000000029   F   F   F
  0.8750000000000000  0.2500000000000000  0.1243600000000029   F   F   F
  0.6248149808382014  0.9989949527479615  0.2501823026705274   T   T   T
  0.8750573356094082  0.9990281688449308  0.2503255501315870   T   T   T
  0.6247246575934796  0.2480843389222211  0.3748728543014442   T   T   T
  0.8757795874358146  0.2481788308575760  0.3755033154975087   T   T   T
  0.0000000000000000  0.7500000000000000  0.0000000000000000   F   F   F
  0.2500000000000000  0.7500000000000000  0.0000000000000000   F   F   F
  0.0000000000000000  0.5000000000000000  0.1243600000000029   F   F   F
  0.2500000000000000  0.5000000000000000  0.1243600000000029   F   F   F
  1.0000109550783531  0.7485943808813639  0.2497516917437537   T   T   T
  0.2499333563450279  0.7483392290316035  0.2501768445745366   T   T   T
  0.0000178626946914  0.4995819858018147  0.3756684788348479   T   T   T
  0.2505545296035776  0.4981550983267324  0.3749562933490622   T   T   T
  0.1250000000000000  0.5000000000000000  0.0000000000000000   F   F   F
  0.3750000000000000  0.5000000000000000  0.0000000000000000   F   F   F
  0.1250000000000000  0.7500000000000000  0.1243600000000029   F   F   F
  0.3750000000000000  0.7500000000000000  0.1243600000000029   F   F   F
  0.1250527537488776  0.4983280089819470  0.2506415391305013   T   T   T
  0.3751092773415635  0.4983453937653176  0.2503197831225371   T   T   T
  0.1275284319210609  0.7481028262009962  0.3750484711426947   T   T   T
  0.3744210668601667  0.7477272164910584  0.3744440295944357   T   T   T
  0.5000000000000000  0.7500000000000000  0.0000000000000000   F   F   F
  0.7500000000000000  0.7500000000000000  0.0000000000000000   F   F   F
  0.5000000000000000  0.5000000000000000  0.1243600000000029   F   F   F
  0.7500000000000000  0.5000000000000000  0.1243600000000029   F   F   F
  0.5000072460165019  0.7485703836839430  0.2508232164686639   T   T   T
  0.7500879032998620  0.7483371311456190  0.2501812690194568   T   T   T
  0.5000169139404973  0.4981277188172286  0.3750923830957960   T   T   T
  0.7494816141479440  0.4981546890767405  0.3749587109329740   T   T   T
  0.6250000000000000  0.5000000000000000  0.0000000000000000   F   F   F
  0.8750000000000000  0.5000000000000000  0.0000000000000000   F   F   F
  0.6250000000000000  0.7500000000000000  0.1243600000000029   F   F   F
  0.8750000000000000  0.7500000000000000  0.1243600000000029   F   F   F
  0.6249088374783505  0.4983483565046072  0.2503229383687361   T   T   T
  0.8749725063615081  0.4983245127318777  0.2506427092297166   T   T   T
  0.6256122034662711  0.7477296541899717  0.3744446506668275   T   T   T
  0.8725094631864120  0.7481055370137617  0.3750539715997430   T   T   T
  0.0000259915009417  0.8047562053204471  0.4556100953721068   T   T   T
  0.0000529532557403  0.7323246280522301  0.5146191110095109   T   T   T
  0.0000341462568234  0.9430302138095302  0.4817291462796342   T   T   T
 
  0.00000000E+00  0.00000000E+00  0.00000000E+00
  0.00000000E+00  0.00000000E+00  0.00000000E+00
  0.00000000E+00  0.00000000E+00  0.00000000E+00
  0.00000000E+00  0.00000000E+00  0.00000000E+00
  0.00000000E+00  0.00000000E+00  0.00000000E+00
  0.00000000E+00  0.00000000E+00  0.00000000E+00
  0.00000000E+00  0.00000000E+00  0.00000000E+00
  0.00000000E+00  0.00000000E+00  0.00000000E+00
  0.00000000E+00  0.00000000E+00  0.00000000E+00
  0.00000000E+00  0.00000000E+00  0.00000000E+00
  0.00000000E+00  0.00000000E+00  0.00000000E+00
  0.00000000E+00  0.00000000E+00  0.00000000E+00
  0.00000000E+00  0.00000000E+00  0.00000000E+00
  0.00000000E+00  0.00000000E+00  0.00000000E+00
  0.00000000E+00  0.00000000E+00  0.00000000E+00
  0.00000000E+00  0.00000000E+00  0.00000000E+00
  0.00000000E+00  0.00000000E+00  0.00000000E+00
  0.00000000E+00  0.00000000E+00  0.00000000E+00
  0.00000000E+00  0.00000000E+00  0.00000000E+00
  0.00000000E+00  0.00000000E+00  0.00000000E+00
  0.00000000E+00  0.00000000E+00  0.00000000E+00
  0.00000000E+00  0.00000000E+00  0.00000000E+00
  0.00000000E+00  0.00000000E+00  0.00000000E+00
  0.00000000E+00  0.00000000E+00  0.00000000E+00
  0.00000000E+00  0.00000000E+00  0.00000000E+00
  0.00000000E+00  0.00000000E+00  0.00000000E+00
  0.00000000E+00  0.00000000E+00  0.00000000E+00
  0.00000000E+00  0.00000000E+00  0.00000000E+00
  0.00000000E+00  0.00000000E+00  0.00000000E+00
  0.00000000E+00  0.00000000E+00  0.00000000E+00
  0.00000000E+00  0.00000000E+00  0.00000000E+00
  0.00000000E+00  0.00000000E+00  0.00000000E+00
  0.00000000E+00  0.00000000E+00  0.00000000E+00
  0.00000000E+00  0.00000000E+00  0.00000000E+00
  0.00000000E+00  0.00000000E+00  0.00000000E+00
  0.00000000E+00  0.00000000E+00  0.00000000E+00
  0.00000000E+00  0.00000000E+00  0.00000000E+00
  0.00000000E+00  0.00000000E+00  0.00000000E+00
  0.00000000E+00  0.00000000E+00  0.00000000E+00
  0.00000000E+00  0.00000000E+00  0.00000000E+00
  0.00000000E+00  0.00000000E+00  0.00000000E+00
  0.00000000E+00  0.00000000E+00  0.00000000E+00
  0.00000000E+00  0.00000000E+00  0.00000000E+00
  0.00000000E+00  0.00000000E+00  0.00000000E+00
  0.00000000E+00  0.00000000E+00  0.00000000E+00
  0.00000000E+00  0.00000000E+00  0.00000000E+00
  0.00000000E+00  0.00000000E+00  0.00000000E+00
  0.00000000E+00  0.00000000E+00  0.00000000E+00
  0.00000000E+00  0.00000000E+00  0.00000000E+00
  0.00000000E+00  0.00000000E+00  0.00000000E+00
  0.00000000E+00  0.00000000E+00  0.00000000E+00
  0.00000000E+00  0.00000000E+00  0.00000000E+00
  0.00000000E+00  0.00000000E+00  0.00000000E+00
  0.00000000E+00  0.00000000E+00  0.00000000E+00
  0.00000000E+00  0.00000000E+00  0.00000000E+00
  0.00000000E+00  0.00000000E+00  0.00000000E+00
  0.00000000E+00  0.00000000E+00  0.00000000E+00
  0.00000000E+00  0.00000000E+00  0.00000000E+00
  0.00000000E+00  0.00000000E+00  0.00000000E+00
  0.00000000E+00  0.00000000E+00  0.00000000E+00
  0.00000000E+00  0.00000000E+00  0.00000000E+00
  0.00000000E+00  0.00000000E+00  0.00000000E+00
  0.00000000E+00  0.00000000E+00  0.00000000E+00
  0.00000000E+00  0.00000000E+00  0.00000000E+00
  0.00000000E+00  0.00000000E+00  0.00000000E+00
  0.00000000E+00  0.00000000E+00  0.00000000E+00
  0.00000000E+00  0.00000000E+00  0.00000000E+00
