 Ni3(PO4)2_2K+                                   
   1.00000000000000     
    11.6149000000000004    0.0000000000000000    0.0000000000000000
     0.0000000000000000    9.3666000000000000    0.0000000000000000
     0.0000000000000000    0.0000000000000000   33.0127979999999965
   Ni   P    O    H    K 
    24    16    94    60     2
Selective dynamics
Direct
  0.1346800000000030  0.0081199999999981  0.0493700000000032   F   F   F
  0.3568858049065157  0.3388590566419480  0.3269416409364068   T   T   T
  0.3674983973399333  0.4993425456616006  0.1864164759598930   T   T   T
  0.1036772676961201  0.2418148271374142  0.2036766881359989   T   T   T
  0.2311591731311667  0.0247860576817486  0.2732488980094293   T   T   T
  0.2592799900000031  0.2515699900000001  0.1184900100000021   F   F   F
  0.6346799700000005  0.0081199999999981  0.0493700000000032   F   F   F
  0.8499064342261319  0.2120391497171623  0.3372728766630802   T   T   T
  0.8744745950546592  0.4978962529546899  0.1875323754681325   T   T   T
  0.6202676778981798  0.2643268727134900  0.2040872744261577   T   T   T
  0.7363571799774810 -0.0012127460255755  0.2762503624899573   T   T   T
  0.7592800099999977  0.2515699900000001  0.1184900100000021   F   F   F
  0.1346800000000030  0.5081200199999998  0.0493700000000032   F   F   F
  0.3843183709849703  0.8598504282644172  0.3300366124801604   T   T   T
  0.3873739493167975  0.0118776702411727  0.1847194336267355   T   T   T
  0.1265909943328943  0.7447005206407545  0.2063024375979580   T   T   T
  0.2503903260669006  0.5184768874641867  0.2841007482947576   T   T   T
  0.2592799900000031  0.7515700100000018  0.1184900100000021   F   F   F
  0.6346799700000005  0.5081200199999998  0.0493700000000032   F   F   F
  0.8407846210750302  0.7023466214459684  0.3400625244429189   T   T   T
  0.8869771404637030  0.9765192121127926  0.1833314170801872   T   T   T
  0.6117270106482904  0.7539708725011790  0.2067187962476481   T   T   T
  0.7547579057185565  0.4912516135064710  0.2771554944033571   T   T   T
  0.7592800099999977  0.7515700100000018  0.1184900100000021   F   F   F
  0.1029013056579167  0.2830295102990281  0.3130706113163004   T   T   T
  0.3856599900000006  0.0401900000000026  0.0895700000000019   F   F   F
  0.3572333431997387  0.2333316066959296  0.2412581877185269   T   T   T
  0.1335290114594472  0.4641935791846993  0.1465768451875129   T   T   T
  0.6157451720678807  0.2853980097936912  0.3047977476218023   T   T   T
  0.8856599900000006  0.0401900000000026  0.0895700000000019   F   F   F
  0.8622954500674758  0.2092922013923410  0.2409487657607906   T   T   T
  0.6339374973611812  0.4592493715601581  0.1496473230920537   T   T   T
  0.1195585004521273  0.8057693179725908  0.3086043216923663   T   T   T
  0.3856599900000006  0.5401899700000001  0.0895700000000019   F   F   F
  0.3707428871041863  0.7303241992955768  0.2461167310939673   T   T   T
  0.1364697374395778  0.9592997756802638  0.1468120547564797   T   T   T
  0.6420920596688701  0.7971277715232105  0.3129195384643648   T   T   T
  0.8856599900000006  0.5401899700000001  0.0895700000000019   F   F   F
  0.8777008123278250  0.7069578330319143  0.2435887762859374   T   T   T
  0.6288379700159290  0.9654805983313691  0.1467640647793916   T   T   T
 -0.0020258755891039  0.3109685291443691  0.3396710513079840   T   T   T
  0.1226829374918280  0.3696297919964587  0.2740550178510885   T   T   T
  0.1461703010051495  0.1203345020428625  0.1512958260299302   T   T   T
  0.2013757571424392  0.3279464222288688  0.3452085261303577   T   T   T
  0.4870899800000004  0.1014899999999983  0.0656600000000012   F   F   F
  0.3810184496695329  0.1110477542262907  0.1338487895863232   T   T   T
  0.3416092337842691  0.3964589594634699  0.2405674378452806   T   T   T
  0.2789900000000003  0.1186700000000016  0.0689899999999994   F   F   F
  0.4596577119663859  0.1805116259572931  0.2161691895844709   T   T   T
  0.3558331321778381  0.1743603033243254  0.2876135303669845   T   T   T
  0.3773300200000023  0.3781200100000035  0.0875899999999987   F   F   F
  0.2501339891537904  0.1465608688529889  0.2250883243500234   T   T   T
  0.0257722859502282  0.4081435124026145  0.1714794656847103   T   T   T
  0.1380499999999998  0.4057100200000008  0.1037800000000004   F   F   F
  0.0996183525151359  0.1239401566632880  0.3030563752301660   T   T   T
  0.2345299122003706  0.3802860503177262  0.1682979715302237   T   T   T
  0.5238162657590822  0.3525155555252762  0.3342451997252072   T   T   T
  0.6110722180857332  0.3468401670700670  0.2621689972671814   T   T   T
  0.6365452352969109  0.1284378420591548  0.1482926682776461   T   T   T
  0.7373786880693907  0.3479343817612035  0.3236402761807984   T   T   T
  0.9870900199999966  0.1014899999999983  0.0656600000000012   F   F   F
  0.8862250367415312  0.1018555089852338  0.1329234369021542   T   T   T
  0.8672548668404161  0.3712970979456781  0.2439443766480931   T   T   T
  0.7789900000000003  0.1186700000000016  0.0689899999999994   F   F   F
  0.9551295550542765  0.1448414444126681  0.2128923871758854   T   T   T
  0.8647859546248006  0.1442468750121568  0.2849513436699939   T   T   T
  0.8773299799999990  0.3781200100000035  0.0875899999999987   F   F   F
  0.7481863623261530  0.1381714108991934  0.2246234611630269   T   T   T
  0.5268424314904094  0.4031524437576597  0.1715572250881483   T   T   T
  0.6380499999999998  0.4057100200000008  0.1037800000000004   F   F   F
  0.6148145174654420  0.1273297979173867  0.3126222607916226   T   T   T
  0.7418252721814911  0.3771865723134105  0.1710000129411550   T   T   T
  0.0086978603013756  0.8404680385190645  0.3319277267398052   T   T   T
  0.1112913159197521  0.8479126002112187  0.2624274455362166   T   T   T
  0.1410335386910883  0.6264806357960682  0.1479130957411786   T   T   T
  0.2257841819531180  0.8977243760848160  0.3251677619283965   T   T   T
  0.4870899800000004  0.6014900099999991  0.0656600000000012   F   F   F
  0.3809280888108818  0.6023262874531777  0.1336086683034259   T   T   T
  0.3685630025610367  0.8966754613644996  0.2375575736467123   T   T   T
  0.2789900000000003  0.6186699699999991  0.0689899999999994   F   F   F
  0.4765753382539432  0.6537737220506593  0.2281204469462473   T   T   T
  0.3604931401002655  0.6985112291088371  0.2935532662229037   T   T   T
  0.3773300200000023  0.8781199599999994  0.0875899999999987   F   F   F
  0.2666783316531304  0.6464996346748397  0.2234745857414019   T   T   T
  0.0402757729174677  0.8986237020707305  0.1730338709705604   T   T   T
  0.1380499999999998  0.9057099899999983  0.1037800000000004   F   F   F
  0.1446302418044450  0.6447493415907385  0.3143065876960320   T   T   T
  0.2523626246419183  0.8780867557815142  0.1682178074198983   T   T   T
  0.5395536279781959  0.8140649237211337  0.3436358028731015   T   T   T
  0.6183582325700770  0.8478897408423717  0.2697810289148894   T   T   T
  0.6331999117226287  0.6212721372119994  0.1552106621768551   T   T   T
  0.7453249406514263  0.8842559539550457  0.3301533351718205   T   T   T
  0.9870900199999966  0.6014900099999991  0.0656600000000012   F   F   F
  0.8777763696171241  0.5964284962055622  0.1327334345149603   T   T   T
  0.8683210033332232  0.8679370255570625  0.2423608422446367   T   T   T
  0.7789900000000003  0.6186699699999991  0.0689899999999994   F   F   F
  0.9845261334727702  0.6410724000207495  0.2197028186164801   T   T   T
  0.8918447559327752  0.6395931195368609  0.2870106868058341   T   T   T
  0.8773299799999990  0.8781199599999994  0.0875899999999987   F   F   F
  0.7699909926538426  0.6201121573266529  0.2240592754186023   T   T   T
  0.5218413496854936  0.9007392956262107  0.1691375367574816   T   T   T
  0.6380499999999998  0.9057099899999983  0.1037800000000004   F   F   F
  0.6821441159854534  0.6423413636609364  0.3146702146635013   T   T   T
  0.7286050289230505  0.8857528110182102  0.1701991464582999   T   T   T
  0.1609888139690980  0.0791618525346695  0.3878602349569419   T   T   T
  0.6848458579312292  0.4767888079117690  0.5850453387581718   T   T   T
  0.4668886225587681  0.6068430275016794  0.3837989933226678   T   T   T
  0.1566680190856803  0.6764837345419752  0.5397721006584324   T   T   T
  0.1698538998822318  0.1530925284799201  0.5485329890517122   T   T   T
  0.8019558142957549  0.8814795084772902  0.5361563013832398   T   T   T
  0.5444397023229635  0.2912215778282188  0.4167019879594138   T   T   T
  0.2407824403613496  0.6593412857532527  0.3866799335755098   T   T   T
  0.6836756901815928  0.0842853228025755  0.4889673716406810   T   T   T
  0.5637821050599766  0.2708406489761309  0.5368267524235756   T   T   T
  0.5225022928490237  0.6063591196771613  0.4658183709802392   T   T   T
  0.6050133620163018  0.7456474847779986  0.5891851573820971   T   T   T
  0.7143620178072110  0.4795698779613026  0.4047547574705020   T   T   T
  0.8457449308519831  0.2866420307413597  0.4407252006258343   T   T   T
  0.4110528596891964  0.3548557176239861  0.4790098139469935   T   T   T
  0.9065482953708653  0.0497185455212456  0.3733028462386417   T   T   T
  0.4142420660951966  0.0334848531651595  0.3585561225561241   T   T   T
  0.9610792384779520  0.5654390516166357  0.3633240715908025   T   T   T
  0.3974004180360094  0.0867473066375322  0.5595073998964062   T   T   T
  0.9381706692371833  0.4648521483846531  0.4965840067866080   T   T   T
  0.0830319207219197  0.4184614681292273  0.5707410153093909   T   T   T
  0.7447736852498493  0.6043363805078188  0.5034172323895396   T   T   T
  0.5508993402993134  0.9036459433880392  0.4536400551783570   T   T   T
  0.8109150171746470  0.7424807447101502  0.4026799218015732   T   T   T
  0.9108634006052473  0.4601349370828066  0.6248718781206850   T   T   T
  0.4015888899088102  0.8131816624940423  0.5398592886977561   T   T   T
  0.0406918413559672  0.9053436253429910  0.5122029240259639   T   T   T
  0.0786207489552122  0.8191950266027775  0.4269717061480439   T   T   T
  0.2049442954948230  0.2403896052103894  0.4720281886357819   T   T   T
  0.3139316469559537  0.9484185747642175  0.4492983215619762   T   T   T
  0.1812539126302249  0.1743721964331471  0.3771497592643122   T   T   T
  0.1437323033197385  0.0258871705488429  0.3630851914949701   T   T   T
  0.6389536689693162  0.5624523432592471  0.5923885589890313   T   T   T
  0.7168393774501913  0.5011511311630161  0.5570940462217517   T   T   T
  0.4961594454274776  0.6952916115233460  0.3680958885628722   T   T   T
  0.4891593080912581  0.5333446974626063  0.3642463679658886   T   T   T
  0.1468580461527582  0.5806146060752271  0.5529001730198587   T   T   T
  0.2396264886591151  0.7041188908968283  0.5477438597035764   T   T   T
  0.1368527505959862  1.0569562923180851  0.5425634558971835   T   T   T
  0.2536126507790102  0.1481493541393551  0.5528935100462736   T   T   T
  0.8825563907664679  0.9056131093061298  0.5264108052637904   T   T   T
  0.7539163472912253  0.9637936290623361  0.5257409721191263   T   T   T
  0.5095879592732417  0.3059322409831881  0.3903085478678412   T   T   T
  0.4835034655073340  0.2987895888162513  0.4373447633831039   T   T   T
  0.2126159154583641  0.6306775152831711  0.3590704208536215   T   T   T
  0.3279568552722207  0.6529613010192041  0.3866672330218142   T   T   T
  0.6555678522937467  0.1614663368099645  0.5054837200763880   T   T   T
  0.6149265251091189  1.0263814812007730  0.4808825778756133   T   T   T
  0.5072672119952372  0.3108295339378466  0.5174443073660040   T   T   T
  0.5888408036594961  0.3484602935185848  0.5554805664762951   T   T   T
  0.5262037528609194  0.5992524803544457  0.4342412605119441   T   T   T
  0.6059015181905372  0.5899094715198969  0.4753580684699650   T   T   T
  0.5368076636484241  0.7691814882678001  0.5729936862660968   T   T   T
  0.6698221684268849  0.7997239951839726  0.5760174328578107   T   T   T
  0.6430023489225362  0.4144271699868158  0.4111539624344140   T   T   T
  0.7095512626759977  0.4790896924248352  0.3741670467818846   T   T   T
  0.8045354238958247  0.2174569995051753  0.4578098523393529   T   T   T
  0.7917324802541292  0.3558637819208306  0.4276531910228945   T   T   T
  0.4299901290918271  0.4563091842738065  0.4739728573937479   T   T   T
  0.3271570452385661  0.3403920227950860  0.4731959688293862   T   T   T
  0.9373428690345943  0.9960187878962481  0.3505557295345237   T   T   T
  0.9710338274375677  0.1077422211009698  0.3840178760197774   T   T   T
  0.4599796407049800  0.0770389827435482  0.3362081781848231   T   T   T
  0.3371099162168544  0.0767999654691930  0.3591677370074713   T   T   T
  0.0275509336413030  0.6025165780051345  0.3484631824987315   T   T   T
  0.9581181246765013  0.4619387153838244  0.3502324257966295   T   T   T
  0.4720012337005245  0.1435663041325386  0.5540359096092977   T   T   T
  0.4064227633146114  1.0577006115152172  0.5870670034932755   T   T   T
  0.9189677823547399  0.3777141583779948  0.4816389309479557   T   T   T
  0.9514298518488753  0.4369303609712306  0.5254562202010500   T   T   T
  1.0311813021964760  0.4295465869466758  0.5953567372929565   T   T   T
  0.1162948982143560  0.3214526969305885  0.5702514525709074   T   T   T
  0.7745202667489025  0.7023040620558668  0.5118201816426313   T   T   T
  0.8213385979666773  0.5563154131997180  0.4941428904401955   T   T   T
  0.5497749754993121  0.7949968932172633  0.4542949754635022   T   T   T
  0.4713782425237840  0.9282993980939639  0.4427652145473625   T   T   T
  0.7676527944652031  0.6559477822105106  0.4154996474560734   T   T   T
  0.8912599538566878  0.7459948058785515  0.4149051451841977   T   T   T
  0.8854403261158261  0.3697192756308286  0.6367457002956830   T   T   T
  0.8421285119591568  0.4973987912181060  0.6093907845057703   T   T   T
  0.4500159433109668  0.7904200429395987  0.5168258334051384   T   T   T
  0.4117225696132061  0.9187181001771224  0.5422566212060619   T   T   T
  0.0576032172879932  0.8815890660858067  0.4834020406387339   T   T   T
  0.0756146309300245  0.8254677197678896  0.5278493519762449   T   T   T
  0.1430034414688346  0.7823254165407583  0.4091495732854135   T   T   T
  0.0486151207966641  0.9134429544302238  0.4190491129770650   T   T   T
  0.2287093576714736  0.1565802687567839  0.4565269353680783   T   T   T
  0.1835872966029694  0.1947079507383138  0.4994872697481388   T   T   T
  0.2692237436024060  0.9270090871590271  0.4251052190591665   T   T   T
  0.2889999686030134 -0.1012501421918248  0.4742267924130580   T   T   T
  0.0863433784013561  0.4437312566040211  0.4183738441159049   T   T   T
  0.6588339181319591  1.0148494652367936  0.3939947075496597   T   T   T
 
  0.00000000E+00  0.00000000E+00  0.00000000E+00
 -0.11329402E-02  0.27280547E-02  0.76048698E-03
 -0.35288777E-05  0.26416434E-02  0.16173804E-02
 -0.26491984E-02 -0.22608213E-02 -0.33150863E-02
  0.35433243E-02 -0.12878501E-02  0.27359339E-02
  0.00000000E+00  0.00000000E+00  0.00000000E+00
  0.00000000E+00  0.00000000E+00  0.00000000E+00
 -0.20509809E-02  0.41473673E-02 -0.59005883E-03
 -0.12887259E-02  0.28674559E-02  0.12406246E-02
  0.35250025E-02 -0.47965190E-02  0.12966475E-02
  0.27194028E-02  0.97073191E-03 -0.13778876E-02
  0.00000000E+00  0.00000000E+00  0.00000000E+00
  0.00000000E+00  0.00000000E+00  0.00000000E+00
 -0.56838215E-03 -0.14873059E-02  0.70977021E-03
  0.13927331E-02 -0.32715004E-02 -0.33391093E-02
 -0.32629999E-02 -0.35264982E-02  0.72760146E-03
 -0.46899803E-02  0.16139683E-02  0.48103247E-02
  0.00000000E+00  0.00000000E+00  0.00000000E+00
  0.00000000E+00  0.00000000E+00  0.00000000E+00
 -0.23265646E-02 -0.34054600E-02  0.26069476E-02
  0.62788857E-03 -0.41503563E-02  0.12283657E-02
  0.10191973E-02 -0.15186461E-03 -0.82651246E-03
  0.36080892E-02 -0.94252264E-03  0.18590949E-02
  0.00000000E+00  0.00000000E+00  0.00000000E+00
  0.65831489E-04  0.29688962E-02 -0.53096870E-02
  0.00000000E+00  0.00000000E+00  0.00000000E+00
  0.19910730E-02  0.11263438E-02  0.26384535E-02
  0.18013511E-02 -0.11104900E-02  0.46237753E-02
 -0.21943053E-02  0.29824852E-02  0.34012092E-02
  0.00000000E+00  0.00000000E+00  0.00000000E+00
  0.35278219E-02 -0.14759394E-02 -0.32248825E-02
 -0.10153184E-02 -0.48636542E-03 -0.85213436E-03
 -0.18279247E-02  0.19013813E-02 -0.34442086E-03
  0.00000000E+00  0.00000000E+00  0.00000000E+00
 -0.22007555E-04 -0.19470213E-02  0.29713082E-02
  0.98064613E-03  0.32118885E-02  0.83885949E-03
  0.35583065E-02 -0.54148522E-04  0.32238611E-02
  0.00000000E+00  0.00000000E+00  0.00000000E+00
 -0.25294080E-02 -0.71239739E-03  0.58822007E-03
 -0.33554373E-02  0.57922703E-03  0.34177172E-02
  0.45261018E-02  0.34130848E-02  0.58277307E-02
 -0.48241548E-03 -0.32820665E-02  0.55101913E-02
 -0.15425250E-02  0.44062808E-04 -0.45801607E-02
  0.73464566E-03  0.93252954E-03 -0.46501219E-02
  0.00000000E+00  0.00000000E+00  0.00000000E+00
 -0.26172536E-02 -0.37400606E-02 -0.78734281E-02
  0.40108351E-02  0.52546130E-03 -0.57537464E-02
  0.00000000E+00  0.00000000E+00  0.00000000E+00
  0.45571037E-02 -0.68748305E-02  0.26598070E-02
 -0.30598844E-02  0.42213893E-02 -0.59245300E-03
  0.00000000E+00  0.00000000E+00  0.00000000E+00
  0.83241820E-03  0.32216390E-02 -0.31729472E-02
 -0.23925090E-02 -0.28101788E-02 -0.31372642E-02
  0.00000000E+00  0.00000000E+00  0.00000000E+00
 -0.35904528E-02  0.51601638E-02  0.70816855E-02
 -0.17815538E-02 -0.58036915E-02  0.18609136E-02
 -0.59417358E-02  0.17757613E-04 -0.60940001E-02
  0.26485898E-03  0.46026023E-02 -0.30628198E-02
  0.51699419E-02 -0.59434050E-02  0.11872008E-01
  0.15420868E-02 -0.23639191E-02 -0.37308146E-02
  0.00000000E+00  0.00000000E+00  0.00000000E+00
 -0.42884013E-02 -0.47703161E-02 -0.65985580E-02
  0.13188876E-02  0.26679038E-02  0.27418016E-02
  0.00000000E+00  0.00000000E+00  0.00000000E+00
 -0.65987499E-02 -0.45972453E-02 -0.60126934E-02
 -0.65781695E-02  0.19291090E-02 -0.23448895E-02
  0.00000000E+00  0.00000000E+00  0.00000000E+00
 -0.12695947E-02  0.24396356E-02 -0.20396440E-02
 -0.23559512E-02  0.31458102E-02 -0.88779484E-03
  0.00000000E+00  0.00000000E+00  0.00000000E+00
 -0.33859419E-02  0.42041011E-02  0.19461585E-02
  0.21748149E-02 -0.45999943E-03  0.43577498E-02
 -0.16491824E-02  0.11200848E-03 -0.46823341E-02
  0.15339220E-02  0.15251282E-02  0.39484141E-02
 -0.25268437E-02  0.48251192E-02 -0.37797476E-03
  0.47359189E-03  0.54351611E-02  0.36663682E-02
  0.00000000E+00  0.00000000E+00  0.00000000E+00
 -0.60148628E-02 -0.28177360E-03  0.83566029E-04
  0.77700858E-02 -0.24082575E-02  0.21298519E-02
  0.00000000E+00  0.00000000E+00  0.00000000E+00
 -0.11912821E-02 -0.29958853E-03 -0.38456251E-02
  0.42182598E-02 -0.53607629E-03 -0.13900844E-02
  0.00000000E+00  0.00000000E+00  0.00000000E+00
 -0.11424323E-03  0.53428103E-02  0.52375330E-02
  0.89196921E-02  0.29906955E-02  0.38760835E-02
  0.00000000E+00  0.00000000E+00  0.00000000E+00
  0.46119327E-04  0.12023080E-02 -0.14552939E-02
  0.21533261E-02  0.31437178E-02 -0.76384317E-02
  0.18417385E-04 -0.45093128E-03  0.21365964E-02
 -0.11624593E-02 -0.35492843E-02 -0.21589312E-02
 -0.15008906E-02 -0.13552288E-03 -0.13364788E-02
 -0.36040968E-02 -0.60628021E-03 -0.67165233E-02
  0.00000000E+00  0.00000000E+00  0.00000000E+00
 -0.21053850E-03 -0.59415552E-03  0.32068755E-02
 -0.83259060E-02 -0.16385043E-02  0.26198552E-02
  0.00000000E+00  0.00000000E+00  0.00000000E+00
 -0.31182932E-02  0.53734512E-02 -0.81089670E-02
  0.85451181E-03  0.11227171E-02 -0.20041862E-02
  0.00000000E+00  0.00000000E+00  0.00000000E+00
  0.13410553E-02 -0.10908301E-02  0.59536262E-02
 -0.16488308E-02 -0.56794327E-02 -0.63023624E-02
  0.00000000E+00  0.00000000E+00  0.00000000E+00
  0.31133860E-02 -0.84580436E-03 -0.83561750E-02
  0.26591144E-02 -0.41856194E-02  0.30192953E-02
 -0.11991881E-02 -0.22422192E-02  0.46371899E-03
 -0.27427545E-05  0.20111351E-02 -0.10017235E-01
 -0.22003309E-02  0.69048303E-02  0.36093628E-02
  0.85534810E-02  0.42190912E-02  0.52661232E-03
  0.31224242E-02  0.17578494E-02  0.76734409E-02
 -0.16754606E-02 -0.18360360E-02 -0.67099520E-02
  0.19818879E-03 -0.20025808E-02  0.18014022E-03
 -0.32386289E-02  0.74502488E-02 -0.72874216E-03
 -0.34823836E-02  0.11333102E-02  0.36232864E-02
 -0.12178228E-02 -0.15378184E-02 -0.33626642E-02
  0.27636955E-02  0.51086745E-02 -0.47431848E-02
  0.62638189E-02  0.33106754E-02  0.13602558E-02
  0.59451854E-03  0.70248129E-02 -0.96576187E-03
 -0.40216856E-02  0.16519186E-04  0.42907794E-02
  0.30227702E-03  0.47183468E-03 -0.20774059E-02
 -0.11613716E-02 -0.20576054E-02  0.41444259E-02
 -0.23403673E-04  0.19891906E-02 -0.33885413E-02
 -0.27653754E-02 -0.26149103E-02 -0.15217241E-02
  0.56391006E-02 -0.13740287E-02 -0.18614979E-02
 -0.22945520E-02 -0.19323327E-02  0.11430912E-02
  0.78475133E-02 -0.37463914E-02  0.23019809E-02
  0.36392711E-04  0.34674886E-02  0.88526749E-03
  0.34583884E-02  0.93426118E-04  0.42361526E-02
 -0.37994861E-03 -0.10988327E-02 -0.28188992E-02
 -0.28554816E-02  0.11121019E-02 -0.17584950E-02
  0.65857508E-03 -0.53957754E-03  0.14875991E-02
 -0.58816680E-02  0.30019931E-02  0.42387858E-03
  0.32543930E-02  0.44336401E-02 -0.42593508E-02
 -0.67902122E-02  0.22295965E-02  0.26165053E-02
 -0.10549651E-02 -0.45205874E-02 -0.86964689E-03
  0.18849149E-01  0.23218709E-02  0.12698065E-01
  0.56856893E-02 -0.45634399E-02 -0.18273703E-01
  0.23440483E-02  0.10559850E-01 -0.19106640E-01
  0.18268807E-01 -0.21702637E-02  0.13427495E-01
  0.26791224E-02 -0.96129745E-02  0.36279607E-02
 -0.11901726E-01 -0.23867735E-01 -0.14090042E-01
 -0.81163844E-02 -0.33722237E-02 -0.10783268E-01
  0.30014630E-02  0.34345710E-02  0.77870118E-02
 -0.10516429E-01 -0.62651555E-02  0.11036138E-01
  0.45349447E-02 -0.84780245E-02 -0.97767097E-02
 -0.16829888E-01  0.13827988E-01  0.17317933E-01
  0.28483667E-01 -0.62024494E-02 -0.14559302E-01
 -0.35976660E-02  0.21182752E-01  0.11700385E-01
  0.11624241E-02 -0.66351482E-02  0.13794181E-01
 -0.26667126E-02  0.65902435E-02  0.23316440E-02
  0.78933672E-03 -0.40378339E-03  0.25482756E-01
  0.10312728E-01  0.43180799E-02 -0.62935072E-03
  0.93941857E-02 -0.38437738E-01  0.91149675E-02
  0.23116810E-01 -0.59857622E-02 -0.15802500E-01
  0.64769558E-03 -0.25505173E-01  0.56676600E-02
 -0.10709766E-01  0.30428761E-02  0.19335314E-01
 -0.11462867E-01 -0.11579458E-01  0.17794677E-01
  0.72946982E-02 -0.62508925E-02  0.52585319E-02
 -0.51262350E-02  0.12470441E-01 -0.12953140E-01
  0.11529439E-01  0.22501292E-01 -0.17784323E-02
 -0.46130774E-02 -0.40464900E-02  0.43706811E-02
 -0.10552608E-02 -0.14962980E-02  0.58268984E-02
  0.98133522E-02 -0.11170398E-01 -0.84184479E-03
 -0.46755434E-02  0.51642034E-02  0.18306763E-01
  0.16696394E-01 -0.21798213E-01  0.13346200E-01
  0.15639277E-01 -0.91616726E-02 -0.37388938E-02
  0.16414932E-01 -0.49663164E-02 -0.22371479E-01
  0.26289574E-02  0.23083881E-02  0.97717704E-02
 -0.10360292E-01 -0.73308194E-02  0.25849366E-02
 -0.45407816E-02 -0.29540954E-01 -0.19469577E-01
 -0.49096458E-02  0.34352043E-01  0.11660521E-01
  0.16581940E-01 -0.59949269E-02  0.46837626E-02
  0.10026630E-01  0.17643573E-01  0.27380564E-01
  0.18615833E-01 -0.83424464E-03  0.17082789E-01
 -0.74911299E-02  0.19747073E-01 -0.29320322E-02
  0.29482115E-01  0.34261474E-03  0.20502161E-03
  0.59161642E-02  0.14511724E-02  0.22779436E-01
  0.34828840E-02  0.85261194E-02  0.47882145E-02
 -0.53516312E-03  0.16323225E-01 -0.12482026E-01
  0.24420497E-01 -0.90262264E-02 -0.17063675E-01
  0.26023763E-01  0.30702350E-01 -0.15313584E-01
  0.28239296E-01 -0.21348147E-01  0.38129592E-02
  0.51614916E-02 -0.22882078E-01 -0.17700544E-01
 -0.15730925E-01  0.85567750E-02 -0.16458272E-01
  0.76301650E-02  0.26311368E-02  0.11160063E-01
 -0.43121070E-02 -0.25936246E-02  0.22723561E-02
 -0.92831456E-02  0.17019390E-01 -0.69283457E-04
 -0.64363581E-03 -0.23625050E-01 -0.76071285E-02
  0.75756508E-02 -0.19866931E-01 -0.26251385E-01
  0.17992938E-01 -0.56870126E-03 -0.51919682E-02
  0.13100216E-01  0.88888359E-02 -0.32355624E-02
 -0.22935616E-01 -0.61629143E-02 -0.12515052E-01
  0.17602829E-02  0.29026377E-01 -0.18779287E-01
 -0.19210357E-01 -0.17709093E-01  0.12944501E-01
 -0.67064791E-02  0.12577586E-01  0.12164923E-03
  0.15543902E-02  0.18215568E-04  0.35849251E-02
  0.32464868E-02 -0.26343925E-02  0.29932999E-02
 
           1
   1.00000000000000     
  0.31614113E+00  0.91705999E-03  0.20546036E-02  0.31465529E+00
  0.13468000E+00  0.81200000E-02  0.49370000E-01
  0.35678826E+00  0.33915031E+00  0.32696468E+00
  0.36749809E+00  0.49962457E+00  0.18646547E+00
  0.10344918E+00  0.24157346E+00  0.20357627E+00
  0.23146424E+00  0.24648564E-01  0.27333177E+00
  0.25927999E+00  0.25156999E+00  0.11849001E+00
  0.63467997E+00  0.81200000E-02  0.49370000E-01
  0.84972985E+00  0.21248193E+00  0.33725500E+00
  0.87436364E+00  0.49820239E+00  0.18756996E+00
  0.62057117E+00  0.26381479E+00  0.20412655E+00
  0.73659131E+00  0.99889089E+00  0.27620862E+00
  0.75928001E+00  0.25156999E+00  0.11849001E+00
  0.13468000E+00  0.50812002E+00  0.49370000E-01
  0.38426944E+00  0.85969164E+00  0.33005811E+00
  0.38749386E+00  0.11528397E-01  0.18461829E+00
  0.12631006E+00  0.74432402E+00  0.20632448E+00
  0.24998654E+00  0.51864920E+00  0.28424646E+00
  0.25927999E+00  0.75157001E+00  0.11849001E+00
  0.63467997E+00  0.50812002E+00  0.49370000E-01
  0.84058431E+00  0.70198305E+00  0.34014149E+00
  0.88703120E+00  0.97607611E+00  0.18336863E+00
  0.61181476E+00  0.75395466E+00  0.20669376E+00
  0.75506855E+00  0.49115099E+00  0.27721181E+00
  0.75928001E+00  0.75157001E+00  0.11849001E+00
  0.10290697E+00  0.28334648E+00  0.31290977E+00
  0.38565999E+00  0.40190000E-01  0.89570000E-01
  0.35740477E+00  0.23345186E+00  0.24133811E+00
  0.13368410E+00  0.46407502E+00  0.14671691E+00
  0.61555625E+00  0.28571643E+00  0.30490077E+00
  0.88565999E+00  0.40190000E-01  0.89570000E-01
  0.86259918E+00  0.20913463E+00  0.24085108E+00
  0.63385008E+00  0.45919745E+00  0.14962151E+00
  0.11940112E+00  0.80597231E+00  0.30859389E+00
  0.38565999E+00  0.54018997E+00  0.89570000E-01
  0.37074099E+00  0.73011633E+00  0.24620674E+00
  0.13655417E+00  0.95964268E+00  0.14683746E+00
  0.64239842E+00  0.79712199E+00  0.31301719E+00
  0.88565999E+00  0.54018997E+00  0.89570000E-01
  0.87748304E+00  0.70688178E+00  0.24360659E+00
  0.62854908E+00  0.96554244E+00  0.14686759E+00
  0.99836381E+00  0.31133292E+00  0.33984758E+00
  0.12264140E+00  0.36927939E+00  0.27422193E+00
  0.14603750E+00  0.12033921E+00  0.15115709E+00
  0.20143901E+00  0.32804598E+00  0.34506767E+00
  0.48708998E+00  0.10149000E+00  0.65660000E-01
  0.38079311E+00  0.11064846E+00  0.13361029E+00
  0.34195455E+00  0.39651506E+00  0.24039315E+00
  0.27899000E+00  0.11867000E+00  0.68990000E-01
  0.46005006E+00  0.17977765E+00  0.21624976E+00
  0.35556969E+00  0.17481099E+00  0.28759558E+00
  0.37733002E+00  0.37812001E+00  0.87590000E-01
  0.25020566E+00  0.14690482E+00  0.22499221E+00
  0.25566300E-01  0.40784349E+00  0.17138443E+00
  0.13805000E+00  0.40571002E+00  0.10378000E+00
  0.99309228E-01  0.12449107E+00  0.30327089E+00
  0.23437653E+00  0.37966643E+00  0.16835434E+00
  0.52330470E+00  0.35251745E+00  0.33406060E+00
  0.61109502E+00  0.34733155E+00  0.26207622E+00
  0.63699035E+00  0.12780331E+00  0.14865229E+00
  0.73751146E+00  0.34768200E+00  0.32352727E+00
  0.98709002E+00  0.10149000E+00  0.65660000E-01
  0.88585582E+00  0.10134622E+00  0.13272356E+00
  0.86736842E+00  0.37158193E+00  0.24402743E+00
  0.77899000E+00  0.11867000E+00  0.68990000E-01
  0.95456143E+00  0.14435063E+00  0.21271025E+00
  0.86421960E+00  0.14445283E+00  0.28488031E+00
  0.87732998E+00  0.37812001E+00  0.87590000E-01
  0.74807705E+00  0.13843187E+00  0.22456168E+00
  0.52663959E+00  0.40348830E+00  0.17153033E+00
  0.63805000E+00  0.40571002E+00  0.10378000E+00
  0.61452300E+00  0.12777864E+00  0.31268121E+00
  0.74201252E+00  0.37713746E+00  0.17113201E+00
  0.85558718E-02  0.84048000E+00  0.33178589E+00
  0.11142338E+00  0.84807543E+00  0.26254705E+00
  0.14081599E+00  0.62699578E+00  0.14790165E+00
  0.22582496E+00  0.89830465E+00  0.32527882E+00
  0.48708998E+00  0.60149001E+00  0.65660000E-01
  0.38041023E+00  0.60229620E+00  0.13361120E+00
  0.36923198E+00  0.89641835E+00  0.23762209E+00
  0.27899000E+00  0.61866997E+00  0.68990000E-01
  0.47647277E+00  0.65374174E+00  0.22800396E+00
  0.36085632E+00  0.69845400E+00  0.29351116E+00
  0.37733002E+00  0.87811996E+00  0.87590000E-01
  0.26666850E+00  0.64707005E+00  0.22363324E+00
  0.41043725E-01  0.89894300E+00  0.17315128E+00
  0.13805000E+00  0.90570999E+00  0.10378000E+00
  0.14463421E+00  0.64487770E+00  0.31426250E+00
  0.25254802E+00  0.87842239E+00  0.16798643E+00
  0.53955521E+00  0.81401678E+00  0.34370052E+00
  0.61825815E+00  0.84751081E+00  0.26971563E+00
  0.63307069E+00  0.62125767E+00  0.15517018E+00
  0.74501464E+00  0.88419123E+00  0.32994988E+00
  0.98709002E+00  0.60149001E+00  0.65660000E-01
  0.87775824E+00  0.59636506E+00  0.13283057E+00
  0.86760417E+00  0.86776210E+00  0.24244020E+00
  0.77899000E+00  0.61866997E+00  0.68990000E-01
  0.98425766E+00  0.64164608E+00  0.21945719E+00
  0.89191833E+00  0.63971298E+00  0.28694998E+00
  0.87732998E+00  0.87811996E+00  0.87590000E-01
  0.77010645E+00  0.61999570E+00  0.22423962E+00
  0.52169939E+00  0.90013295E+00  0.16894663E+00
  0.63805000E+00  0.90570999E+00  0.10378000E+00
  0.68241217E+00  0.64225106E+00  0.31441710E+00
  0.72883397E+00  0.88530594E+00  0.17029060E+00
  0.16088557E+00  0.78922468E-01  0.38787428E+00
  0.68484562E+00  0.47700352E+00  0.58474190E+00
  0.46669918E+00  0.60758020E+00  0.38390833E+00
  0.15740444E+00  0.67693417E+00  0.53978805E+00
  0.17012273E+00  0.15328020E+00  0.54876543E+00
  0.80181156E+00  0.88128349E+00  0.53595305E+00
  0.54445677E+00  0.29100778E+00  0.41670744E+00
  0.24050361E+00  0.66013669E+00  0.38665786E+00
  0.68337587E+00  0.84406318E-01  0.48907713E+00
  0.56367726E+00  0.27067647E+00  0.53672489E+00