Ni_O                                    
   1.00000000000000     
    10.1184999999999992    0.0000000000000000    0.0000000000000000
    -5.0592499999999996    8.7628780000000006    0.0000000000000000
     0.0000000000000000    0.0000000000000000   30.4844000000000008
   Cu   O    H    C    O 
    64    30    60     1     1
Direct
  0.4468244500000011  0.0923782099999997  0.1122881800000002
  0.9471043100000003  0.5959133699999981  0.1145744499999992
  0.6941660399999989  0.3418790899999991  0.1154566000000017
  0.1931526199999993  0.8436741100000020  0.1156597299999973
  0.1846033400000024  0.5887878500000028  0.1188359900000009
  0.4340742300000002  0.3456135599999968  0.1130821599999976
  0.1882351799999995  0.0852047799999980  0.1166869099999985
  0.4430998599999967  0.8542953400000002  0.1132846900000004
  0.9385240900000014  0.3419119499999965  0.1154938600000008
  0.1919612800000010  0.3412027500000008  0.1143367199999972
  0.6923273600000002  0.0965604200000030  0.1150954399999975
  0.6814250099999981  0.8363811199999986  0.1147610499999985
  0.7050712599999969  0.6067028000000008  0.1156886999999998
  0.4433526600000022  0.5909744499999974  0.1113879899999972
  0.9433759200000011  0.8450020499999980  0.1150280199999969
  0.9356192300000004  0.0841578100000007  0.1152604299999993
  0.3691440699999973  0.1818393000000000  0.1777703300000013
  0.8668423399999980  0.4277225900000019  0.1778555900000001
  0.1077460500000029  0.6749238900000023  0.1837263099999973
  0.3618202700000026  0.9297152299999993  0.1800107299999993
  0.6241688100000005  0.1872505199999992  0.1785642700000025
  0.6169940899999986  0.4380896899999982  0.1788319099999995
  0.1121508499999990  0.4166035599999987  0.1814820999999966
  0.8507085199999977  0.6700511900000024  0.1808158999999989
  0.1108142599999979  0.9324371000000014  0.1837870499999994
  0.3582262400000005  0.4271876299999988  0.1832061200000012
  0.3632997799999984  0.6944490799999983  0.1799181200000035
  0.1070822200000023  0.1675063899999998  0.1834514399999989
  0.6265395100000006  0.9370266800000024  0.1789562399999980
  0.8637453600000029  0.1822377399999979  0.1799078299999977
  0.6090062199999977  0.6767699600000014  0.1762822399999990
  0.8633277799999988  0.9271979500000000  0.1812168399999976
  0.5277383299999983  0.2702645899999965  0.2459748300000015
  0.2714728500000021  0.9989227700000001  0.2482695100000001
  0.0265041899999972  0.7555451500000032  0.2454971700000002
  0.5274825699999965  0.0275038799999976  0.2437671100000003
  0.0247378999999981  0.5048689600000031  0.2466003099999980
  0.7791137999999975  0.5132476699999984  0.2470909399999996
  0.2852976100000006  0.7681623100000010  0.2462856499999972
  0.7709538000000009  0.2660619299999993  0.2487831999999983
  0.2862131799999972  0.2556219499999983  0.2473816700000029
  0.2856012399999983  0.5142395000000022  0.2438885799999966
  0.0412422300000017  0.2745445300000000  0.2536933000000019
  0.5202322199999969  0.5132170999999985  0.2485832899999991
  0.5272020999999967  0.7700366400000007  0.2466772000000006
  0.0365431800000025  0.0185163599999996  0.2532424300000002
  0.7887415900000008  0.0234756999999988  0.2445518999999976
  0.7818181600000003  0.7649171199999998  0.2490286399999988
  0.5051699799999980  0.2552200000000013  0.0459221600000035
  0.2551900300000014  0.0052499999999966  0.0459221600000035
  0.0052099999999982  0.7552400000000006  0.0459221600000035
  0.5051599700000011  0.0052700000000030  0.0459221600000035
  0.0051299799999995  0.5051999900000013  0.0459221600000035
  0.7552299800000029  0.5052699700000005  0.0459221600000035
  0.2551200099999988  0.7552599699999973  0.0459221600000035
  0.7550999899999979  0.2552900000000022  0.0459221600000035
  0.2552500099999975  0.2551599999999965  0.0459221600000035
  0.2551399900000035  0.5051699500000026  0.0459221600000035
  0.0052599999999998  0.2552700000000030  0.0459221600000035
  0.5051800000000028  0.5051699500000026  0.0459221600000035
  0.5051100100000028  0.7552000000000021  0.0459221600000035
  0.0051800000000028  0.0052200000000013  0.0459221600000035
  0.7551699999999997  0.0052400000000006  0.0459221600000035
  0.7551899899999981  0.7551799800000012  0.0459221600000035
  0.0598967199999976  0.9795593899999986  0.3190046899999999
  0.3061420599999991  0.2486702200000011  0.3232930599999975
  0.1247972199999978  0.6828917799999985  0.3462123400000010
  0.1904598300000018  0.1335113299999975  0.4242755699999989
  0.6985382399999978  0.0899834299999966  0.5639180900000014
  0.8250437499999990  0.2881597100000022  0.3539241799999999
  0.5221541700000003  0.2315893000000031  0.3670485099999965
  0.0631015599999998  0.5251629799999975  0.4667625100000024
  0.4478419599999981  0.9613122900000022  0.4318248100000019
  0.9134113499999970  0.1765925400000015  0.4127520600000025
  0.1963270600000016  0.1986371300000016  0.6342516400000022
  0.2238982900000011  0.5594231899999969  0.5961436099999986
  0.7292346999999992  0.2005343300000035  0.4767454300000011
  0.2560965099999990  0.8309567499999986  0.5004209700000004
  0.0698784599999982  0.7212533300000032  0.6186551600000030
  0.9119365199999976  0.9140400100000008  0.6128526199999982
  0.8139827800000035  0.5315244499999991  0.5649721300000010
  0.3283833099999995  0.5075889700000005  0.3495506200000023
  0.9864160099999992  0.4052768700000016  0.5441632799999994
  0.1220919300000034  0.9940520999999976  0.5033672499999966
  0.2537964599999967  0.4213636200000010  0.4437525499999992
  0.8689539000000011  0.5330809299999970  0.3959496900000019
  0.8349711700000029  0.9025016000000008  0.3723557100000008
  0.2429838400000008  0.3065016199999988  0.5466832099999976
  0.5010071999999965  0.2418754500000020  0.5024374699999967
  0.4589135900000016  0.7894030200000017  0.5420302400000026
  0.5185755799999967  0.8548846999999995  0.3575302100000002
  0.5187203199999999  0.5234069099999985  0.5058184299999979
  0.8595946200000029  0.7654317599999985  0.5175917600000020
  0.5288277399999970  0.2409418000000016  0.5956160799999992
  0.1503222600000029  0.0738011899999975  0.3307578300000031
  0.9744331200000005  0.9469939299999979  0.3410077799999982
  0.3771005299999999  0.2229187399999972  0.3364403699999983
  0.3259225299999997  0.3457288000000034  0.3317596099999989
  0.1019033099999973  0.6480096200000034  0.3145190500000012
  0.1692147899999981  0.7942918600000013  0.3458660800000004
  0.2852075699999972  0.1316839400000021  0.4314424499999987
  0.2245814400000015  0.2429436500000008  0.4356020199999975
  0.6291063399999999  0.9790241700000024  0.5608466899999982
  0.6477026000000023  0.1296547700000019  0.5817985199999995
  0.8660659499999994  0.3977806600000022  0.3645961499999970
  0.8410387600000035  0.2803678499999975  0.3220644000000021
  0.6104579699999988  0.2256878600000007  0.3556137100000001
  0.4547634999999985  0.1373405699999992  0.3831165799999994
  0.0203151600000027  0.4647568800000030  0.4945177399999992
  0.9817060199999972  0.5123120299999968  0.4472304700000009
  0.5460404700000012  0.0399164299999981  0.4437112800000023
  0.3732864799999973  0.9044717499999990  0.4551508899999988
  0.0084172500000008  0.2332646400000016  0.4312117500000028
  0.8933633799999967  0.2337144199999983  0.3896231800000010
  0.1084496100000010  0.0977400100000025  0.6286381000000034
  0.1478001799999973  0.2363395699999984  0.6535948699999992
  0.3153185999999977  0.6291197600000018  0.5779235600000021
  0.1854143799999974  0.6313778100000036  0.6055037900000002
  0.8120844700000021  0.2022277299999971  0.4587192299999998
  0.7068942699999994  0.1400228899999973  0.5039226299999982
  0.1786003300000019  0.7362390199999993  0.4888214099999999
  0.2154245600000024  0.9075203000000016  0.5034642299999987
  0.0646921100000029  0.8138549499999996  0.6235366000000013
  0.9820725399999972  0.6638349500000018  0.5995161499999995
  0.8317118900000011  0.8137958800000007  0.6208394200000029
  0.9133618500000011  0.9275518500000004  0.5815346300000002
  0.7227348300000003  0.4425937199999979  0.5741417400000017
  0.8805855800000018  0.4872934599999965  0.5519787899999997
  0.2498249400000034  0.5074324200000007  0.3291420199999990
  0.4046780600000019  0.6170412700000014  0.3528968999999975
  0.0926909699999996  0.4460380900000018  0.5558909700000001
  0.9229543399999969  0.2897942199999974  0.5490468100000001
  0.1331370999999990  0.0392260400000026  0.4746195800000024
  0.0126809300000019  0.9073501499999992  0.5056062999999966
  0.1919732400000029  0.4702477800000011  0.4535806299999976
  0.2622535100000007  0.4454766100000001  0.4121778299999974
  0.9269171700000030  0.6227855799999986  0.3755720600000032
  0.7563419700000011  0.4972766899999996  0.3942073099999988
  0.8657505799999967  0.9871217500000000  0.3933252599999975
  0.7328034700000003  0.8781685000000010  0.3662421000000009
  0.2055889900000025  0.1997292699999988  0.5385359599999973
  0.2352856199999991  0.3077462899999972  0.5785749599999974
  0.5188204499999998  0.3478171599999982  0.5020754600000004
  0.5940516400000035  0.2471415099999987  0.4933328099999983
  0.4739851599999980  0.7232939100000024  0.5213002899999992
  0.3766104199999987  0.8042592500000012  0.5274350299999995
  0.4566658899999965  0.8761988400000007  0.3362890399999969
  0.4686575899999994  0.8559355800000006  0.3854560199999995
  0.4263370600000016  0.4454003499999999  0.5220989099999969
  0.4831765300000015  0.5218491600000021  0.4757641100000001
  0.8430563900000010  0.6804756000000012  0.5379220000000018
  0.7584383800000012  0.7143159800000021  0.5043097200000020
  0.4513618100000016  0.2377758599999993  0.6132511200000010
  0.4948541099999986  0.2185999599999988  0.5656439500000019
  0.6683875100000023  0.5842099999999988  0.2980490699999976
  0.6678522699999974  0.5875136499999982  0.3371093700000003
 
  0.00000000E+00  0.00000000E+00  0.00000000E+00
  0.00000000E+00  0.00000000E+00  0.00000000E+00
  0.00000000E+00  0.00000000E+00  0.00000000E+00
  0.00000000E+00  0.00000000E+00  0.00000000E+00
  0.00000000E+00  0.00000000E+00  0.00000000E+00
  0.00000000E+00  0.00000000E+00  0.00000000E+00
  0.00000000E+00  0.00000000E+00  0.00000000E+00
  0.00000000E+00  0.00000000E+00  0.00000000E+00
  0.00000000E+00  0.00000000E+00  0.00000000E+00
  0.00000000E+00  0.00000000E+00  0.00000000E+00
  0.00000000E+00  0.00000000E+00  0.00000000E+00
  0.00000000E+00  0.00000000E+00  0.00000000E+00
  0.00000000E+00  0.00000000E+00  0.00000000E+00
  0.00000000E+00  0.00000000E+00  0.00000000E+00
  0.00000000E+00  0.00000000E+00  0.00000000E+00
  0.00000000E+00  0.00000000E+00  0.00000000E+00
  0.00000000E+00  0.00000000E+00  0.00000000E+00
  0.00000000E+00  0.00000000E+00  0.00000000E+00
  0.00000000E+00  0.00000000E+00  0.00000000E+00
  0.00000000E+00  0.00000000E+00  0.00000000E+00
  0.00000000E+00  0.00000000E+00  0.00000000E+00
  0.00000000E+00  0.00000000E+00  0.00000000E+00
  0.00000000E+00  0.00000000E+00  0.00000000E+00
  0.00000000E+00  0.00000000E+00  0.00000000E+00
  0.00000000E+00  0.00000000E+00  0.00000000E+00
  0.00000000E+00  0.00000000E+00  0.00000000E+00
  0.00000000E+00  0.00000000E+00  0.00000000E+00
  0.00000000E+00  0.00000000E+00  0.00000000E+00
  0.00000000E+00  0.00000000E+00  0.00000000E+00
  0.00000000E+00  0.00000000E+00  0.00000000E+00
  0.00000000E+00  0.00000000E+00  0.00000000E+00
  0.00000000E+00  0.00000000E+00  0.00000000E+00
  0.00000000E+00  0.00000000E+00  0.00000000E+00
  0.00000000E+00  0.00000000E+00  0.00000000E+00
  0.00000000E+00  0.00000000E+00  0.00000000E+00
  0.00000000E+00  0.00000000E+00  0.00000000E+00
  0.00000000E+00  0.00000000E+00  0.00000000E+00
  0.00000000E+00  0.00000000E+00  0.00000000E+00
  0.00000000E+00  0.00000000E+00  0.00000000E+00
  0.00000000E+00  0.00000000E+00  0.00000000E+00
  0.00000000E+00  0.00000000E+00  0.00000000E+00
  0.00000000E+00  0.00000000E+00  0.00000000E+00
  0.00000000E+00  0.00000000E+00  0.00000000E+00
  0.00000000E+00  0.00000000E+00  0.00000000E+00
  0.00000000E+00  0.00000000E+00  0.00000000E+00
  0.00000000E+00  0.00000000E+00  0.00000000E+00
  0.00000000E+00  0.00000000E+00  0.00000000E+00
  0.00000000E+00  0.00000000E+00  0.00000000E+00
  0.00000000E+00  0.00000000E+00  0.00000000E+00
  0.00000000E+00  0.00000000E+00  0.00000000E+00
  0.00000000E+00  0.00000000E+00  0.00000000E+00
  0.00000000E+00  0.00000000E+00  0.00000000E+00
  0.00000000E+00  0.00000000E+00  0.00000000E+00
  0.00000000E+00  0.00000000E+00  0.00000000E+00
  0.00000000E+00  0.00000000E+00  0.00000000E+00
  0.00000000E+00  0.00000000E+00  0.00000000E+00
  0.00000000E+00  0.00000000E+00  0.00000000E+00
  0.00000000E+00  0.00000000E+00  0.00000000E+00
  0.00000000E+00  0.00000000E+00  0.00000000E+00
  0.00000000E+00  0.00000000E+00  0.00000000E+00
  0.00000000E+00  0.00000000E+00  0.00000000E+00
  0.00000000E+00  0.00000000E+00  0.00000000E+00
  0.00000000E+00  0.00000000E+00  0.00000000E+00
  0.00000000E+00  0.00000000E+00  0.00000000E+00
  0.00000000E+00  0.00000000E+00  0.00000000E+00
  0.00000000E+00  0.00000000E+00  0.00000000E+00
  0.00000000E+00  0.00000000E+00  0.00000000E+00
  0.00000000E+00  0.00000000E+00  0.00000000E+00
  0.00000000E+00  0.00000000E+00  0.00000000E+00
  0.00000000E+00  0.00000000E+00  0.00000000E+00
  0.00000000E+00  0.00000000E+00  0.00000000E+00
  0.00000000E+00  0.00000000E+00  0.00000000E+00
  0.00000000E+00  0.00000000E+00  0.00000000E+00
  0.00000000E+00  0.00000000E+00  0.00000000E+00
  0.00000000E+00  0.00000000E+00  0.00000000E+00
  0.00000000E+00  0.00000000E+00  0.00000000E+00
  0.00000000E+00  0.00000000E+00  0.00000000E+00
  0.00000000E+00  0.00000000E+00  0.00000000E+00
  0.00000000E+00  0.00000000E+00  0.00000000E+00
  0.00000000E+00  0.00000000E+00  0.00000000E+00
  0.00000000E+00  0.00000000E+00  0.00000000E+00
  0.00000000E+00  0.00000000E+00  0.00000000E+00
  0.00000000E+00  0.00000000E+00  0.00000000E+00
  0.00000000E+00  0.00000000E+00  0.00000000E+00
  0.00000000E+00  0.00000000E+00  0.00000000E+00
  0.00000000E+00  0.00000000E+00  0.00000000E+00
  0.00000000E+00  0.00000000E+00  0.00000000E+00
  0.00000000E+00  0.00000000E+00  0.00000000E+00
  0.00000000E+00  0.00000000E+00  0.00000000E+00
  0.00000000E+00  0.00000000E+00  0.00000000E+00
  0.00000000E+00  0.00000000E+00  0.00000000E+00
  0.00000000E+00  0.00000000E+00  0.00000000E+00
  0.00000000E+00  0.00000000E+00  0.00000000E+00
  0.00000000E+00  0.00000000E+00  0.00000000E+00
  0.00000000E+00  0.00000000E+00  0.00000000E+00
  0.00000000E+00  0.00000000E+00  0.00000000E+00
  0.00000000E+00  0.00000000E+00  0.00000000E+00
  0.00000000E+00  0.00000000E+00  0.00000000E+00
  0.00000000E+00  0.00000000E+00  0.00000000E+00
  0.00000000E+00  0.00000000E+00  0.00000000E+00
  0.00000000E+00  0.00000000E+00  0.00000000E+00
  0.00000000E+00  0.00000000E+00  0.00000000E+00
  0.00000000E+00  0.00000000E+00  0.00000000E+00
  0.00000000E+00  0.00000000E+00  0.00000000E+00
  0.00000000E+00  0.00000000E+00  0.00000000E+00
  0.00000000E+00  0.00000000E+00  0.00000000E+00
  0.00000000E+00  0.00000000E+00  0.00000000E+00
  0.00000000E+00  0.00000000E+00  0.00000000E+00
  0.00000000E+00  0.00000000E+00  0.00000000E+00
  0.00000000E+00  0.00000000E+00  0.00000000E+00
  0.00000000E+00  0.00000000E+00  0.00000000E+00
  0.00000000E+00  0.00000000E+00  0.00000000E+00
  0.00000000E+00  0.00000000E+00  0.00000000E+00
  0.00000000E+00  0.00000000E+00  0.00000000E+00
  0.00000000E+00  0.00000000E+00  0.00000000E+00
  0.00000000E+00  0.00000000E+00  0.00000000E+00
  0.00000000E+00  0.00000000E+00  0.00000000E+00
  0.00000000E+00  0.00000000E+00  0.00000000E+00
  0.00000000E+00  0.00000000E+00  0.00000000E+00
  0.00000000E+00  0.00000000E+00  0.00000000E+00
  0.00000000E+00  0.00000000E+00  0.00000000E+00
  0.00000000E+00  0.00000000E+00  0.00000000E+00
  0.00000000E+00  0.00000000E+00  0.00000000E+00
  0.00000000E+00  0.00000000E+00  0.00000000E+00
  0.00000000E+00  0.00000000E+00  0.00000000E+00
  0.00000000E+00  0.00000000E+00  0.00000000E+00
  0.00000000E+00  0.00000000E+00  0.00000000E+00
  0.00000000E+00  0.00000000E+00  0.00000000E+00
  0.00000000E+00  0.00000000E+00  0.00000000E+00
  0.00000000E+00  0.00000000E+00  0.00000000E+00
  0.00000000E+00  0.00000000E+00  0.00000000E+00
  0.00000000E+00  0.00000000E+00  0.00000000E+00
  0.00000000E+00  0.00000000E+00  0.00000000E+00
  0.00000000E+00  0.00000000E+00  0.00000000E+00
  0.00000000E+00  0.00000000E+00  0.00000000E+00
  0.00000000E+00  0.00000000E+00  0.00000000E+00
  0.00000000E+00  0.00000000E+00  0.00000000E+00
  0.00000000E+00  0.00000000E+00  0.00000000E+00
  0.00000000E+00  0.00000000E+00  0.00000000E+00
  0.00000000E+00  0.00000000E+00  0.00000000E+00
  0.00000000E+00  0.00000000E+00  0.00000000E+00
  0.00000000E+00  0.00000000E+00  0.00000000E+00
  0.00000000E+00  0.00000000E+00  0.00000000E+00
  0.00000000E+00  0.00000000E+00  0.00000000E+00
  0.00000000E+00  0.00000000E+00  0.00000000E+00
  0.00000000E+00  0.00000000E+00  0.00000000E+00
  0.00000000E+00  0.00000000E+00  0.00000000E+00
  0.00000000E+00  0.00000000E+00  0.00000000E+00
  0.00000000E+00  0.00000000E+00  0.00000000E+00
  0.00000000E+00  0.00000000E+00  0.00000000E+00
  0.00000000E+00  0.00000000E+00  0.00000000E+00
  0.00000000E+00  0.00000000E+00  0.00000000E+00
  0.00000000E+00  0.00000000E+00  0.00000000E+00
  0.00000000E+00  0.00000000E+00  0.00000000E+00
  0.00000000E+00  0.00000000E+00  0.00000000E+00
  0.00000000E+00  0.00000000E+00  0.00000000E+00
