Ni_O                                    
           1
    10.118500    0.000000    0.000000
    -5.059250    8.762878    0.000000
     0.000000    0.000000   30.484400
   Cu   O    H    C    O 
  64  30  60   1   1
Direct
   0.44682445  0.09237821  0.11228818
   0.94710431  0.59591337  0.11457445
   0.69416604  0.34187909  0.11545660
   0.19315262  0.84367411  0.11565973
   0.18460334  0.58878785  0.11883599
   0.43407423  0.34561356  0.11308216
   0.18823518  0.08520478  0.11668691
   0.44309986  0.85429534  0.11328469
   0.93852409  0.34191195  0.11549386
   0.19196128  0.34120275  0.11433672
   0.69232736  0.09656042  0.11509544
   0.68142501  0.83638112  0.11476105
   0.70507126  0.60670280  0.11568870
   0.44335266  0.59097445  0.11138799
   0.94337592  0.84500205  0.11502802
   0.93561923  0.08415781  0.11526043
   0.36914407  0.18183930  0.17777033
   0.86684234  0.42772259  0.17785559
   0.10774605  0.67492389  0.18372631
   0.36182027  0.92971523  0.18001073
   0.62416881  0.18725052  0.17856427
   0.61699409  0.43808969  0.17883191
   0.11215085  0.41660356  0.18148210
   0.85070852  0.67005119  0.18081590
   0.11081426  0.93243710  0.18378705
   0.35822624  0.42718763  0.18320612
   0.36329978  0.69444908  0.17991812
   0.10708222  0.16750639  0.18345144
   0.62653951  0.93702668  0.17895624
   0.86374536  0.18223774  0.17990783
   0.60900622  0.67676996  0.17628224
   0.86332778  0.92719795  0.18121684
   0.52773833  0.27026459  0.24597483
   0.27147285  0.99892277  0.24826951
   0.02650419  0.75554515  0.24549717
   0.52748257  0.02750388  0.24376711
   0.02473790  0.50486896  0.24660031
   0.77911380  0.51324767  0.24709094
   0.28529761  0.76816231  0.24628565
   0.77095380  0.26606193  0.24878320
   0.28621318  0.25562195  0.24738167
   0.28560124  0.51423950  0.24388858
   0.04124223  0.27454453  0.25369330
   0.52023222  0.51321710  0.24858329
   0.52720210  0.77003664  0.24667720
   0.03654318  0.01851636  0.25324243
   0.78874159  0.02347570  0.24455190
   0.78181816  0.76491712  0.24902864
   0.50516998  0.25522000  0.04592216
   0.25519003  0.00525000  0.04592216
   0.00521000  0.75524000  0.04592216
   0.50515997  0.00527000  0.04592216
   0.00512998  0.50519999  0.04592216
   0.75522998  0.50526997  0.04592216
   0.25512001  0.75525997  0.04592216
   0.75509999  0.25529000  0.04592216
   0.25525001  0.25516000  0.04592216
   0.25513999  0.50516995  0.04592216
   0.00526000  0.25527000  0.04592216
   0.50518000  0.50516995  0.04592216
   0.50511001  0.75520000  0.04592216
   0.00518000  0.00522000  0.04592216
   0.75517000  0.00524000  0.04592216
   0.75518999  0.75517998  0.04592216
   0.05989672  0.97955939  0.31900469
   0.30614206  0.24867022  0.32329306
   0.12479722  0.68289178  0.34621234
   0.19045983  0.13351133  0.42427557
   0.69853824  0.08998343  0.56391809
   0.82504375  0.28815971  0.35392418
   0.52215417  0.23158930  0.36704851
   0.06310156  0.52516298  0.46676251
   0.44784196  0.96131229  0.43182481
   0.91341135  0.17659254  0.41275206
   0.19632706  0.19863713  0.63425164
   0.22389829  0.55942319  0.59614361
   0.72923470  0.20053433  0.47674543
   0.25609651  0.83095675  0.50042097
   0.06987846  0.72125333  0.61865516
   0.91193652  0.91404001  0.61285262
   0.81398278  0.53152445  0.56497213
   0.32838331  0.50758897  0.34955062
   0.98641601  0.40527687  0.54416328
   0.12209193  0.99405210  0.50336725
   0.25379646  0.42136362  0.44375255
   0.86895390  0.53308093  0.39594969
   0.83497117  0.90250160  0.37235571
   0.24298384  0.30650162  0.54668321
   0.50100720  0.24187545  0.50243747
   0.45891359  0.78940302  0.54203024
   0.51857558  0.85488470  0.35753021
   0.51872032  0.52340691  0.50581843
   0.85959462  0.76543176  0.51759176
   0.52882774  0.24094180  0.59561608
   0.15032226  0.07380119  0.33075783
   0.97443312  0.94699393  0.34100778
   0.37710053  0.22291874  0.33644037
   0.32592253  0.34572880  0.33175961
   0.10190331  0.64800962  0.31451905
   0.16921479  0.79429186  0.34586608
   0.28520757  0.13168394  0.43144245
   0.22458144  0.24294365  0.43560202
   0.62910634  0.97902417  0.56084669
   0.64770260  0.12965477  0.58179852
   0.86606595  0.39778066  0.36459615
   0.84103876  0.28036785  0.32206440
   0.61045797  0.22568786  0.35561371
   0.45476350  0.13734057  0.38311658
   0.02031516  0.46475688  0.49451774
   0.98170602  0.51231203  0.44723047
   0.54604047  0.03991643  0.44371128
   0.37328648  0.90447175  0.45515089
   0.00841725  0.23326464  0.43121175
   0.89336338  0.23371442  0.38962318
   0.10844961  0.09774001  0.62863810
   0.14780018  0.23633957  0.65359487
   0.31531860  0.62911976  0.57792356
   0.18541438  0.63137781  0.60550379
   0.81208447  0.20222773  0.45871923
   0.70689427  0.14002289  0.50392263
   0.17860033  0.73623902  0.48882141
   0.21542456  0.90752030  0.50346423
   0.06469211  0.81385495  0.62353660
   0.98207254  0.66383495  0.59951615
   0.83171189  0.81379588  0.62083942
   0.91336185  0.92755185  0.58153463
   0.72273483  0.44259372  0.57414174
   0.88058558  0.48729346  0.55197879
   0.24982494  0.50743242  0.32914202
   0.40467806  0.61704127  0.35289690
   0.09269097  0.44603809  0.55589097
   0.92295434  0.28979422  0.54904681
   0.13313710  0.03922604  0.47461958
   0.01268093  0.90735015  0.50560630
   0.19197324  0.47024778  0.45358063
   0.26225351  0.44547661  0.41217783
   0.92691717  0.62278558  0.37557206
   0.75634197  0.49727669  0.39420731
   0.86575058  0.98712175  0.39332526
   0.73280347  0.87816850  0.36624210
   0.20558899  0.19972927  0.53853596
   0.23528562  0.30774629  0.57857496
   0.51882045  0.34781716  0.50207546
   0.59405164  0.24714151  0.49333281
   0.47398516  0.72329391  0.52130029
   0.37661042  0.80425925  0.52743503
   0.45666589  0.87619884  0.33628904
   0.46865759  0.85593558  0.38545602
   0.42633706  0.44540035  0.52209891
   0.48317653  0.52184916  0.47576411
   0.84305639  0.68047560  0.53792200
   0.75843838  0.71431598  0.50430972
   0.45136181  0.23777586  0.61325112
   0.49485411  0.21859996  0.56564395
   0.66838751  0.58421000  0.29804907
   0.66785227  0.58751365  0.33710937
