Fe                                      
   1.00000000000000     
    11.2207002639999995    0.0000000000000000    0.0000000000000000
     0.0000000000000000    7.9341998100000000    0.0000000000000000
     0.0000000000000000    0.0000000000000000   15.9506998061999994
   Fe   H 
    64     1
Selective dynamics
Direct
  0.0000000000000000  0.2500000000000000  0.0000000000000000   F   F   F
  0.2500000000000000  0.2500000000000000  0.0000000000000000   F   F   F
  0.0000000000000000  0.0000000000000000  0.1243600000000029   F   F   F
  0.2500000000000000  0.0000000000000000  0.1243600000000029   F   F   F
  0.0000707740081691  0.2499475668201460  0.2505575180633220   T   T   T
  0.2502324252769675  0.2500432391389288  0.2505943744954975   T   T   T
  0.0000867247629966  0.0014375714698357  0.3748946452115090   T   T   T
  0.2503896797465140  0.0000456804316836  0.3752776704921817   T   T   T
  0.1250000000000000  0.0000000000000000  0.0000000000000000   F   F   F
  0.3750000000000000  0.0000000000000000  0.0000000000000000   F   F   F
  0.1250000000000000  0.2500000000000000  0.1243600000000029   F   F   F
  0.3750000000000000  0.2500000000000000  0.1243600000000029   F   F   F
  0.1250983088016645  0.0002280098545509  0.2505649346655898   T   T   T
  0.3751954586350310 -0.0002718585008897  0.2505830876978687   T   T   T
  0.1253484805631395  0.2497959828929768  0.3750670584393958   T   T   T
  0.3754322616467842  0.2496868738890115  0.3748656673177952   T   T   T
  0.5000000000000000  0.2500000000000000  0.0000000000000000   F   F   F
  0.7500000000000000  0.2500000000000000  0.0000000000000000   F   F   F
  0.5000000000000000  0.0000000000000000  0.1243600000000029   F   F   F
  0.7500000000000000  0.0000000000000000  0.1243600000000029   F   F   F
  0.5001003432113305  0.2498253275219739  0.2504570778489548   T   T   T
  0.7499528837972340  0.2500291133466535  0.2506121791972437   T   T   T
  0.5000938961225389 -0.0008337816688675  0.3756054544150543   T   T   T
  0.7498105446041444  0.0000781196912329  0.3752899296197320   T   T   T
  0.6250000000000000  0.0000000000000000  0.0000000000000000   F   F   F
  0.8750000000000000  0.0000000000000000  0.0000000000000000   F   F   F
  0.6250000000000000  0.2500000000000000  0.1243600000000029   F   F   F
  0.8750000000000000  0.2500000000000000  0.1243600000000029   F   F   F
  0.6249590199258198 -0.0002529811764903  0.2505906792897349   T   T   T
  0.8750089032842970  0.0002443511257959  0.2505551578094803   T   T   T
  0.6247673438759551  0.2496680707574293  0.3749109411636756   T   T   T
  0.8749256128628604  0.2497933285550832  0.3751393815672497   T   T   T
  0.0000000000000000  0.7500000000000000  0.0000000000000000   F   F   F
  0.2500000000000000  0.7500000000000000  0.0000000000000000   F   F   F
  0.0000000000000000  0.5000000000000000  0.1243600000000029   F   F   F
  0.2500000000000000  0.5000000000000000  0.1243600000000029   F   F   F
  0.0000518280494924  0.7499611589124894  0.2504337193557697   T   T   T
  0.2497613033948920  0.7498108199073279  0.2510315009215556   T   T   T
  0.0000961230214419  0.4978277807598973  0.3751743276912464   T   T   T
  0.2504828335300174  0.5005540235185939  0.3751811450005732   T   T   T
  0.1250000000000000  0.5000000000000000  0.0000000000000000   F   F   F
  0.3750000000000000  0.5000000000000000  0.0000000000000000   F   F   F
  0.1250000000000000  0.7500000000000000  0.1243600000000029   F   F   F
  0.3750000000000000  0.7500000000000000  0.1243600000000029   F   F   F
  0.1250984993114564  0.4999603141166702  0.2507162875702573   T   T   T
  0.3751724951103526  0.5001993317916487  0.2505873536060005   T   T   T
  0.1253064106477850  0.7504799805722551  0.3758936841413215   T   T   T
  0.3745709776125647  0.7500524579783331  0.3754966604236915   T   T   T
  0.5000000000000000  0.7500000000000000  0.0000000000000000   F   F   F
  0.7500000000000000  0.7500000000000000  0.0000000000000000   F   F   F
  0.5000000000000000  0.5000000000000000  0.1243600000000029   F   F   F
  0.7500000000000000  0.5000000000000000  0.1243600000000029   F   F   F
  0.5000677644891084  0.7499674941559394  0.2506775705546008   T   T   T
  0.7503095165733191  0.7498159898547068  0.2510480092652589   T   T   T
  0.5001095784835743  0.5005470673657785  0.3753413953638111   T   T   T
  0.7496897785121975  0.5005229503863241  0.3751997921624373   T   T   T
  0.6250000000000000  0.5000000000000000  0.0000000000000000   F   F   F
  0.8750000000000000  0.5000000000000000  0.0000000000000000   F   F   F
  0.6250000000000000  0.7500000000000000  0.1243600000000029   F   F   F
  0.8750000000000000  0.7500000000000000  0.1243600000000029   F   F   F
  0.6249778467587918  0.5001962645534679  0.2505949943238368   T   T   T
  0.8749853864380521  0.4999651652687214  0.2507362938828665   T   T   T
  0.6256139028763708  0.7500577601649253  0.3755579719529239   T   T   T
  0.8749297485420786  0.7505238167119391  0.3759064655488621   T   T   T
  0.0003793456920824  0.8151095000185093  0.4364379747162800   T   T   T
 
  0.00000000E+00  0.00000000E+00  0.00000000E+00
  0.00000000E+00  0.00000000E+00  0.00000000E+00
  0.00000000E+00  0.00000000E+00  0.00000000E+00
  0.00000000E+00  0.00000000E+00  0.00000000E+00
  0.00000000E+00  0.00000000E+00  0.00000000E+00
  0.00000000E+00  0.00000000E+00  0.00000000E+00
  0.00000000E+00  0.00000000E+00  0.00000000E+00
  0.00000000E+00  0.00000000E+00  0.00000000E+00
  0.00000000E+00  0.00000000E+00  0.00000000E+00
  0.00000000E+00  0.00000000E+00  0.00000000E+00
  0.00000000E+00  0.00000000E+00  0.00000000E+00
  0.00000000E+00  0.00000000E+00  0.00000000E+00
  0.00000000E+00  0.00000000E+00  0.00000000E+00
  0.00000000E+00  0.00000000E+00  0.00000000E+00
  0.00000000E+00  0.00000000E+00  0.00000000E+00
  0.00000000E+00  0.00000000E+00  0.00000000E+00
  0.00000000E+00  0.00000000E+00  0.00000000E+00
  0.00000000E+00  0.00000000E+00  0.00000000E+00
  0.00000000E+00  0.00000000E+00  0.00000000E+00
  0.00000000E+00  0.00000000E+00  0.00000000E+00
  0.00000000E+00  0.00000000E+00  0.00000000E+00
  0.00000000E+00  0.00000000E+00  0.00000000E+00
  0.00000000E+00  0.00000000E+00  0.00000000E+00
  0.00000000E+00  0.00000000E+00  0.00000000E+00
  0.00000000E+00  0.00000000E+00  0.00000000E+00
  0.00000000E+00  0.00000000E+00  0.00000000E+00
  0.00000000E+00  0.00000000E+00  0.00000000E+00
  0.00000000E+00  0.00000000E+00  0.00000000E+00
  0.00000000E+00  0.00000000E+00  0.00000000E+00
  0.00000000E+00  0.00000000E+00  0.00000000E+00
  0.00000000E+00  0.00000000E+00  0.00000000E+00
  0.00000000E+00  0.00000000E+00  0.00000000E+00
  0.00000000E+00  0.00000000E+00  0.00000000E+00
  0.00000000E+00  0.00000000E+00  0.00000000E+00
  0.00000000E+00  0.00000000E+00  0.00000000E+00
  0.00000000E+00  0.00000000E+00  0.00000000E+00
  0.00000000E+00  0.00000000E+00  0.00000000E+00
  0.00000000E+00  0.00000000E+00  0.00000000E+00
  0.00000000E+00  0.00000000E+00  0.00000000E+00
  0.00000000E+00  0.00000000E+00  0.00000000E+00
  0.00000000E+00  0.00000000E+00  0.00000000E+00
  0.00000000E+00  0.00000000E+00  0.00000000E+00
  0.00000000E+00  0.00000000E+00  0.00000000E+00
  0.00000000E+00  0.00000000E+00  0.00000000E+00
  0.00000000E+00  0.00000000E+00  0.00000000E+00
  0.00000000E+00  0.00000000E+00  0.00000000E+00
  0.00000000E+00  0.00000000E+00  0.00000000E+00
  0.00000000E+00  0.00000000E+00  0.00000000E+00
  0.00000000E+00  0.00000000E+00  0.00000000E+00
  0.00000000E+00  0.00000000E+00  0.00000000E+00
  0.00000000E+00  0.00000000E+00  0.00000000E+00
  0.00000000E+00  0.00000000E+00  0.00000000E+00
  0.00000000E+00  0.00000000E+00  0.00000000E+00
  0.00000000E+00  0.00000000E+00  0.00000000E+00
  0.00000000E+00  0.00000000E+00  0.00000000E+00
  0.00000000E+00  0.00000000E+00  0.00000000E+00
  0.00000000E+00  0.00000000E+00  0.00000000E+00
  0.00000000E+00  0.00000000E+00  0.00000000E+00
  0.00000000E+00  0.00000000E+00  0.00000000E+00
  0.00000000E+00  0.00000000E+00  0.00000000E+00
  0.00000000E+00  0.00000000E+00  0.00000000E+00
  0.00000000E+00  0.00000000E+00  0.00000000E+00
  0.00000000E+00  0.00000000E+00  0.00000000E+00
  0.00000000E+00  0.00000000E+00  0.00000000E+00
  0.00000000E+00  0.00000000E+00  0.00000000E+00
