  Cu(111)                              
   1.00000000000000     
    10.1184997559000003    0.0000000000000000    0.0000000000000000
    -5.0592498779000001    8.7628778367999995    0.0000000000000000
     0.0000000000000000    0.0000000000000000   30.4844000000000008
   Cu   O    H 
    64    30    60
Selective dynamics
Direct
  0.4203536097077961  0.0881672670336285  0.1157859280628754   T   T   T
  0.9228041093985803  0.5898769165411579  0.1134235406392638   T   T   T
  0.6622440544121702  0.3247991850066165  0.1096301059164651   T   T   T
  0.1819712293055680  0.8461035950092137  0.1175312904414045   T   T   T
  0.1582740397514755  0.5803078736902800  0.1106590864317174   T   T   T
  0.4263483091929442  0.3421372296559335  0.1130301516639979   T   T   T
  0.1692801833554680  0.0737954440996411  0.1147596748723367   T   T   T
  0.4269150449516985  0.8397134709401795  0.1104994946269896   T   T   T
  0.9100897375650426  0.3284931050163449  0.1113417927610443   T   T   T
  0.1693369598470022  0.3368436475484449  0.1160769697439462   T   T   T
  0.6709914827480785  0.0773784437923472  0.1124461206406429   T   T   T
  0.6670958437412647  0.8255335801517402  0.1114337149763568   T   T   T
  0.6671867547158826  0.5835441700591114  0.1138825547427951   T   T   T
  0.4221849253773651  0.5865257402200462  0.1116879796786899   T   T   T
  0.9264431577507743  0.8346107118940085  0.1166936923920648   T   T   T
  0.9202600637813173  0.0753878268603790  0.1115554297727974   T   T   T
  0.3405948835522133  0.1712948869919569  0.1820375744624278   T   T   T
  0.8384225623771532  0.4177037443199905  0.1798637186095698   T   T   T
  0.0877180472648129  0.6632059764511909  0.1809146563467686   T   T   T
  0.3438544305500097  0.9189531470022971  0.1830110078631728   T   T   T
  0.5939135621300161  0.1750283691139218  0.1781692945610688   T   T   T
  0.5927530173269865  0.4109733794039149  0.1790089224574761   T   T   T
  0.0742996996752366  0.4059267340836444  0.1795546172726335   T   T   T
  0.8398292889296018  0.6543194373435409  0.1831778101725021   T   T   T
  0.0976013603168955  0.9258490829161110  0.1829257095255461   T   T   T
  0.3487998026149636  0.4237444930554725  0.1764789682131548   T   T   T
  0.3262113655174184  0.6623625092416788  0.1725523354404705   T   T   T
  0.0963523916729818  0.1660553762362120  0.1824372635884212   T   T   T
  0.5846305013433430  0.8986109598402815  0.1752300187561904   T   T   T
  0.8362191054427779  0.1614954790491120  0.1809912168436865   T   T   T
  0.6033054095905773  0.6698399270029377  0.1758637869292728   T   T   T
  0.8388501384326331  0.9063006389635223  0.1809087371902315   T   T   T
  0.5050371015051746  0.2542838394966010  0.2454213059378767   T   T   T
  0.2587641854708386  0.0051461918463986  0.2527180418060621   T   T   T
  0.9946626501441265  0.7391556968132897  0.2540192789511306   T   T   T
  0.5009467668402258  0.9917143320356638  0.2453460533368922   T   T   T
  0.9951437104414463  0.5082235020801747  0.2485367207292611   T   T   T
  0.7464035346066641  0.4977750455592730  0.2515514175993334   T   T   T
  0.2465663755901234  0.7517099806283227  0.2492124232084675   T   T   T
  0.7573979695301518  0.2503094839542173  0.2499059476746514   T   T   T
  0.2626013121321584  0.2438662274281726  0.2496970478400788   T   T   T
  0.2568080798733136  0.5085783683767153  0.2405530686833767   T   T   T
  0.0021573703540492  0.2464485979381485  0.2480284185890649   T   T   T
  0.5022371898213928  0.5074867600384082  0.2459956783599646   T   T   T
  0.5046870914493056  0.7545543673877384  0.2409033268458191   T   T   T
  0.0209936203440084  0.0074260432183763  0.2483117228890492   T   T   T
  0.7595767344389047  0.0060464392736154  0.2466738032389464   T   T   T
  0.7524764484071531  0.7469840458654710  0.2486262948764322   T   T   T
  0.5051699799999980  0.2552200000000013  0.0459221600000035   F   F   F
  0.2551900300000014  0.0052499999999966  0.0459221600000035   F   F   F
  0.0052099999999982  0.7552400000000006  0.0459221600000035   F   F   F
  0.5051599700000011  0.0052700000000030  0.0459221600000035   F   F   F
  0.0051299799999995  0.5051999900000013  0.0459221600000035   F   F   F
  0.7552299800000029  0.5052699700000005  0.0459221600000035   F   F   F
  0.2551200099999988  0.7552599699999973  0.0459221600000035   F   F   F
  0.7550999899999979  0.2552900000000022  0.0459221600000035   F   F   F
  0.2552500099999975  0.2551599999999965  0.0459221600000035   F   F   F
  0.2551399900000035  0.5051699500000026  0.0459221600000035   F   F   F
  0.0052599999999998  0.2552700000000030  0.0459221600000035   F   F   F
  0.5051800000000028  0.5051699500000026  0.0459221600000035   F   F   F
  0.5051100100000028  0.7552000000000021  0.0459221600000035   F   F   F
  0.0051800000000028  0.0052200000000013  0.0459221600000035   F   F   F
  0.7551699999999997  0.0052400000000006  0.0459221600000035   F   F   F
  0.7551899899999981  0.7551799800000012  0.0459221600000035   F   F   F
  0.1378355203022281  0.1196983238734806  0.3129492702725179   T   T   T
  0.2145141982631969  0.3157300796938354  0.4470596708024155   T   T   T
  0.7105885881184172  0.5882736269475317  0.3526093809361530   T   T   T
  0.5652264205235928  0.2079758035670672  0.3508892400689744   T   T   T
  0.6102622490160726  0.8753287747896897  0.5594703233276125   T   T   T
  0.8386230661086844  0.3348884320649526  0.4422297832902337   T   T   T
  0.6176992082433577  0.9574457655612461  0.3414137245427863   T   T   T
  0.7026005963348922  0.5161991937812772  0.4558349999304727   T   T   T
  0.3721848549639146  0.6323096822703449  0.3486677905973376   T   T   T
  0.6822970788643745  0.0360195184774983  0.4797691819743758   T   T   T
  0.0141017000584470  0.3105544250823247  0.5916717553036637   T   T   T
  0.3017379995722333  0.5724862055569812  0.5554415115097929   T   T   T
  0.3875250847796656  0.0507683879074865  0.4806781013602979   T   T   T
  0.0156775412411324  0.8581771610122737  0.5203934497096661   T   T   T
  0.6915270658979333  0.7895857507454653  0.6447908732776739   T   T   T
  0.7124645146120701  0.6314314027931716  0.5517905458800034   T   T   T
  0.6269977290426855  0.4235031742342679  0.6121311215291463   T   T   T
  0.0252128085212842  0.8874933578532158  0.3682720167709272   T   T   T
  0.8318977316816644  0.3264033626893658  0.6581571713398524   T   T   T
  0.6163338558478890  0.7827292465662311  0.4132300048276179   T   T   T
  0.1242796625203229  0.7518084929260620  0.4579885832134965   T   T   T
  0.8696935049738497  0.4244600877320548  0.3562294637851204   T   T   T
  0.0840841597413085  0.3301780453525943  0.3549571625070965   T   T   T
  0.9945196575553118  0.1378390370166112  0.5073940753338612   T   T   T
  0.4314553630570055  0.2625637237836115  0.4186315738185442   T   T   T
  0.5828368641799542  0.0011477415872196  0.6758782214570407   T   T   T
  0.1986276811159468  0.7700038394828359  0.3448164016525062   T   T   T
  0.1260757011613693  0.5132321390310997  0.4811774219984595   T   T   T
  0.9731825316598620  0.0400232960577880  0.6200328111198476   T   T   T
  0.2897424682483150  0.2061949172212187  0.6756100050233989   T   T   T
  0.1141560896373845  0.0328798224725230  0.3360923758198530   T   T   T
  0.1122289546436599  0.1896535584491577  0.3298988029473497   T   T   T
  0.1698178292329357  0.3182712954639459  0.4195747464726124   T   T   T
  0.3010179211260204  0.3044326548604261  0.4331345205185184   T   T   T
  0.6681455768359521  0.5562349372063140  0.3225836655383516   T   T   T
  0.7953201701773646  0.5612819549574184  0.3503183617765510   T   T   T
  0.5002753532396522  0.1650523245523950  0.3248608944573353   T   T   T
  0.4978593557250530  0.2313109132859157  0.3702551154915139   T   T   T
  0.4978752592837432  0.8102806523645413  0.5589640276060874   T   T   T
  0.6406478096028878  0.9404505468107895  0.5320338091135111   T   T   T
  0.9436148440007889  0.3962155656072310  0.4555852178047491   T   T   T
  0.7909973527331023  0.2368866908990760  0.4545619651952691   T   T   T
  0.6265923993856143  0.9510593154601408  0.3083164201149564   T   T   T
  0.6100321498709336  0.0529985428479876  0.3428043507413543   T   T   T
  0.7413221384287647  0.4456259030769066  0.4470769733880440   T   T   T
  0.6989276076203010  0.5348265073312957  0.4864716186557823   T   T   T
  0.4284760949967610  0.6761301667148687  0.3209842209289666   T   T   T
  0.4576857608351482  0.6608250281033284  0.3713657787949586   T   T   T
  0.7895111460729037  0.0562932863979648  0.4863847888665522   T   T   T
  0.6331584703796262  0.9430569650202489  0.4611257534908277   T   T   T
  0.0219603877727367  0.2273622984757160  0.6040006708994871   T   T   T
  0.1126407437866473  0.4043370006660836  0.5980237853209280   T   T   T
  0.2223816372474972  0.5642643433867088  0.5337507874575786   T   T   T
  0.3290543815884217  0.4986545187102904  0.5433744699967799   T   T   T
  0.4913205693957854  0.0652860276308551  0.4802445447016994   T   T   T
  0.3139419385974921  0.9488568323052257  0.4683946744892924   T   T   T
  0.9114128558850287  0.7755543121791992  0.5232828174047489   T   T   T
  0.0281186938064037  0.9607061312881416  0.5174237877171883   T   T   T
  0.6790590526342524  0.6831487494448223  0.6460291912403680   T   T   T
  0.6728021193687554  0.8057500946647533  0.6147636364681428   T   T   T
  0.6538386068210592  0.5431745579734707  0.5716393200332798   T   T   T
  0.6547548046275922  0.6856027833857189  0.5492504542434226   T   T   T
  0.7192242958086922  0.4203200236739648  0.6215429339028387   T   T   T
  0.5407418336148556  0.3293031703577159  0.6226507433570831   T   T   T
  0.9304954390313651  0.8042594975090072  0.3559619494070171   T   T   T
  0.1041167651244734  0.8580700514994930  0.3620498060967556   T   T   T
  0.8861160951540468  0.3181204393151325  0.6305790597818345   T   T   T
  0.7626144986134985  0.2095899112791995  0.6596236898611488   T   T   T
  0.6781864718086800  0.8541736376783261  0.3884202424415414   T   T   T
  0.6784776158969112  0.7348617396514225  0.4177644395993780   T   T   T
  0.0903376691212294  0.7881946347333029  0.4841597879086974   T   T   T
  0.0412245235742523  0.7251307637960975  0.4377428095653976   T   T   T
  0.8474947709990088  0.3974919120660117  0.3883538777051956   T   T   T
  0.7698538082492267  0.3413018018069163  0.3460230963496280   T   T   T
  0.0065326879451270  0.3637737351293290  0.3531668050114621   T   T   T
  0.1847132571553578  0.4228451267477910  0.3518184119301708   T   T   T
  0.0058786550142670  0.2205621218092664  0.5256982262290117   T   T   T
  0.0578414093190327  0.1902633403850559  0.4792845051908432   T   T   T
  0.5204315841864058  0.3524319398485527  0.4319693549478248   T   T   T
  0.4057300911132781  0.1690508213877316  0.4373399900879895   T   T   T
  0.6062934134364434  0.9269491942000461  0.6637369177789985   T   T   T
  0.4784293825234338  0.9436666398135954  0.6857548877903211   T   T   T
  0.1386897750238883  0.6875790039804660  0.3221696245564648   T   T   T
  0.2638899814119798  0.7347907975571676  0.3594887601466822   T   T   T
  0.1942995202415343  0.4933393952017288  0.4657425143716711   T   T   T
  0.1358793671982627  0.6169031786338822  0.4753503392609736   T   T   T
  0.0022925347767202  0.9945192165708420  0.5964379352851947   T   T   T
  0.8834184749731502  0.9494110720631146  0.6345481798417156   T   T   T
  0.1882057677719881  0.1680739756588805  0.6639912196677338   T   T   T
  0.3038111507006757  0.1220728143679493  0.6855674014127925   T   T   T
 
 -0.14312436E-03  0.16424940E-03  0.12644086E-02
 -0.29086088E-02  0.36863708E-03  0.14168128E-02
 -0.56484154E-03  0.39436773E-03  0.75133191E-05
 -0.94905402E-03 -0.87880768E-03  0.10525381E-02
 -0.10707151E-04 -0.14947196E-02 -0.16946254E-02
  0.20296819E-02  0.22765377E-02 -0.16899478E-02
  0.23309274E-02  0.11586240E-03 -0.55767593E-03
  0.39661764E-04  0.95417894E-04  0.20458001E-02
 -0.36780387E-03 -0.10706622E-02  0.67951085E-03
  0.37956723E-02  0.92695082E-04  0.84559067E-03
 -0.31619808E-02  0.26918750E-03 -0.28070432E-03
  0.50652442E-03 -0.10795167E-02  0.15436997E-03
  0.19408483E-02 -0.27487989E-02  0.21700819E-02
 -0.91879186E-03  0.11523484E-03  0.19338886E-02
  0.63927906E-04 -0.21221552E-02  0.27658636E-02
 -0.32630702E-02 -0.57757815E-02 -0.17711714E-02
  0.40899941E-03  0.77365796E-03  0.55246259E-03
  0.13143187E-02 -0.18670969E-03 -0.24627912E-03
 -0.11451400E-03  0.28511501E-03 -0.53854016E-03
 -0.60239511E-04 -0.53072668E-03 -0.25988482E-02
 -0.88510609E-03 -0.34149714E-02  0.32375270E-02
 -0.65277883E-03  0.18256370E-02  0.27224651E-02
 -0.20843296E-03 -0.77272656E-03  0.34898431E-02
 -0.26249083E-02 -0.23564977E-02 -0.11870888E-02
 -0.36315763E-02 -0.59862510E-03  0.13264296E-02
 -0.75836413E-03 -0.27164096E-02 -0.11031954E-02
 -0.28915151E-03 -0.11068337E-02  0.20504694E-02
  0.71854287E-03  0.53130331E-03 -0.49378337E-03
 -0.12026702E-02 -0.78620172E-04  0.22266129E-02
  0.15690575E-02 -0.14599082E-02  0.57284450E-03
 -0.21665808E-03 -0.11614707E-02  0.77356523E-03
 -0.36434141E-03  0.84674003E-03 -0.88691582E-03
  0.82015640E-04 -0.31271523E-03  0.24250921E-02
  0.33487377E-03  0.44474217E-02 -0.14351324E-02
  0.60257460E-03  0.24224785E-02 -0.31905482E-02
  0.19123654E-02 -0.99337036E-03 -0.29349888E-02
  0.39459320E-02  0.30708975E-02 -0.38782428E-02
 -0.71992340E-03  0.51900261E-03 -0.13565789E-02
 -0.17477985E-02  0.87230886E-03 -0.42244295E-02
 -0.53484611E-04  0.18264946E-02  0.18468004E-02
  0.17295310E-02  0.31980398E-02  0.47482295E-03
  0.13478774E-02 -0.12121550E-02 -0.34527564E-03
 -0.28346416E-02 -0.19869486E-02 -0.24126978E-03
 -0.37021335E-02  0.26902357E-02 -0.18107096E-03
 -0.67010433E-03  0.14100567E-02  0.96216990E-04
  0.37122515E-03  0.28368676E-02  0.21942358E-02
  0.10009252E-02  0.15897547E-02  0.17948446E-02
 -0.22384450E-02 -0.34965592E-02  0.62290698E-02
  0.00000000E+00  0.00000000E+00  0.00000000E+00
  0.00000000E+00  0.00000000E+00  0.00000000E+00
  0.00000000E+00  0.00000000E+00  0.00000000E+00
  0.00000000E+00  0.00000000E+00  0.00000000E+00
  0.00000000E+00  0.00000000E+00  0.00000000E+00
  0.00000000E+00  0.00000000E+00  0.00000000E+00
  0.00000000E+00  0.00000000E+00  0.00000000E+00
  0.00000000E+00  0.00000000E+00  0.00000000E+00
  0.00000000E+00  0.00000000E+00  0.00000000E+00
  0.00000000E+00  0.00000000E+00  0.00000000E+00
  0.00000000E+00  0.00000000E+00  0.00000000E+00
  0.00000000E+00  0.00000000E+00  0.00000000E+00
  0.00000000E+00  0.00000000E+00  0.00000000E+00
  0.00000000E+00  0.00000000E+00  0.00000000E+00
  0.00000000E+00  0.00000000E+00  0.00000000E+00
  0.00000000E+00  0.00000000E+00  0.00000000E+00
 -0.30034746E-02 -0.81937356E-02 -0.63417299E-02
 -0.30223057E-03  0.26941775E-03 -0.47284544E-02
  0.60693541E-02  0.73022609E-04  0.34901726E-02
 -0.38914713E-02  0.11246101E-01  0.39360740E-02
  0.84920613E-02  0.42918432E-02  0.47733458E-02
 -0.40903437E-03 -0.32368616E-02 -0.35791418E-02
  0.89137414E-02 -0.38151962E-02 -0.38598916E-03
 -0.29425213E-03 -0.74328234E-02  0.21514536E-02
  0.61734791E-02 -0.78020826E-02  0.46435325E-02
  0.32506935E-02 -0.73535454E-03  0.10192615E-02
  0.49416012E-02 -0.15092334E-02 -0.14746770E-02
  0.35952866E-02  0.91465309E-03 -0.45593477E-02
 -0.22340862E-02 -0.96801036E-03  0.10792693E-02
  0.89015393E-02 -0.10699454E-02  0.37697185E-02
 -0.26471862E-02  0.29341157E-02 -0.24475768E-02
 -0.68067133E-02  0.33243495E-02 -0.33332184E-02
 -0.17448995E-02  0.29220565E-03  0.10342646E-01
 -0.48462524E-02  0.10770212E-01  0.11666631E-02
  0.33778851E-02  0.62370402E-02  0.41732878E-02
  0.21144055E-03 -0.49832747E-02  0.37675676E-02
 -0.59287364E-02  0.85703404E-02  0.12041948E-02
  0.46598589E-02  0.52762622E-02 -0.29597660E-02
  0.39504989E-02 -0.13186721E-02  0.38012219E-02
  0.95641528E-03  0.75994505E-02  0.10671101E-03
  0.10007069E-01 -0.35417738E-02 -0.20261773E-02
 -0.62099468E-02  0.14544918E-02  0.15809869E-02
 -0.61536736E-02  0.33573488E-02  0.83551060E-02
 -0.25088069E-02  0.20794272E-02 -0.58753755E-02
 -0.33290335E-02 -0.58663279E-02 -0.36954450E-03
 -0.13452183E-02  0.21550156E-02 -0.62207131E-03
  0.15777370E-01  0.97454707E-02 -0.26256058E-03
  0.12476953E-01 -0.16021420E-02 -0.23025457E-01
 -0.73955005E-03 -0.14391767E-01 -0.86486332E-03
  0.16829143E-02  0.19509767E-01  0.12977855E-01
  0.54110387E-02  0.18088866E-02  0.45263368E-02
  0.14116069E-01 -0.43181191E-02  0.26752223E-01
 -0.18193181E-01 -0.13711235E-01 -0.67586381E-02
 -0.73822929E-02  0.45589152E-02  0.25817073E-01
 -0.23522036E-01  0.11610010E-01  0.14629082E-01
 -0.88988413E-02  0.19200712E-01 -0.12539883E-01
  0.21706564E-01  0.13723337E-01 -0.13292935E-01
 -0.35701585E-02  0.27796938E-01 -0.89121388E-03
  0.43179046E-01  0.13054054E-01  0.33006163E-02
  0.38040583E-02  0.16576754E-01 -0.21949082E-01
 -0.41954979E-01 -0.13095213E-01 -0.44316531E-01
  0.40068815E-02  0.94515325E-02 -0.18816765E-01
  0.19606119E-02  0.21337599E-01  0.24814382E-03
  0.16059801E-01 -0.47686099E-02  0.20151484E-01
  0.36173371E-02  0.26611993E-01  0.21013721E-01
  0.55866818E-03  0.44313545E-02  0.29306182E-02
  0.91011830E-02 -0.43811498E-02 -0.80536806E-03
  0.26409485E-01  0.18789496E-01  0.12054735E-01
  0.94227037E-02 -0.75819166E-02 -0.60441520E-02
  0.90072999E-02 -0.97283451E-02  0.26213712E-01
  0.49571424E-02 -0.36225634E-03  0.35166248E-01
 -0.20017425E-01  0.58911572E-02  0.77659242E-03
  0.50131247E-02 -0.16915001E-02 -0.27598574E-01
  0.29192895E-01 -0.12214043E-01 -0.55121529E-03
 -0.23065839E-01 -0.22761322E-01  0.45905863E-02
 -0.38600972E-01 -0.22115776E-01 -0.10554652E-03
 -0.20588817E-02 -0.12166528E-01 -0.45764689E-02
 -0.10579094E-01 -0.34448538E-03 -0.14952881E-01
  0.14071124E-01  0.17412838E-02  0.44992282E-02
  0.27843432E-01 -0.37560664E-02 -0.31943210E-02
  0.13087080E-01 -0.22197503E-01 -0.11007929E-01
  0.14770338E-01  0.61307939E-02 -0.20703987E-01
 -0.70849074E-02 -0.87288230E-02 -0.27631220E-01
  0.98593238E-02 -0.91638364E-02  0.23166089E-01
  0.55231003E-02 -0.67067123E-02 -0.19847865E-02
  0.21372540E-01 -0.18678773E-01  0.18526815E-02
 -0.42686955E-02  0.12982660E-01  0.19925714E-01
 -0.77688427E-02  0.80471355E-03  0.25029481E-01
  0.45891755E-01 -0.35484404E-01 -0.10730808E-02
  0.20486553E-02 -0.72895834E-02 -0.15949201E-01
 -0.33315167E-02  0.10194383E-01  0.77329921E-02
  0.26958573E-01  0.15218664E-01  0.35822569E-01
  0.62914135E-02 -0.87045668E-02  0.13987064E-02
  0.34675369E-02  0.17330703E-01 -0.71998527E-02
  0.54998925E-02 -0.20869655E-01 -0.12046236E-01
  0.12301262E-01  0.39325277E-03 -0.30680163E-01
 -0.36173488E-01  0.25823641E-01 -0.53232831E-01
  0.94975769E-02  0.11104223E-01 -0.59029420E-02
  0.14678030E-01 -0.41127588E-01  0.29859433E-01
  0.33383911E-04  0.12242151E-01  0.12665401E-01
  0.92460069E-02  0.11009541E-01 -0.24826675E-01
  0.28418566E-01  0.16587167E-01  0.31707504E-01
  0.37045196E-02 -0.23594218E-01  0.89757201E-02
  0.62155174E-02 -0.23686650E-01 -0.68293818E-02
  0.80875939E-03  0.13103749E-01  0.14119014E-01
  0.56670593E-02 -0.16213895E-01 -0.18857439E-01
 
           1
   1.00000000000000     
  0.13922848E+00 -0.59073808E-02 -0.78687621E-02  0.14611655E+00
  0.42035361E+00  0.88167267E-01  0.11578593E+00
  0.92280411E+00  0.58987692E+00  0.11342354E+00
  0.66224405E+00  0.32479919E+00  0.10963011E+00
  0.18197123E+00  0.84610360E+00  0.11753129E+00
  0.15827404E+00  0.58030787E+00  0.11065909E+00
  0.42634831E+00  0.34213723E+00  0.11303015E+00
  0.16928018E+00  0.73795444E-01  0.11475967E+00
  0.42691504E+00  0.83971347E+00  0.11049949E+00
  0.91008974E+00  0.32849311E+00  0.11134179E+00
  0.16933696E+00  0.33684365E+00  0.11607697E+00
  0.67099148E+00  0.77378444E-01  0.11244612E+00
  0.66709584E+00  0.82553358E+00  0.11143371E+00
  0.66718675E+00  0.58354417E+00  0.11388255E+00
  0.42218493E+00  0.58652574E+00  0.11168798E+00
  0.92644316E+00  0.83461071E+00  0.11669369E+00
  0.92026006E+00  0.75387827E-01  0.11155543E+00
  0.34059488E+00  0.17129489E+00  0.18203757E+00
  0.83842256E+00  0.41770374E+00  0.17986372E+00
  0.87718047E-01  0.66320598E+00  0.18091466E+00
  0.34385443E+00  0.91895315E+00  0.18301101E+00
  0.59391356E+00  0.17502837E+00  0.17816929E+00
  0.59275302E+00  0.41097338E+00  0.17900892E+00
  0.74299700E-01  0.40592673E+00  0.17955462E+00
  0.83982929E+00  0.65431944E+00  0.18317781E+00
  0.97601360E-01  0.92584908E+00  0.18292571E+00
  0.34879980E+00  0.42374449E+00  0.17647897E+00
  0.32621137E+00  0.66236251E+00  0.17255234E+00
  0.96352392E-01  0.16605538E+00  0.18243726E+00
  0.58463050E+00  0.89861096E+00  0.17523002E+00
  0.83621911E+00  0.16149548E+00  0.18099122E+00
  0.60330541E+00  0.66983993E+00  0.17586379E+00
  0.83885014E+00  0.90630064E+00  0.18090874E+00
  0.50503710E+00  0.25428384E+00  0.24542131E+00
  0.25876419E+00  0.51461918E-02  0.25271804E+00
  0.99466265E+00  0.73915570E+00  0.25401928E+00
  0.50094677E+00  0.99171433E+00  0.24534605E+00
  0.99514371E+00  0.50822350E+00  0.24853672E+00
  0.74640353E+00  0.49777505E+00  0.25155142E+00
  0.24656638E+00  0.75170998E+00  0.24921242E+00
  0.75739797E+00  0.25030948E+00  0.24990595E+00
  0.26260131E+00  0.24386623E+00  0.24969705E+00
  0.25680808E+00  0.50857837E+00  0.24055307E+00
  0.21573704E-02  0.24644860E+00  0.24802842E+00
  0.50223719E+00  0.50748676E+00  0.24599568E+00
  0.50468709E+00  0.75455437E+00  0.24090333E+00
  0.20993620E-01  0.74260432E-02  0.24831172E+00
  0.75957673E+00  0.60464393E-02  0.24667380E+00
  0.75247645E+00  0.74698405E+00  0.24862629E+00
  0.50516998E+00  0.25522000E+00  0.45922160E-01
  0.25519003E+00  0.52500000E-02  0.45922160E-01
  0.52100000E-02  0.75524000E+00  0.45922160E-01
  0.50515997E+00  0.52700000E-02  0.45922160E-01
  0.51299800E-02  0.50519999E+00  0.45922160E-01
  0.75522998E+00  0.50526997E+00  0.45922160E-01
  0.25512001E+00  0.75525997E+00  0.45922160E-01
  0.75509999E+00  0.25529000E+00  0.45922160E-01
  0.25525001E+00  0.25516000E+00  0.45922160E-01
  0.25513999E+00  0.50516995E+00  0.45922160E-01
  0.52600000E-02  0.25527000E+00  0.45922160E-01
  0.50518000E+00  0.50516995E+00  0.45922160E-01
  0.50511001E+00  0.75520000E+00  0.45922160E-01
  0.51800000E-02  0.52200000E-02  0.45922160E-01
  0.75517000E+00  0.52400000E-02  0.45922160E-01
  0.75518999E+00  0.75517998E+00  0.45922160E-01
  0.13783552E+00  0.11969832E+00  0.31294927E+00
  0.21451420E+00  0.31573008E+00  0.44705967E+00
  0.71058859E+00  0.58827363E+00  0.35260938E+00
  0.56522642E+00  0.20797580E+00  0.35088924E+00
  0.61026225E+00  0.87532877E+00  0.55947032E+00
  0.83862307E+00  0.33488843E+00  0.44222978E+00
  0.61769921E+00  0.95744577E+00  0.34141372E+00
  0.70260060E+00  0.51619919E+00  0.45583500E+00
  0.37218485E+00  0.63230968E+00  0.34866779E+00
  0.68229708E+00  0.36019518E-01  0.47976918E+00
  0.14101700E-01  0.31055443E+00  0.59167176E+00
  0.30173800E+00  0.57248621E+00  0.55544151E+00
  0.38752508E+00  0.50768388E-01  0.48067810E+00
  0.15677541E-01  0.85817716E+00  0.52039345E+00
  0.69152707E+00  0.78958575E+00  0.64479087E+00
  0.71246451E+00  0.63143140E+00  0.55179055E+00
  0.62699773E+00  0.42350317E+00  0.61213112E+00
  0.25212809E-01  0.88749336E+00  0.36827202E+00
  0.83189773E+00  0.32640336E+00  0.65815717E+00
  0.61633386E+00  0.78272925E+00  0.41323000E+00
  0.12427966E+00  0.75180849E+00  0.45798858E+00
  0.86969350E+00  0.42446009E+00  0.35622946E+00
  0.84084160E-01  0.33017805E+00  0.35495716E+00
  0.99451966E+00  0.13783904E+00  0.50739408E+00
  0.43145536E+00  0.26256372E+00  0.41863157E+00
  0.58283686E+00  0.11477416E-02  0.67587822E+00
  0.19862768E+00  0.77000384E+00  0.34481640E+00
  0.12607570E+00  0.51323214E+00  0.48117742E+00
  0.97318253E+00  0.40023296E-01  0.62003281E+00
  0.28974247E+00  0.20619492E+00  0.67561001E+00
  0.11415609E+00  0.32879822E-01  0.33609238E+00
  0.11222895E+00  0.18965356E+00  0.32989880E+00
  0.16981783E+00  0.31827130E+00  0.41957475E+00
  0.30101792E+00  0.30443265E+00  0.43313452E+00
  0.66814558E+00  0.55623494E+00  0.32258367E+00
  0.79532017E+00  0.56128195E+00  0.35031836E+00
  0.50027535E+00  0.16505232E+00  0.32486089E+00
  0.49785936E+00  0.23131091E+00  0.37025512E+00
  0.49787526E+00  0.81028065E+00  0.55896403E+00
  0.64064781E+00  0.94045055E+00  0.53203381E+00
  0.94361484E+00  0.39621557E+00  0.45558522E+00
  0.79099735E+00  0.23688669E+00  0.45456197E+00
  0.62659240E+00  0.95105932E+00  0.30831642E+00
  0.61003215E+00  0.52998543E-01  0.34280435E+00
  0.74132214E+00  0.44562590E+00  0.44707697E+00
  0.69892761E+00  0.53482651E+00  0.48647162E+00
  0.42847609E+00  0.67613017E+00  0.32098422E+00
  0.45768576E+00  0.66082503E+00  0.37136578E+00
  0.78951115E+00  0.56293286E-01  0.48638479E+00
  0.63315847E+00  0.94305697E+00  0.46112575E+00
  0.21960388E-01  0.22736230E+00  0.60400067E+00
  0.11264074E+00  0.40433700E+00  0.59802379E+00
  0.22238164E+00  0.56426434E+00  0.53375079E+00
  0.32905438E+00  0.49865452E+00  0.54337447E+00
  0.49132057E+00  0.65286028E-01  0.48024454E+00
  0.31394194E+00  0.94885683E+00  0.46839467E+00
  0.91141286E+00  0.77555431E+00  0.52328282E+00
  0.28118694E-01  0.96070613E+00  0.51742379E+00
  0.67905905E+00  0.68314875E+00  0.64602919E+00
  0.67280212E+00  0.80575009E+00  0.61476364E+00
  0.65383861E+00  0.54317456E+00  0.57163932E+00
  0.65475480E+00  0.68560278E+00  0.54925045E+00
  0.71922430E+00  0.42032002E+00  0.62154293E+00
  0.54074183E+00  0.32930317E+00  0.62265074E+00
  0.93049544E+00  0.80425950E+00  0.35596195E+00
  0.10411677E+00  0.85807005E+00  0.36204981E+00
  0.88611610E+00  0.31812044E+00  0.63057906E+00
  0.76261450E+00  0.20958991E+00  0.65962369E+00
  0.67818647E+00  0.85417364E+00  0.38842024E+00
  0.67847762E+00  0.73486174E+00  0.41776444E+00
  0.90337669E-01  0.78819463E+00  0.48415979E+00
  0.41224524E-01  0.72513076E+00  0.43774281E+00
  0.84749477E+00  0.39749191E+00  0.38835388E+00
  0.76985381E+00  0.34130180E+00  0.34602310E+00
  0.65326879E-02  0.36377374E+00  0.35316681E+00
  0.18471326E+00  0.42284513E+00  0.35181841E+00
  0.58786550E-02  0.22056212E+00  0.52569823E+00
  0.57841409E-01  0.19026334E+00  0.47928451E+00
  0.52043158E+00  0.35243194E+00  0.43196935E+00
  0.40573009E+00  0.16905082E+00  0.43733999E+00
  0.60629341E+00  0.92694919E+00  0.66373692E+00
  0.47842938E+00  0.94366664E+00  0.68575489E+00
  0.13868978E+00  0.68757900E+00  0.32216962E+00
  0.26388998E+00  0.73479080E+00  0.35948876E+00
  0.19429952E+00  0.49333940E+00  0.46574251E+00
  0.13587937E+00  0.61690318E+00  0.47535034E+00
  0.22925348E-02  0.99451922E+00  0.59643794E+00
  0.88341847E+00  0.94941107E+00  0.63454818E+00
  0.18820577E+00  0.16807398E+00  0.66399122E+00
  0.30381115E+00  0.12207281E+00  0.68556740E+00
  0.00000000E+00  0.00000000E+00  0.00000000E+00
  0.00000000E+00  0.00000000E+00  0.00000000E+00
  0.00000000E+00  0.00000000E+00  0.00000000E+00
  0.00000000E+00  0.00000000E+00  0.00000000E+00
  0.00000000E+00  0.00000000E+00  0.00000000E+00
  0.00000000E+00  0.00000000E+00  0.00000000E+00
  0.00000000E+00  0.00000000E+00  0.00000000E+00
  0.00000000E+00  0.00000000E+00  0.00000000E+00
  0.00000000E+00  0.00000000E+00  0.00000000E+00
  0.00000000E+00  0.00000000E+00  0.00000000E+00
  0.00000000E+00  0.00000000E+00  0.00000000E+00
  0.00000000E+00  0.00000000E+00  0.00000000E+00
  0.00000000E+00  0.00000000E+00  0.00000000E+00
  0.00000000E+00  0.00000000E+00  0.00000000E+00
  0.00000000E+00  0.00000000E+00  0.00000000E+00
  0.00000000E+00  0.00000000E+00  0.00000000E+00
  0.00000000E+00  0.00000000E+00  0.00000000E+00
  0.00000000E+00  0.00000000E+00  0.00000000E+00
  0.00000000E+00  0.00000000E+00  0.00000000E+00
  0.00000000E+00  0.00000000E+00  0.00000000E+00
  0.00000000E+00  0.00000000E+00  0.00000000E+00
  0.00000000E+00  0.00000000E+00  0.00000000E+00
  0.00000000E+00  0.00000000E+00  0.00000000E+00
  0.00000000E+00  0.00000000E+00  0.00000000E+00
  0.00000000E+00  0.00000000E+00  0.00000000E+00
  0.00000000E+00  0.00000000E+00  0.00000000E+00
  0.00000000E+00  0.00000000E+00  0.00000000E+00
  0.00000000E+00  0.00000000E+00  0.00000000E+00
  0.00000000E+00  0.00000000E+00  0.00000000E+00
  0.00000000E+00  0.00000000E+00  0.00000000E+00
  0.00000000E+00  0.00000000E+00  0.00000000E+00
  0.00000000E+00  0.00000000E+00  0.00000000E+00
  0.00000000E+00  0.00000000E+00  0.00000000E+00
  0.00000000E+00  0.00000000E+00  0.00000000E+00
  0.00000000E+00  0.00000000E+00  0.00000000E+00
  0.00000000E+00  0.00000000E+00  0.00000000E+00
  0.00000000E+00  0.00000000E+00  0.00000000E+00
  0.00000000E+00  0.00000000E+00  0.00000000E+00
  0.00000000E+00  0.00000000E+00  0.00000000E+00
  0.00000000E+00  0.00000000E+00  0.00000000E+00
  0.00000000E+00  0.00000000E+00  0.00000000E+00
  0.00000000E+00  0.00000000E+00  0.00000000E+00
  0.00000000E+00  0.00000000E+00  0.00000000E+00
  0.00000000E+00  0.00000000E+00  0.00000000E+00
  0.00000000E+00  0.00000000E+00  0.00000000E+00
  0.00000000E+00  0.00000000E+00  0.00000000E+00
  0.00000000E+00  0.00000000E+00  0.00000000E+00
  0.00000000E+00  0.00000000E+00  0.00000000E+00
  0.00000000E+00  0.00000000E+00  0.00000000E+00
  0.00000000E+00  0.00000000E+00  0.00000000E+00
  0.00000000E+00  0.00000000E+00  0.00000000E+00
  0.00000000E+00  0.00000000E+00  0.00000000E+00
  0.00000000E+00  0.00000000E+00  0.00000000E+00
  0.00000000E+00  0.00000000E+00  0.00000000E+00
  0.00000000E+00  0.00000000E+00  0.00000000E+00
  0.00000000E+00  0.00000000E+00  0.00000000E+00
  0.00000000E+00  0.00000000E+00  0.00000000E+00
  0.00000000E+00  0.00000000E+00  0.00000000E+00
  0.00000000E+00  0.00000000E+00  0.00000000E+00
  0.00000000E+00  0.00000000E+00  0.00000000E+00
  0.00000000E+00  0.00000000E+00  0.00000000E+00
  0.00000000E+00  0.00000000E+00  0.00000000E+00
  0.00000000E+00  0.00000000E+00  0.00000000E+00
  0.00000000E+00  0.00000000E+00  0.00000000E+00
  0.00000000E+00  0.00000000E+00  0.00000000E+00