Ni_O                                    
   1.00000000000000     
     9.8292000000000002    0.0000000000000000    0.0000000000000000
     4.9146000000000001    8.5123370000000005    0.0000000000000000
     0.0000000000000000    0.0000000000000000   30.7148000000000003
   Ni   O    H    C    O 
    64    30    60     1     2
Direct
  0.0802165599999967  0.0793980199999993  0.1200073700000033
  0.3331093500000009  0.0789265200000031  0.1187085999999979
  0.3306267800000029  0.8302123300000019  0.1198375399999989
  0.5786067000000017  0.3272240499999981  0.1225832100000019
  0.3228991800000003  0.5866787499999973  0.1178943700000019
  0.3335527400000018  0.3275552300000015  0.1206549999999993
  0.8226670700000014  0.0765315100000024  0.1152625300000025
  0.5842714200000003  0.0753198800000021  0.1194070199999970
  0.8248727900000006  0.3241553599999989  0.1190007100000017
  0.5785532200000034  0.5749960300000012  0.1175552899999985
  0.0815660399999985  0.8358589799999976  0.1246491599999970
  0.5831307199999998  0.8164309200000019  0.1176178999999991
  0.0749352599999966  0.3338362000000004  0.1225712700000017
  0.8380005200000014  0.5758083699999972  0.1194421499999976
  0.0808247599999987  0.5860973999999999  0.1184407900000011
  0.8228360499999994  0.8322030900000001  0.1200265100000024
  0.1667932900000011  0.1623825200000013  0.1854020099999971
  0.1637530300000023  0.9178195699999989  0.1885219199999995
  0.4206800500000014  0.1622590400000021  0.1867282600000024
  0.4239366899999979  0.9136964599999970  0.1872233200000011
  0.4080262599999998  0.4185702500000019  0.1867506999999975
  0.4115069799999986  0.6654003599999996  0.1902918199999988
  0.9132059299999966  0.1620793399999982  0.1881059800000031
  0.6608922599999971  0.1718950899999996  0.1874639199999990
  0.6742726399999981  0.4136699100000030  0.1871275600000004
  0.1685904699999980  0.6597026199999974  0.1908678899999998
  0.9135317200000017  0.4164471799999987  0.1845444400000034
  0.6671418700000018  0.6636986299999990  0.1850786799999966
  0.9090867800000026  0.9133516400000019  0.1898607400000003
  0.6738864499999977  0.9103685700000028  0.1882280600000001
  0.1628494899999993  0.4023418800000016  0.1845115400000026
  0.9173720699999990  0.6621332799999990  0.1878887499999990
  0.2431983399999993  0.0139154399999981  0.2527995000000018
  0.4935842200000025  0.2468918599999981  0.2536267199999998
  0.4948753099999976  0.5030793299999985  0.2551429399999989
  0.2383239700000033  0.2589490000000012  0.2503567799999971
  0.9915362400000021  0.2611616599999991  0.2484289399999966
  0.7398888299999982  0.2607840300000035  0.2598935899999972
  0.4920577299999991  0.7548417499999971  0.2529414299999999
  0.2441645800000032  0.7609169199999997  0.2596442700000026
  0.4948572999999996  0.9987163500000023  0.2523933700000001
  0.9898638499999990  0.0114278100000007  0.2561387100000019
  0.2438760000000002  0.4978283499999989  0.2526010300000010
  0.7353835099999984  0.5035456199999970  0.2510597500000031
  0.7447503699999984  0.0037273700000000  0.2565020899999979
  0.9987619199999997  0.7467070499999977  0.2505997700000009
  0.7592156500000016  0.7429393299999987  0.2583151500000014
  0.0001277100000010  0.4947100999999989  0.2560510400000027
  0.2488099899999980  0.0018900000000031  0.0530725899999993
  0.4986599900000002  0.2520299800000032  0.0530725899999993
  0.4987100700000013  0.5019500100000016  0.0530725899999993
  0.2486699900000033  0.2519600099999977  0.0530725899999993
  0.9988300199999998  0.2520000100000033  0.0530725899999993
  0.7487000499999965  0.2521199999999979  0.0530725899999993
  0.4986899700000009  0.7520999700000033  0.0530725899999993
  0.2487699599999971  0.7521200300000004  0.0530725899999993
  0.4985999800000016  0.0021100000000018  0.0530725899999993
  0.9987700300000029  0.0022099999999980  0.0530725899999993
  0.2487500100000020  0.5021200300000004  0.0530725899999993
  0.7486699900000033  0.5022699800000012  0.0530725899999993
  0.7485900000000001  0.0024500000000032  0.0530725899999993
  0.9987000499999965  0.7524499700000007  0.0530725899999993
  0.7486699299999984  0.7524300299999993  0.0530725899999993
  0.9986899600000001  0.5022000199999965  0.0530725899999993
  0.0025350700000004  0.6985770599999981  0.5878143699999967
  0.5682732599999980  0.7435179000000005  0.5261609800000002
  0.5091869700000018  0.7284786000000025  0.3561871799999992
  0.0383384499999977  0.1799368900000005  0.4227641800000015
  0.4238767800000005  0.0407387699999973  0.3587714499999990
  0.0626394900000022  0.3659154099999995  0.5840918000000030
  0.7672451199999983  0.4008405499999981  0.4261891100000028
  0.1796486300000026  0.5438414199999997  0.3723465599999969
  0.7616059599999971  0.6709563799999998  0.3212400800000026
  0.2847789599999970  0.6754648599999982  0.4919191099999978
  0.0592529799999966  0.9944580900000020  0.3517049299999968
  0.2535554999999974  0.1475892099999996  0.5256616100000002
  0.3600996400000014  0.9748719199999982  0.6090946099999996
  0.6035605900000007  0.2471345900000017  0.4701808599999993
  0.4705212000000003  0.4554907500000027  0.5966283599999969
  0.2843766800000012  0.4082952699999964  0.4468670899999978
  0.7978017300000033  0.6246711599999983  0.4604129100000023
  0.7173566199999968  0.4405175600000035  0.5586306699999994
  0.0927209199999979  0.1695543000000015  0.6712447800000021
  0.5077896000000024  0.1486455399999969  0.5490652200000028
  0.8083025000000035  0.1842205499999992  0.6658923700000017
  0.2366185200000004  0.7533301799999990  0.5872695899999982
  0.8655499600000027  0.7470435099999975  0.3942753400000001
  0.7885003999999967  0.0062443799999983  0.5937497999999977
  0.1178895199999985  0.9889141299999977  0.4860052200000027
  0.0419751100000028  0.5475663499999968  0.5037213199999968
  0.6728358900000018  0.0574167299999999  0.3972183099999995
  0.8492507699999976  0.1283828899999975  0.5263040800000027
  0.2420664699999975  0.7217516999999987  0.3243705399999968
  0.1374534799999978  0.2882396600000021  0.3530115699999996
  0.1012022199999976  0.6965818299999995  0.5952803400000022
  0.0132358800000034  0.6003868999999966  0.5995955499999965
  0.6286629900000023  0.6378483399999979  0.5404262300000013
  0.5150064799999967  0.8207847899999976  0.5484167600000021
  0.4422416999999967  0.8454343499999979  0.3548353899999981
  0.4379272899999975  0.6905489399999993  0.3460008899999991
  0.9262108900000001  0.2659762400000005  0.4231309500000009
  0.0799866799999975  0.2027435400000002  0.3969541399999983
  0.3195486899999977  0.1364176399999977  0.3544666800000016
  0.4731484599999973  0.0333085400000002  0.3305773200000033
  0.0879487200000000  0.3154151100000036  0.6122506600000008
  0.9535917199999986  0.4033281600000009  0.5768858799999990
  0.7637539899999979  0.4983866399999997  0.4368832500000011
  0.7371725100000006  0.4264314300000009  0.3957302700000014
  0.0787223800000021  0.6299148000000017  0.3863839699999971
  0.2532588400000009  0.4958117299999998  0.3975066900000002
  0.6545399199999977  0.7010192500000016  0.3329181900000009
  0.8139924500000006  0.6899134299999972  0.3465715500000002
  0.2462594100000004  0.7813723100000018  0.4801864000000009
  0.3991841100000002  0.6355930200000017  0.4995826999999977
  0.9598049599999996  0.0763965900000017  0.3409406000000033
  0.0440334700000022  0.0245696899999999  0.3820077000000026
  0.3565791400000009  0.1328292299999987  0.5374554500000031
  0.1736597499999988  0.2392981100000000  0.5417842100000030
  0.2943934899999974  0.0237586000000007  0.6339354400000019
  0.3183898799999980  0.0474672499999969  0.5856818900000036
  0.6556761900000012  0.3033143999999979  0.4562789000000009
  0.6186826599999975  0.1600562100000005  0.4513476500000024
  0.3852030099999979  0.5615360299999992  0.5936610299999998
  0.4461410999999984  0.3775770600000001  0.5821601900000033
  0.3816646900000009  0.3919015800000025  0.4608714100000029
  0.2801271299999968  0.3108976899999973  0.4457052200000007
  0.7236482100000003  0.6681451500000009  0.4821209199999998
  0.8994846699999997  0.5716489200000012  0.4751814800000034
  0.7756038599999968  0.3347460800000022  0.5436258399999971
  0.6301764700000021  0.4425911200000030  0.5782595499999985
  0.1093487500000023  0.1913156099999966  0.7014510799999982
  0.0120475000000013  0.1331193799999966  0.6715979700000005
  0.5767683300000002  0.1480972600000001  0.5250132600000015
  0.5829023499999977  0.0821058800000003  0.5717782700000029
  0.8145439099999976  0.0977576000000013  0.6485714100000024
  0.7827100100000024  0.2644356999999999  0.6447432200000023
  0.2630306699999991  0.8324963600000004  0.6008525299999974
  0.2211394899999988  0.7694977600000001  0.5559327599999975
  0.8087551500000032  0.8637406200000015  0.3984811600000029
  0.8375489399999978  0.7059755399999972  0.4200557300000014
  0.8191142000000013  0.0547055099999980  0.5692539900000000
  0.8656290799999979  0.8833426099999997  0.5888809499999965
  0.0943017399999988  0.0510290699999985  0.4567413099999982
  0.1792721699999973  0.0353863699999977  0.5003746900000010
  0.1319371800000013  0.5494498899999982  0.4892427600000033
  0.0340761000000001  0.5976343000000028  0.5329306300000027
  0.6794787299999996  0.1417789699999972  0.3826777600000000
  0.5767399100000006  0.0584772999999998  0.3836229400000022
  0.9575800900000004  0.0777452800000020  0.5144699800000012
  0.7725772300000031  0.1733473000000032  0.5004269900000011
  0.2317506400000013  0.6377180400000029  0.3396630499999986
  0.1573348900000013  0.8322069600000006  0.3390261500000022
  0.0942028400000012  0.3038903300000015  0.3236884599999996
  0.1379663499999992  0.3895511799999980  0.3580650099999971
  0.6819386800000018  0.3302870799999980  0.3165213899999983
  0.5583646199999990  0.4640697399999993  0.3157056000000011
  0.7482259399999975  0.2548921699999980  0.3496632499999990
 
  0.00000000E+00  0.00000000E+00  0.00000000E+00
  0.00000000E+00  0.00000000E+00  0.00000000E+00
  0.00000000E+00  0.00000000E+00  0.00000000E+00
  0.00000000E+00  0.00000000E+00  0.00000000E+00
  0.00000000E+00  0.00000000E+00  0.00000000E+00
  0.00000000E+00  0.00000000E+00  0.00000000E+00
  0.00000000E+00  0.00000000E+00  0.00000000E+00
  0.00000000E+00  0.00000000E+00  0.00000000E+00
  0.00000000E+00  0.00000000E+00  0.00000000E+00
  0.00000000E+00  0.00000000E+00  0.00000000E+00
  0.00000000E+00  0.00000000E+00  0.00000000E+00
  0.00000000E+00  0.00000000E+00  0.00000000E+00
  0.00000000E+00  0.00000000E+00  0.00000000E+00
  0.00000000E+00  0.00000000E+00  0.00000000E+00
  0.00000000E+00  0.00000000E+00  0.00000000E+00
  0.00000000E+00  0.00000000E+00  0.00000000E+00
  0.00000000E+00  0.00000000E+00  0.00000000E+00
  0.00000000E+00  0.00000000E+00  0.00000000E+00
  0.00000000E+00  0.00000000E+00  0.00000000E+00
  0.00000000E+00  0.00000000E+00  0.00000000E+00
  0.00000000E+00  0.00000000E+00  0.00000000E+00
  0.00000000E+00  0.00000000E+00  0.00000000E+00
  0.00000000E+00  0.00000000E+00  0.00000000E+00
  0.00000000E+00  0.00000000E+00  0.00000000E+00
  0.00000000E+00  0.00000000E+00  0.00000000E+00
  0.00000000E+00  0.00000000E+00  0.00000000E+00
  0.00000000E+00  0.00000000E+00  0.00000000E+00
  0.00000000E+00  0.00000000E+00  0.00000000E+00
  0.00000000E+00  0.00000000E+00  0.00000000E+00
  0.00000000E+00  0.00000000E+00  0.00000000E+00
  0.00000000E+00  0.00000000E+00  0.00000000E+00
  0.00000000E+00  0.00000000E+00  0.00000000E+00
  0.00000000E+00  0.00000000E+00  0.00000000E+00
  0.00000000E+00  0.00000000E+00  0.00000000E+00
  0.00000000E+00  0.00000000E+00  0.00000000E+00
  0.00000000E+00  0.00000000E+00  0.00000000E+00
  0.00000000E+00  0.00000000E+00  0.00000000E+00
  0.00000000E+00  0.00000000E+00  0.00000000E+00
  0.00000000E+00  0.00000000E+00  0.00000000E+00
  0.00000000E+00  0.00000000E+00  0.00000000E+00
  0.00000000E+00  0.00000000E+00  0.00000000E+00
  0.00000000E+00  0.00000000E+00  0.00000000E+00
  0.00000000E+00  0.00000000E+00  0.00000000E+00
  0.00000000E+00  0.00000000E+00  0.00000000E+00
  0.00000000E+00  0.00000000E+00  0.00000000E+00
  0.00000000E+00  0.00000000E+00  0.00000000E+00
  0.00000000E+00  0.00000000E+00  0.00000000E+00
  0.00000000E+00  0.00000000E+00  0.00000000E+00
  0.00000000E+00  0.00000000E+00  0.00000000E+00
  0.00000000E+00  0.00000000E+00  0.00000000E+00
  0.00000000E+00  0.00000000E+00  0.00000000E+00
  0.00000000E+00  0.00000000E+00  0.00000000E+00
  0.00000000E+00  0.00000000E+00  0.00000000E+00
  0.00000000E+00  0.00000000E+00  0.00000000E+00
  0.00000000E+00  0.00000000E+00  0.00000000E+00
  0.00000000E+00  0.00000000E+00  0.00000000E+00
  0.00000000E+00  0.00000000E+00  0.00000000E+00
  0.00000000E+00  0.00000000E+00  0.00000000E+00
  0.00000000E+00  0.00000000E+00  0.00000000E+00
  0.00000000E+00  0.00000000E+00  0.00000000E+00
  0.00000000E+00  0.00000000E+00  0.00000000E+00
  0.00000000E+00  0.00000000E+00  0.00000000E+00
  0.00000000E+00  0.00000000E+00  0.00000000E+00
  0.00000000E+00  0.00000000E+00  0.00000000E+00
  0.00000000E+00  0.00000000E+00  0.00000000E+00
  0.00000000E+00  0.00000000E+00  0.00000000E+00
  0.00000000E+00  0.00000000E+00  0.00000000E+00
  0.00000000E+00  0.00000000E+00  0.00000000E+00
  0.00000000E+00  0.00000000E+00  0.00000000E+00
  0.00000000E+00  0.00000000E+00  0.00000000E+00
  0.00000000E+00  0.00000000E+00  0.00000000E+00
  0.00000000E+00  0.00000000E+00  0.00000000E+00
  0.00000000E+00  0.00000000E+00  0.00000000E+00
  0.00000000E+00  0.00000000E+00  0.00000000E+00
  0.00000000E+00  0.00000000E+00  0.00000000E+00
  0.00000000E+00  0.00000000E+00  0.00000000E+00
  0.00000000E+00  0.00000000E+00  0.00000000E+00
  0.00000000E+00  0.00000000E+00  0.00000000E+00
  0.00000000E+00  0.00000000E+00  0.00000000E+00
  0.00000000E+00  0.00000000E+00  0.00000000E+00
  0.00000000E+00  0.00000000E+00  0.00000000E+00
  0.00000000E+00  0.00000000E+00  0.00000000E+00
  0.00000000E+00  0.00000000E+00  0.00000000E+00
  0.00000000E+00  0.00000000E+00  0.00000000E+00
  0.00000000E+00  0.00000000E+00  0.00000000E+00
  0.00000000E+00  0.00000000E+00  0.00000000E+00
  0.00000000E+00  0.00000000E+00  0.00000000E+00
  0.00000000E+00  0.00000000E+00  0.00000000E+00
  0.00000000E+00  0.00000000E+00  0.00000000E+00
  0.00000000E+00  0.00000000E+00  0.00000000E+00
  0.00000000E+00  0.00000000E+00  0.00000000E+00
  0.00000000E+00  0.00000000E+00  0.00000000E+00
  0.00000000E+00  0.00000000E+00  0.00000000E+00
  0.00000000E+00  0.00000000E+00  0.00000000E+00
  0.00000000E+00  0.00000000E+00  0.00000000E+00
  0.00000000E+00  0.00000000E+00  0.00000000E+00
  0.00000000E+00  0.00000000E+00  0.00000000E+00
  0.00000000E+00  0.00000000E+00  0.00000000E+00
  0.00000000E+00  0.00000000E+00  0.00000000E+00
  0.00000000E+00  0.00000000E+00  0.00000000E+00
  0.00000000E+00  0.00000000E+00  0.00000000E+00
  0.00000000E+00  0.00000000E+00  0.00000000E+00
  0.00000000E+00  0.00000000E+00  0.00000000E+00
  0.00000000E+00  0.00000000E+00  0.00000000E+00
  0.00000000E+00  0.00000000E+00  0.00000000E+00
  0.00000000E+00  0.00000000E+00  0.00000000E+00
  0.00000000E+00  0.00000000E+00  0.00000000E+00
  0.00000000E+00  0.00000000E+00  0.00000000E+00
  0.00000000E+00  0.00000000E+00  0.00000000E+00
  0.00000000E+00  0.00000000E+00  0.00000000E+00
  0.00000000E+00  0.00000000E+00  0.00000000E+00
  0.00000000E+00  0.00000000E+00  0.00000000E+00
  0.00000000E+00  0.00000000E+00  0.00000000E+00
  0.00000000E+00  0.00000000E+00  0.00000000E+00
  0.00000000E+00  0.00000000E+00  0.00000000E+00
  0.00000000E+00  0.00000000E+00  0.00000000E+00
  0.00000000E+00  0.00000000E+00  0.00000000E+00
  0.00000000E+00  0.00000000E+00  0.00000000E+00
  0.00000000E+00  0.00000000E+00  0.00000000E+00
  0.00000000E+00  0.00000000E+00  0.00000000E+00
  0.00000000E+00  0.00000000E+00  0.00000000E+00
  0.00000000E+00  0.00000000E+00  0.00000000E+00
  0.00000000E+00  0.00000000E+00  0.00000000E+00
  0.00000000E+00  0.00000000E+00  0.00000000E+00
  0.00000000E+00  0.00000000E+00  0.00000000E+00
  0.00000000E+00  0.00000000E+00  0.00000000E+00
  0.00000000E+00  0.00000000E+00  0.00000000E+00
  0.00000000E+00  0.00000000E+00  0.00000000E+00
  0.00000000E+00  0.00000000E+00  0.00000000E+00
  0.00000000E+00  0.00000000E+00  0.00000000E+00
  0.00000000E+00  0.00000000E+00  0.00000000E+00
  0.00000000E+00  0.00000000E+00  0.00000000E+00
  0.00000000E+00  0.00000000E+00  0.00000000E+00
  0.00000000E+00  0.00000000E+00  0.00000000E+00
  0.00000000E+00  0.00000000E+00  0.00000000E+00
  0.00000000E+00  0.00000000E+00  0.00000000E+00
  0.00000000E+00  0.00000000E+00  0.00000000E+00
  0.00000000E+00  0.00000000E+00  0.00000000E+00
  0.00000000E+00  0.00000000E+00  0.00000000E+00
  0.00000000E+00  0.00000000E+00  0.00000000E+00
  0.00000000E+00  0.00000000E+00  0.00000000E+00
  0.00000000E+00  0.00000000E+00  0.00000000E+00
  0.00000000E+00  0.00000000E+00  0.00000000E+00
  0.00000000E+00  0.00000000E+00  0.00000000E+00
  0.00000000E+00  0.00000000E+00  0.00000000E+00
  0.00000000E+00  0.00000000E+00  0.00000000E+00
  0.00000000E+00  0.00000000E+00  0.00000000E+00
  0.00000000E+00  0.00000000E+00  0.00000000E+00
  0.00000000E+00  0.00000000E+00  0.00000000E+00
  0.00000000E+00  0.00000000E+00  0.00000000E+00
  0.00000000E+00  0.00000000E+00  0.00000000E+00
  0.00000000E+00  0.00000000E+00  0.00000000E+00
  0.00000000E+00  0.00000000E+00  0.00000000E+00
  0.00000000E+00  0.00000000E+00  0.00000000E+00
  0.00000000E+00  0.00000000E+00  0.00000000E+00
  0.00000000E+00  0.00000000E+00  0.00000000E+00
  0.00000000E+00  0.00000000E+00  0.00000000E+00
