 Ni_Pol_CO_solvent
   1.000
    9.8292000000000002    0.0000000000000000    0.0000000000000000
    4.9146000000000001    8.5123370000000005    0.0000000000000000
    0.0000000000000000    0.0000000000000000   33.0127999999999986
   Ni   O    O    H    C    O 
   64    3   30   60    1    1
Selective Dynamics
Direct
    0.8368374900000006    0.5794128699999987    0.1207887999999997    T  T  T
    0.3401706599999983    0.0859367300000002    0.1220185600000008    T  T  T
    0.8362286600000033    0.0848664099999965    0.1189358199999972    T  T  T
    0.3334364700000023    0.5806492199999980    0.1203021399999997    T  T  T
    0.5835203299999989    0.8437132899999966    0.1236619200000035    T  T  T
    0.8428599499999976    0.8215664100000026    0.1222776500000009    T  T  T
    0.0874571800000012    0.3354632499999965    0.1220335699999993    T  T  T
    0.8433270700000008    0.3319501300000027    0.1198217199999974    T  T  T
    0.5901689399999981    0.5808285199999972    0.1217027200000018    T  T  T
    0.0906080099999969    0.5745848800000033    0.1245910299999977    T  T  T
    0.0812820700000003    0.0864334799999966    0.1188037800000004    T  T  T
    0.5950630700000019    0.0761266100000029    0.1245728700000015    T  T  T
    0.3469648000000021    0.8264814799999982    0.1226444999999998    T  T  T
    0.0896099400000026    0.8341011899999984    0.1233432499999978    T  T  T
    0.3372298399999991    0.3272990199999981    0.1206958300000025    T  T  T
    0.5922286799999981    0.3160428199999998    0.1222555900000017    T  T  T
    0.9337347100000031    0.6522399799999974    0.1841781199999986    T  T  T
    0.9338989199999972    0.4160931199999993    0.1823784500000016    T  T  T
    0.6802564300000000    0.6616358500000032    0.1845553200000012    T  T  T
    0.1887852300000006    0.1533209199999988    0.1849923300000000    T  T  T
    0.9393627400000000    0.1509103699999983    0.1832659900000024    T  T  T
    0.9339597199999972    0.9090530300000026    0.1782131100000015    T  T  T
    0.4317376999999993    0.9000748899999991    0.1848764699999990    T  T  T
    0.4345323800000003    0.1583107000000012    0.1869008500000007    T  T  T
    0.6853379300000029    0.1661363899999984    0.1845821499999971    T  T  T
    0.1726194900000024    0.6614970400000004    0.1810430199999971    T  T  T
    0.4293390699999975    0.6445295999999985    0.1785767300000032    T  T  T
    0.4271356400000030    0.4029904799999997    0.1820433899999969    T  T  T
    0.6834074699999988    0.9143801299999978    0.1833626399999986    T  T  T
    0.1799808399999989    0.4069006799999997    0.1858934300000001    T  T  T
    0.6812491100000031    0.4103026800000009    0.1786230200000034    T  T  T
    0.1845359200000019    0.8997529399999991    0.1828976500000010    T  T  T
    0.0232075199999997    0.2392837000000014    0.2447342700000021    T  T  T
    0.5140531899999985    0.2388190499999965    0.2493318699999989    T  T  T
    0.0167008499999994    0.7366211599999986    0.2398207000000028    T  T  T
    0.5393159799999978    0.7349312500000025    0.2468965300000008    T  T  T
    0.7600758000000027    0.7432932600000015    0.2479889999999969    T  T  T
    0.0017920299999972    0.5014764000000014    0.2487815200000014    T  T  T
    0.7712390700000000    0.4696991200000014    0.2410274300000026    T  T  T
    0.2715232899999975    0.9826142800000000    0.2475828899999968    T  T  T
    0.0267833099999990    0.9832743600000029    0.2466445199999967    T  T  T
    0.5202945300000010    0.9898816600000018    0.2443501400000017    T  T  T
    0.2717904699999991    0.7316459299999991    0.2427037499999969    T  T  T
    0.7694215300000025    0.9837721099999968    0.2444251499999979    T  T  T
    0.2609678399999993    0.2365469200000021    0.2500120600000031    T  T  T
    0.7739153899999991    0.2367487100000005    0.2441071900000011    T  T  T
    0.2673893400000011    0.4831989099999987    0.2452758299999971    T  T  T
    0.5132591899999994    0.4945609299999987    0.2422059200000035    T  T  T
    0.9970724699999991    0.2558556700000025    0.0591330299999981    F  F  F
    0.4999618000000012    0.2500875799999989    0.0594854499999968    F  F  F
    0.9968841600000005    0.7476992100000004    0.0595123700000002    F  F  F
    0.5054474800000008    0.7476858799999988    0.0599706799999993    F  F  F
    0.7507219800000016    0.7486395099999967    0.0599869200000001    F  F  F
    0.9979410799999968    0.5014025600000025    0.0599954500000024    F  F  F
    0.7507273000000012    0.5014379099999999    0.0601539399999993    F  F  F
    0.2484077399999975    0.9989653599999997    0.0601723600000028    F  F  F
    0.0026835399999996    0.9989392600000002    0.0602141099999969    F  F  F
    0.5037179199999997    0.9979203099999978    0.0602187799999996    F  F  F
    0.2483221499999999    0.7533767700000027    0.0603571799999969    F  F  F
    0.7484137000000004    0.9978805399999970    0.0603965999999971    F  F  F
    0.2473094699999976    0.2543786700000013    0.0604625599999977    F  F  F
    0.7483561800000018    0.2543461500000035    0.0604678400000012    F  F  F
    0.2472921999999969    0.4989472700000022    0.0606285499999970    F  F  F
    0.5037960499999983    0.4989156800000032    0.0606926999999970    F  F  F
    0.3377705600000027    0.0782612400000033    0.2855888899999997    T  T  T
    0.8458962200000002    0.0646918999999997    0.2807278399999973    T  T  T
    0.3592291699999990    0.5667170199999987    0.2800499900000020    T  T  T
    0.0652884000000000    0.8204238499999974    0.5987645900000018    T  T  T
    0.3718409000000023    0.5706715800000026    0.5120262399999973    T  T  T
    0.4142869499999975    0.1036264999999972    0.4525029200000006    T  T  T
    0.0960594800000010    0.3479454399999966    0.4718127499999980    T  T  T
    0.5241502599999990    0.2692771199999981    0.3086970199999968    T  T  T
    0.1146772600000006    0.5661617900000024    0.5494697900000034    T  T  T
    0.0101648400000016    0.5093793699999978    0.3094817699999979    T  T  T
    0.1343240799999990    0.1901220199999969    0.3492773899999975    T  T  T
    0.6157671899999997    0.0688339100000022    0.3694751499999995    T  T  T
    0.6427433799999989    0.6953647899999993    0.5065087199999994    T  T  T
    0.0721285999999992    0.8265648200000015    0.3926749600000008    T  T  T
    0.6493172699999974    0.6078803099999988    0.5934925399999997    T  T  T
    0.4082395699999992    0.9941453699999983    0.5268764699999977    T  T  T
    0.8610884400000032    0.7755534699999984    0.3552449999999965    T  T  T
    0.6558011199999996    0.3147152100000028    0.4905603099999993    T  T  T
    0.4013049599999974    0.9520969100000016    0.3783386100000001    T  T  T
    0.3191910999999976    0.5575592100000009    0.4256319699999978    T  T  T
    0.5345938299999986    0.6924747899999986    0.3130093400000007    T  T  T
    0.9277542100000034    0.6470625799999965    0.4859902500000004    T  T  T
    0.7007756200000017    0.0673515300000034    0.4510350199999991    T  T  T
    0.3934585599999991    0.6191253100000012    0.6252334200000007    T  T  T
    0.8968846200000016    0.2328919200000001    0.5492458100000022    T  T  T
    0.5243472499999982    0.6940494799999968    0.4310541799999967    T  T  T
    0.8795704799999982    0.3063509799999977    0.4409531299999969    T  T  T
    0.8554559199999971    0.2032000800000020    0.3499078899999972    T  T  T
    0.1642369500000029    0.9144908500000000    0.5398606999999984    T  T  T
    0.0192728600000009    0.8687764700000002    0.4733681499999989    T  T  T
    0.1763883500000034    0.2551438899999994    0.5577085400000001    T  T  T
    0.7440890299999978    0.5784473499999976    0.3710424599999982    T  T  T
    0.2608051799999984    0.3792717299999993    0.3620036900000017    T  T  T
    0.1744917700000030    0.7551834699999986    0.6097330999999997    T  T  T
    0.0575197000000003    0.7412171900000004    0.5806760400000002    T  T  T
    0.2882146500000005    0.5683265300000002    0.5295229299999988    T  T  T
    0.3836127499999975    0.6587693600000009    0.5225484999999992    T  T  T
    0.3226914299999990    0.2102055399999969    0.4577765599999992    T  T  T
    0.5113829599999988    0.1095634200000006    0.4604041999999993    T  T  T
    0.0246330000000015    0.3042800799999981    0.4652525400000016    T  T  T
    0.1062070899999981    0.3527264299999970    0.5023954099999983    T  T  T
    0.5864819499999996    0.1832264499999994    0.3280372099999980    T  T  T
    0.4169895400000030    0.3146695900000012    0.3175244600000013    T  T  T
    0.0397308800000005    0.5927082999999982    0.5255239099999969    T  T  T
    0.1303687999999994    0.4621508899999967    0.5596340700000013    T  T  T
    0.1098859900000022    0.4482766400000031    0.3230688700000002    T  T  T
    0.9836656599999998    0.6205135700000000    0.3104607000000001    T  T  T
    0.1889288100000002    0.1523542700000036    0.3213621399999980    T  T  T
    0.0302452199999976    0.1918519700000019    0.3494920500000021    T  T  T
    0.6340206300000020    0.0791887000000031    0.3985583199999994    T  T  T
    0.5282543300000029    0.0421413799999968    0.3723232600000017    T  T  T
    0.5979267399999983    0.6861372299999999    0.4791533599999980    T  T  T
    0.5559956299999982    0.7981900799999977    0.5139018200000010    T  T  T
    0.0124676800000003    0.7898412500000020    0.3774096200000017    T  T  T
    0.1285529399999987    0.8477195500000008    0.3698938799999993    T  T  T
    0.7289949199999981    0.6285864000000032    0.6047700000000020    T  T  T
    0.6587476899999984    0.6132281599999985    0.5642371100000005    T  T  T
    0.3954252099999991    0.0208038299999984    0.4973493600000012    T  T  T
    0.3251763199999971    0.9646064900000013    0.5287172800000022    T  T  T
    0.7903446600000024    0.7324287699999985    0.3633695299999999    T  T  T
    0.7943023099999991    0.8867832899999968    0.3470774399999996    T  T  T
    0.5581850700000004    0.4120876499999966    0.4968409399999985    T  T  T
    0.7239820200000011    0.2697403399999985    0.5153578299999992    T  T  T
    0.2959227899999988    0.0423704299999983    0.3705960699999977    T  T  T
    0.4364128899999997    0.8955641700000001    0.3519044299999976    T  T  T
    0.3182628699999981    0.5587631699999989    0.4545172899999983    T  T  T
    0.2253943300000003    0.6621564499999977    0.4159427800000017    T  T  T
    0.6356573099999991    0.6326205499999986    0.3285999499999974    T  T  T
    0.4774789499999983    0.6305000600000028    0.3083952400000030    T  T  T
    0.8205977000000004    0.6698408299999983    0.4934690600000025    T  T  T
    0.9823826599999990    0.5437393400000019    0.4698886799999968    T  T  T
    0.6968292700000021    0.1459829699999986    0.4700019200000014    T  T  T
    0.8182967799999972    0.9882506100000015    0.4547063600000030    T  T  T
    0.4900461300000032    0.6219510099999965    0.6159357499999984    T  T  T
    0.4308857099999983    0.5096393000000035    0.6275869799999967    T  T  T
    0.9672172799999998    0.1202245300000016    0.5468833199999992    T  T  T
    0.8673074599999993    0.2439180300000032    0.5769452299999998    T  T  T
    0.4728740400000007    0.6278019599999993    0.4247231700000000    T  T  T
    0.4759227099999990    0.7842507699999999    0.4097074000000021    T  T  T
    0.8825475000000012    0.2361238499999985    0.4191166600000003    T  T  T
    0.7910377299999993    0.3168617500000011    0.4585121300000026    T  T  T
    0.8735265800000036    0.1433801399999979    0.3237692100000018    T  T  T
    0.7520412499999978    0.2916882500000000    0.3485699499999981    T  T  T
    0.1084753000000021    0.8887378000000012    0.5186416800000018    T  T  T
    0.1323131500000017    0.8697813799999992    0.5636073699999997    T  T  T
    0.9953831999999991    0.7831820800000031    0.4796047299999984    T  T  T
    0.0652955300000002    0.8548189699999966    0.4467576899999983    T  T  T
    0.0816661499999967    0.2473981999999992    0.5589475399999984    T  T  T
    0.2531607700000009    0.1608112500000018    0.5414477200000007    T  T  T
    0.8387646700000033    0.4782975600000015    0.3714166500000005    T  T  T
    0.6921500899999984    0.5969812499999989    0.3989067899999981    T  T  T
    0.2915658499999978    0.4303800400000029    0.3831974300000027    T  T  T
    0.2024559099999976    0.3345364899999979    0.3740185500000024    T  T  T
    0.1724492800000021    0.8987696800000009    0.2856075400000009    T  T  T
    0.1752589800000024    0.8782844699999970    0.3206950699999993    T  T  T

  0.00000000E+00  0.00000000E+00  0.00000000E+00
  0.00000000E+00  0.00000000E+00  0.00000000E+00
  0.00000000E+00  0.00000000E+00  0.00000000E+00
  0.00000000E+00  0.00000000E+00  0.00000000E+00
  0.00000000E+00  0.00000000E+00  0.00000000E+00
  0.00000000E+00  0.00000000E+00  0.00000000E+00
  0.00000000E+00  0.00000000E+00  0.00000000E+00
  0.00000000E+00  0.00000000E+00  0.00000000E+00
  0.00000000E+00  0.00000000E+00  0.00000000E+00
  0.00000000E+00  0.00000000E+00  0.00000000E+00
  0.00000000E+00  0.00000000E+00  0.00000000E+00
  0.00000000E+00  0.00000000E+00  0.00000000E+00
  0.00000000E+00  0.00000000E+00  0.00000000E+00
  0.00000000E+00  0.00000000E+00  0.00000000E+00
  0.00000000E+00  0.00000000E+00  0.00000000E+00
  0.00000000E+00  0.00000000E+00  0.00000000E+00
  0.00000000E+00  0.00000000E+00  0.00000000E+00
  0.00000000E+00  0.00000000E+00  0.00000000E+00
  0.00000000E+00  0.00000000E+00  0.00000000E+00
  0.00000000E+00  0.00000000E+00  0.00000000E+00
  0.00000000E+00  0.00000000E+00  0.00000000E+00
  0.00000000E+00  0.00000000E+00  0.00000000E+00
  0.00000000E+00  0.00000000E+00  0.00000000E+00
  0.00000000E+00  0.00000000E+00  0.00000000E+00
  0.00000000E+00  0.00000000E+00  0.00000000E+00
  0.00000000E+00  0.00000000E+00  0.00000000E+00
  0.00000000E+00  0.00000000E+00  0.00000000E+00
  0.00000000E+00  0.00000000E+00  0.00000000E+00
  0.00000000E+00  0.00000000E+00  0.00000000E+00
  0.00000000E+00  0.00000000E+00  0.00000000E+00
  0.00000000E+00  0.00000000E+00  0.00000000E+00
  0.00000000E+00  0.00000000E+00  0.00000000E+00
  0.00000000E+00  0.00000000E+00  0.00000000E+00
  0.00000000E+00  0.00000000E+00  0.00000000E+00
  0.00000000E+00  0.00000000E+00  0.00000000E+00
  0.00000000E+00  0.00000000E+00  0.00000000E+00
  0.00000000E+00  0.00000000E+00  0.00000000E+00
  0.00000000E+00  0.00000000E+00  0.00000000E+00
  0.00000000E+00  0.00000000E+00  0.00000000E+00
  0.00000000E+00  0.00000000E+00  0.00000000E+00
  0.00000000E+00  0.00000000E+00  0.00000000E+00
  0.00000000E+00  0.00000000E+00  0.00000000E+00
  0.00000000E+00  0.00000000E+00  0.00000000E+00
  0.00000000E+00  0.00000000E+00  0.00000000E+00
  0.00000000E+00  0.00000000E+00  0.00000000E+00
  0.00000000E+00  0.00000000E+00  0.00000000E+00
  0.00000000E+00  0.00000000E+00  0.00000000E+00
  0.00000000E+00  0.00000000E+00  0.00000000E+00
  0.00000000E+00  0.00000000E+00  0.00000000E+00
  0.00000000E+00  0.00000000E+00  0.00000000E+00
  0.00000000E+00  0.00000000E+00  0.00000000E+00
  0.00000000E+00  0.00000000E+00  0.00000000E+00
  0.00000000E+00  0.00000000E+00  0.00000000E+00
  0.00000000E+00  0.00000000E+00  0.00000000E+00
  0.00000000E+00  0.00000000E+00  0.00000000E+00
  0.00000000E+00  0.00000000E+00  0.00000000E+00
  0.00000000E+00  0.00000000E+00  0.00000000E+00
  0.00000000E+00  0.00000000E+00  0.00000000E+00
  0.00000000E+00  0.00000000E+00  0.00000000E+00
  0.00000000E+00  0.00000000E+00  0.00000000E+00
  0.00000000E+00  0.00000000E+00  0.00000000E+00
  0.00000000E+00  0.00000000E+00  0.00000000E+00
  0.00000000E+00  0.00000000E+00  0.00000000E+00
  0.00000000E+00  0.00000000E+00  0.00000000E+00
  0.00000000E+00  0.00000000E+00  0.00000000E+00
  0.00000000E+00  0.00000000E+00  0.00000000E+00
  0.00000000E+00  0.00000000E+00  0.00000000E+00
  0.00000000E+00  0.00000000E+00  0.00000000E+00
  0.00000000E+00  0.00000000E+00  0.00000000E+00
  0.00000000E+00  0.00000000E+00  0.00000000E+00
  0.00000000E+00  0.00000000E+00  0.00000000E+00
  0.00000000E+00  0.00000000E+00  0.00000000E+00
  0.00000000E+00  0.00000000E+00  0.00000000E+00
  0.00000000E+00  0.00000000E+00  0.00000000E+00
  0.00000000E+00  0.00000000E+00  0.00000000E+00
  0.00000000E+00  0.00000000E+00  0.00000000E+00
  0.00000000E+00  0.00000000E+00  0.00000000E+00
  0.00000000E+00  0.00000000E+00  0.00000000E+00
  0.00000000E+00  0.00000000E+00  0.00000000E+00
  0.00000000E+00  0.00000000E+00  0.00000000E+00
  0.00000000E+00  0.00000000E+00  0.00000000E+00
  0.00000000E+00  0.00000000E+00  0.00000000E+00
  0.00000000E+00  0.00000000E+00  0.00000000E+00
  0.00000000E+00  0.00000000E+00  0.00000000E+00
  0.00000000E+00  0.00000000E+00  0.00000000E+00
  0.00000000E+00  0.00000000E+00  0.00000000E+00
  0.00000000E+00  0.00000000E+00  0.00000000E+00
  0.00000000E+00  0.00000000E+00  0.00000000E+00
  0.00000000E+00  0.00000000E+00  0.00000000E+00
  0.00000000E+00  0.00000000E+00  0.00000000E+00
  0.00000000E+00  0.00000000E+00  0.00000000E+00
  0.00000000E+00  0.00000000E+00  0.00000000E+00
  0.00000000E+00  0.00000000E+00  0.00000000E+00
  0.00000000E+00  0.00000000E+00  0.00000000E+00
  0.00000000E+00  0.00000000E+00  0.00000000E+00
  0.00000000E+00  0.00000000E+00  0.00000000E+00
  0.00000000E+00  0.00000000E+00  0.00000000E+00
  0.00000000E+00  0.00000000E+00  0.00000000E+00
  0.00000000E+00  0.00000000E+00  0.00000000E+00
  0.00000000E+00  0.00000000E+00  0.00000000E+00
  0.00000000E+00  0.00000000E+00  0.00000000E+00
  0.00000000E+00  0.00000000E+00  0.00000000E+00
  0.00000000E+00  0.00000000E+00  0.00000000E+00
  0.00000000E+00  0.00000000E+00  0.00000000E+00
  0.00000000E+00  0.00000000E+00  0.00000000E+00
  0.00000000E+00  0.00000000E+00  0.00000000E+00
  0.00000000E+00  0.00000000E+00  0.00000000E+00
  0.00000000E+00  0.00000000E+00  0.00000000E+00
  0.00000000E+00  0.00000000E+00  0.00000000E+00
  0.00000000E+00  0.00000000E+00  0.00000000E+00
  0.00000000E+00  0.00000000E+00  0.00000000E+00
  0.00000000E+00  0.00000000E+00  0.00000000E+00
  0.00000000E+00  0.00000000E+00  0.00000000E+00
  0.00000000E+00  0.00000000E+00  0.00000000E+00
  0.00000000E+00  0.00000000E+00  0.00000000E+00
  0.00000000E+00  0.00000000E+00  0.00000000E+00
  0.00000000E+00  0.00000000E+00  0.00000000E+00
  0.00000000E+00  0.00000000E+00  0.00000000E+00
  0.00000000E+00  0.00000000E+00  0.00000000E+00
  0.00000000E+00  0.00000000E+00  0.00000000E+00
  0.00000000E+00  0.00000000E+00  0.00000000E+00
  0.00000000E+00  0.00000000E+00  0.00000000E+00
  0.00000000E+00  0.00000000E+00  0.00000000E+00
  0.00000000E+00  0.00000000E+00  0.00000000E+00
  0.00000000E+00  0.00000000E+00  0.00000000E+00
  0.00000000E+00  0.00000000E+00  0.00000000E+00
  0.00000000E+00  0.00000000E+00  0.00000000E+00
  0.00000000E+00  0.00000000E+00  0.00000000E+00
  0.00000000E+00  0.00000000E+00  0.00000000E+00
  0.00000000E+00  0.00000000E+00  0.00000000E+00
  0.00000000E+00  0.00000000E+00  0.00000000E+00
  0.00000000E+00  0.00000000E+00  0.00000000E+00
  0.00000000E+00  0.00000000E+00  0.00000000E+00
  0.00000000E+00  0.00000000E+00  0.00000000E+00
  0.00000000E+00  0.00000000E+00  0.00000000E+00
  0.00000000E+00  0.00000000E+00  0.00000000E+00
  0.00000000E+00  0.00000000E+00  0.00000000E+00
  0.00000000E+00  0.00000000E+00  0.00000000E+00
  0.00000000E+00  0.00000000E+00  0.00000000E+00
  0.00000000E+00  0.00000000E+00  0.00000000E+00
  0.00000000E+00  0.00000000E+00  0.00000000E+00
  0.00000000E+00  0.00000000E+00  0.00000000E+00
  0.00000000E+00  0.00000000E+00  0.00000000E+00
  0.00000000E+00  0.00000000E+00  0.00000000E+00
  0.00000000E+00  0.00000000E+00  0.00000000E+00
  0.00000000E+00  0.00000000E+00  0.00000000E+00
  0.00000000E+00  0.00000000E+00  0.00000000E+00
  0.00000000E+00  0.00000000E+00  0.00000000E+00
  0.00000000E+00  0.00000000E+00  0.00000000E+00
  0.00000000E+00  0.00000000E+00  0.00000000E+00
  0.00000000E+00  0.00000000E+00  0.00000000E+00
  0.00000000E+00  0.00000000E+00  0.00000000E+00
  0.00000000E+00  0.00000000E+00  0.00000000E+00
  0.00000000E+00  0.00000000E+00  0.00000000E+00
  0.00000000E+00  0.00000000E+00  0.00000000E+00
  0.00000000E+00  0.00000000E+00  0.00000000E+00
  0.00000000E+00  0.00000000E+00  0.00000000E+00
  0.00000000E+00  0.00000000E+00  0.00000000E+00
  0.00000000E+00  0.00000000E+00  0.00000000E+00
