 OH_surface_fcc                           
   1.00000000000000     
     9.8291997910000006    0.0000000000000000    0.0000000000000000
     4.9145998955000003    8.5123367178000002    0.0000000000000000
     0.0000000000000000    0.0000000000000000   19.0128002167000005
   Ni   O    H 
    64     1     1
Selective dynamics
Direct
  0.0820859239999976  0.0853893090000000  0.1769045570000003   F   F   F
  0.3320606220000002  0.0853895819999977  0.1768983500000019   F   F   F
  0.3321350229999993  0.8353552940000029  0.1769282579999967   F   F   F
  0.5820235719999971  0.3354048120000002  0.1769164199999977   F   F   F
  0.3320824970000018  0.5853625190000002  0.1769149029999966   F   F   F
  0.3320413989999977  0.3353577580000007  0.1768658209999998   F   F   F
  0.8320489050000006  0.0854081170000001  0.1769476569999995   F   F   F
  0.5819999280000019  0.0854048260000013  0.1769176740000020   F   F   F
  0.8320446789999991  0.3354047560000026  0.1769184890000020   F   F   F
  0.5820607089999967  0.5854306920000028  0.1769178999999994   F   F   F
  0.0820949029999980  0.8352966440000031  0.1769376880000024   F   F   F
  0.5820859990000002  0.8354016760000036  0.1769298999999975   F   F   F
  0.0820782139999992  0.3353299730000003  0.1769054849999989   F   F   F
  0.8320439359999980  0.5854464330000013  0.1769503530000023   F   F   F
  0.0820345919999994  0.5853827979999977  0.1768957540000002   F   F   F
  0.8320200599999978  0.8354260990000029  0.1769315929999991   F   F   F
  0.1671893596948705  0.1694367342865826  0.2841968831703360   T   T   T
  0.1656990139627031  0.9185642908829941  0.2818671978694249   T   T   T
  0.4154879950505529  0.1689834505736955  0.2826312622605134   T   T   T
  0.4153641988507603  0.9185886483903263  0.2819538898122688   T   T   T
  0.4155748378163312  0.4176713102756179  0.2825485813083638   T   T   T
  0.4153084550334943  0.6683490454158617  0.2818693378312467   T   T   T
  0.9161430475171245  0.1681752110954249  0.2818189035786806   T   T   T
  0.6636523091072495  0.1692307941618554  0.2837775724989948   T   T   T
  0.6660832166223501  0.4179150259158030  0.2818197788233297   T   T   T
  0.1669816705877733  0.6659125134386998  0.2838998950676195   T   T   T
  0.9160771768437665  0.4180231013572293  0.2820425388179635   T   T   T
  0.6656320337550452  0.6684210523267249  0.2822751234546143   T   T   T
  0.9161018534111542  0.9182899681824510  0.2818362786598168   T   T   T
  0.6660922645417560  0.9184714455171672  0.2818574119159878   T   T   T
  0.1665631635365298  0.4179186504184141  0.2825769418348187   T   T   T
  0.9161824032601817  0.6683675728763525  0.2820745607075713   T   T   T
  0.2497514628957418 -0.0004113211227578  0.3880236491202390   T   T   T
  0.5067981742264495  0.2470575418280217  0.3909331376517517   T   T   T
  0.5023863309408884  0.5026071128046044  0.3863259262852790   T   T   T
  0.2470099023526856  0.2473785165682109  0.3912063821912275   T   T   T
  0.9984022890196638  0.2505373761564202  0.3879589144295127   T   T   T
  0.7519862487520326  0.2504687338766828  0.3875210549943726   T   T   T
  0.4998089569775891  0.7502573412200324  0.3881963415939718   T   T   T
  0.2498080478538477  0.7524478220958208  0.3878164662522679   T   T   T
  0.5026437686956049 -0.0046025893377396  0.3864177043664490   T   T   T
  0.0001104886078696  0.0006682006228694  0.3877556062570194   T   T   T
  0.2470420336353353  0.5065068762597186  0.3910090457471915   T   T   T
  0.7499008411441520  0.5005711212777554  0.3880694732281034   T   T   T
  0.7518500687958632 -0.0009350991473011  0.3876538760765517   T   T   T
 -0.0017264149775574  0.7523001136827866  0.3879944426488146   T   T   T
  0.7499944635898970  0.7503108495574080  0.3882018234055899   T   T   T
  0.9955132851785836  0.5027405715930597  0.3866239549027266   T   T   T
  0.2488099890000015  0.0018900000000031  0.0714200000000034   F   F   F
  0.4986599900000002  0.2520299789999996  0.0714200000000034   F   F   F
  0.4987100749999982  0.5019500149999985  0.0714200000000034   F   F   F
  0.2486699889999997  0.2519600139999980  0.0714200000000034   F   F   F
  0.9988300199999998  0.2520000100000033  0.0714200000000034   F   F   F
  0.7487000469999998  0.2521199990000014  0.0714200000000034   F   F   F
  0.4986899749999978  0.7520999730000000  0.0714200000000034   F   F   F
  0.2487699630000009  0.7521200280000002  0.0714200000000034   F   F   F
  0.4985999800000016  0.0021100000000018  0.0714200000000034   F   F   F
  0.9987700320000030  0.0022099999999980  0.0714200000000034   F   F   F
  0.2487500120000021  0.5021200269999966  0.0714200000000034   F   F   F
  0.7486699880000032  0.5022699849999981  0.0714200000000034   F   F   F
  0.7485899979999999  0.0024500000000032  0.0714200000000034   F   F   F
  0.9987000519999967  0.7524499689999971  0.0714200000000034   F   F   F
  0.7486699279999982  0.7524300270000026  0.0714200000000034   F   F   F
  0.9986899559999998  0.5022000199999965  0.0714200000000034   F   F   F
  0.3348866921536676  0.3343029449343983  0.4604517424902259   T   T   T
  0.3384627494348108  0.3361850281483902  0.5115905154632893   T   T   T
 
  0.00000000E+00  0.00000000E+00  0.00000000E+00
  0.00000000E+00  0.00000000E+00  0.00000000E+00
  0.00000000E+00  0.00000000E+00  0.00000000E+00
  0.00000000E+00  0.00000000E+00  0.00000000E+00
  0.00000000E+00  0.00000000E+00  0.00000000E+00
  0.00000000E+00  0.00000000E+00  0.00000000E+00
  0.00000000E+00  0.00000000E+00  0.00000000E+00
  0.00000000E+00  0.00000000E+00  0.00000000E+00
  0.00000000E+00  0.00000000E+00  0.00000000E+00
  0.00000000E+00  0.00000000E+00  0.00000000E+00
  0.00000000E+00  0.00000000E+00  0.00000000E+00
  0.00000000E+00  0.00000000E+00  0.00000000E+00
  0.00000000E+00  0.00000000E+00  0.00000000E+00
  0.00000000E+00  0.00000000E+00  0.00000000E+00
  0.00000000E+00  0.00000000E+00  0.00000000E+00
  0.00000000E+00  0.00000000E+00  0.00000000E+00
  0.00000000E+00  0.00000000E+00  0.00000000E+00
  0.00000000E+00  0.00000000E+00  0.00000000E+00
  0.00000000E+00  0.00000000E+00  0.00000000E+00
  0.00000000E+00  0.00000000E+00  0.00000000E+00
  0.00000000E+00  0.00000000E+00  0.00000000E+00
  0.00000000E+00  0.00000000E+00  0.00000000E+00
  0.00000000E+00  0.00000000E+00  0.00000000E+00
  0.00000000E+00  0.00000000E+00  0.00000000E+00
  0.00000000E+00  0.00000000E+00  0.00000000E+00
  0.00000000E+00  0.00000000E+00  0.00000000E+00
  0.00000000E+00  0.00000000E+00  0.00000000E+00
  0.00000000E+00  0.00000000E+00  0.00000000E+00
  0.00000000E+00  0.00000000E+00  0.00000000E+00
  0.00000000E+00  0.00000000E+00  0.00000000E+00
  0.00000000E+00  0.00000000E+00  0.00000000E+00
  0.00000000E+00  0.00000000E+00  0.00000000E+00
  0.00000000E+00  0.00000000E+00  0.00000000E+00
  0.00000000E+00  0.00000000E+00  0.00000000E+00
  0.00000000E+00  0.00000000E+00  0.00000000E+00
  0.00000000E+00  0.00000000E+00  0.00000000E+00
  0.00000000E+00  0.00000000E+00  0.00000000E+00
  0.00000000E+00  0.00000000E+00  0.00000000E+00
  0.00000000E+00  0.00000000E+00  0.00000000E+00
  0.00000000E+00  0.00000000E+00  0.00000000E+00
  0.00000000E+00  0.00000000E+00  0.00000000E+00
  0.00000000E+00  0.00000000E+00  0.00000000E+00
  0.00000000E+00  0.00000000E+00  0.00000000E+00
  0.00000000E+00  0.00000000E+00  0.00000000E+00
  0.00000000E+00  0.00000000E+00  0.00000000E+00
  0.00000000E+00  0.00000000E+00  0.00000000E+00
  0.00000000E+00  0.00000000E+00  0.00000000E+00
  0.00000000E+00  0.00000000E+00  0.00000000E+00
  0.00000000E+00  0.00000000E+00  0.00000000E+00
  0.00000000E+00  0.00000000E+00  0.00000000E+00
  0.00000000E+00  0.00000000E+00  0.00000000E+00
  0.00000000E+00  0.00000000E+00  0.00000000E+00
  0.00000000E+00  0.00000000E+00  0.00000000E+00
  0.00000000E+00  0.00000000E+00  0.00000000E+00
  0.00000000E+00  0.00000000E+00  0.00000000E+00
  0.00000000E+00  0.00000000E+00  0.00000000E+00
  0.00000000E+00  0.00000000E+00  0.00000000E+00
  0.00000000E+00  0.00000000E+00  0.00000000E+00
  0.00000000E+00  0.00000000E+00  0.00000000E+00
  0.00000000E+00  0.00000000E+00  0.00000000E+00
  0.00000000E+00  0.00000000E+00  0.00000000E+00
  0.00000000E+00  0.00000000E+00  0.00000000E+00
  0.00000000E+00  0.00000000E+00  0.00000000E+00
  0.00000000E+00  0.00000000E+00  0.00000000E+00
  0.00000000E+00  0.00000000E+00  0.00000000E+00
  0.00000000E+00  0.00000000E+00  0.00000000E+00
