 Ni\(1\1\1)                             
   1.00000000000000     
     9.8291997910000006    0.0000000000000000    0.0000000000000000
     4.9145998955000003    8.5123367178000002    0.0000000000000000
     0.0000000000000000    0.0000000000000000   19.0128002167000005
   Ni   O    C    O    C    O    H 
    64     3     1     1     1     1     1
Selective dynamics
Direct
  0.8332131496423162  0.5832626141569792  0.2713074615574652   T   T   T
  0.3329720999154354  0.0830958300764364  0.2698297629833098   T   T   T
  0.8334301482339911  0.0834629225741915  0.2704359170980026   T   T   T
  0.3333674101108842  0.5838289591375685  0.2705395972639307   T   T   T
  0.5836148495430783  0.8331136658384463  0.2708370399353641   T   T   T
  0.8333109878884838  0.8335167564349121  0.2704836467151238   T   T   T
  0.0829024619088510  0.3335360267617745  0.2711091307900881   T   T   T
  0.8325333580933765  0.3329785313926580  0.2717597968118494   T   T   T
  0.5837914203775632  0.5819592535593894  0.2718949753136999   T   T   T
  0.0830538598359271  0.5834920442132717  0.2709900691776305   T   T   T
  0.0823605420058689  0.0850677438199854  0.2704824010879374   T   T   T
  0.5830026768430074  0.0831081290446663  0.2715946054317729   T   T   T
  0.3343611372705469  0.8334507263530020  0.2701735792875860   T   T   T
  0.0833314180532172  0.8338625063092494  0.2702633915195062   T   T   T
  0.3330518175100955  0.3332887492165837  0.2713847103533091   T   T   T
  0.5831914813097718  0.3328972723702756  0.2721469502004435   T   T   T
  0.9167785441308408  0.6658929708483758  0.3756454441095303   T   T   T
  0.9161743128627891  0.4160766959389170  0.3756566513752893   T   T   T
  0.6673429524788108  0.6650303000184311  0.3757915614749885   T   T   T
  0.1665267254878484  0.1674786336833435  0.3761844840999956   T   T   T
  0.9160237924220810  0.1670143488865329  0.3774559091860551   T   T   T
  0.9178094656782755  0.9168989302218390  0.3751062807711472   T   T   T
  0.4172136896208002  0.9171782561787055  0.3756267931129069   T   T   T
  0.4164467740501210  0.1668347004635581  0.3762300422341925   T   T   T
  0.6684822509225917  0.1653902192282731  0.3767789680036555   T   T   T
  0.1670428458059267  0.6676218114129578  0.3753495245269852   T   T   T
  0.4166638644968149  0.6667187736255722  0.3761983240602803   T   T   T
  0.4154898542047317  0.4177852006035567  0.3762702136075520   T   T   T
  0.6666123370933612  0.9173468373600379  0.3775601113453219   T   T   T
  0.1670961502338560  0.4164717563345847  0.3778885133718363   T   T   T
  0.6657657170567158  0.4149800296687793  0.3804265163716388   T   T   T
  0.1678452624610398  0.9180503484383458  0.3766933125477105   T   T   T
 -0.0020860257485114  0.2552401142328943  0.4835879640433630   T   T   T
  0.5018206443591723  0.2511897083056408  0.4829886981760786   T   T   T
  0.9974290657505117  0.7471883573721355  0.4794423361838349   T   T   T
  0.5053994954201722  0.7474558058426413  0.4795889528921125   T   T   T
  0.7484239619062415  0.7511239699702899  0.4803417017690858   T   T   T
  0.9983776915047834  0.5011124418591570  0.4839680488350857   T   T   T
  0.7510273792731219  0.5018057823851491  0.4851345063767817   T   T   T
  0.2503451540859109  0.0004297956786993  0.4847082550145371   T   T   T
  0.0082248233498698  0.9977367457373656  0.4826998714232049   T   T   T
  0.5049826192589545  0.9983763329309705  0.4856582067424702   T   T   T
  0.2472780133130042  0.7580914260595507  0.4832009108305959   T   T   T
  0.7527241524431461  0.9927022691754875  0.4854670731987024   T   T   T
  0.2519406136895357  0.2535570840790772  0.4851456741734089   T   T   T
  0.7512362120446417  0.2471387070116319  0.4960182783426370   T   T   T
  0.2428406351630534  0.5031742585996076  0.4852043243937440   T   T   T
  0.4981427453179105  0.5041370321184651  0.4900812058912508   T   T   T
  0.9970724670000024  0.2558556729999992  0.1637003960000030   F   F   F
  0.4999617989999976  0.2500875830000027  0.1643123180000003   F   F   F
  0.9968841629999972  0.7476992069999966  0.1643590660000029   F   F   F
  0.5054474789999972  0.7476858750000019  0.1651548480000002   F   F   F
  0.7507219769999978  0.7486395119999969  0.1651830500000031   F   F   F
  0.9979410790000003  0.5014025589999989  0.1651978470000017   F   F   F
  0.7507272960000009  0.5014379059999996  0.1654730480000026   F   F   F
  0.2484077359999972  0.9989653640000000  0.1655050250000016   F   F   F
  0.0026835399999996  0.9989392600000002  0.1655775309999967   F   F   F
  0.5037179199999997  0.9979203070000011  0.1655856309999990   F   F   F
  0.2483221529999966  0.7533767729999994  0.1658259459999982   F   F   F
  0.7484137009999969  0.9978805350000002  0.1658943890000018   F   F   F
  0.2473094730000014  0.2543786680000011  0.1660089160000027   F   F   F
  0.7483561820000020  0.2543461500000035  0.1660180820000008   F   F   F
  0.2472921950000000  0.4989472700000022  0.1662971330000005   F   F   F
  0.5037960519999984  0.4989156760000029  0.1664085250000014   F   F   F
  0.3352915248468084  0.0838046422180094  0.5447819697398217   T   T   T
  0.8533385873830306  0.0579099131858573  0.5463340652963525   T   T   T
  0.3137978126524989  0.5995123794426771  0.5469855409251870   T   T   T
  0.9157343254079803  0.4205618980729894  0.5550230154658626   T   T   T
  0.9185409255937748  0.4165936060131790  0.6177165364193614   T   T   T
  0.5739498754859690  0.3351173757423623  0.5507302381392243   T   T   T
  0.5512325808083541  0.3415158504797957  0.6189113118419776   T   T   T
  0.4493619488379479  0.4375802382974089  0.6290994051606196   T   T   T
 
  0.00000000E+00  0.00000000E+00  0.00000000E+00
  0.00000000E+00  0.00000000E+00  0.00000000E+00
  0.00000000E+00  0.00000000E+00  0.00000000E+00
  0.00000000E+00  0.00000000E+00  0.00000000E+00
  0.00000000E+00  0.00000000E+00  0.00000000E+00
  0.00000000E+00  0.00000000E+00  0.00000000E+00
  0.00000000E+00  0.00000000E+00  0.00000000E+00
  0.00000000E+00  0.00000000E+00  0.00000000E+00
  0.00000000E+00  0.00000000E+00  0.00000000E+00
  0.00000000E+00  0.00000000E+00  0.00000000E+00
  0.00000000E+00  0.00000000E+00  0.00000000E+00
  0.00000000E+00  0.00000000E+00  0.00000000E+00
  0.00000000E+00  0.00000000E+00  0.00000000E+00
  0.00000000E+00  0.00000000E+00  0.00000000E+00
  0.00000000E+00  0.00000000E+00  0.00000000E+00
  0.00000000E+00  0.00000000E+00  0.00000000E+00
  0.00000000E+00  0.00000000E+00  0.00000000E+00
  0.00000000E+00  0.00000000E+00  0.00000000E+00
  0.00000000E+00  0.00000000E+00  0.00000000E+00
  0.00000000E+00  0.00000000E+00  0.00000000E+00
  0.00000000E+00  0.00000000E+00  0.00000000E+00
  0.00000000E+00  0.00000000E+00  0.00000000E+00
  0.00000000E+00  0.00000000E+00  0.00000000E+00
  0.00000000E+00  0.00000000E+00  0.00000000E+00
  0.00000000E+00  0.00000000E+00  0.00000000E+00
  0.00000000E+00  0.00000000E+00  0.00000000E+00
  0.00000000E+00  0.00000000E+00  0.00000000E+00
  0.00000000E+00  0.00000000E+00  0.00000000E+00
  0.00000000E+00  0.00000000E+00  0.00000000E+00
  0.00000000E+00  0.00000000E+00  0.00000000E+00
  0.00000000E+00  0.00000000E+00  0.00000000E+00
  0.00000000E+00  0.00000000E+00  0.00000000E+00
  0.00000000E+00  0.00000000E+00  0.00000000E+00
  0.00000000E+00  0.00000000E+00  0.00000000E+00
  0.00000000E+00  0.00000000E+00  0.00000000E+00
  0.00000000E+00  0.00000000E+00  0.00000000E+00
  0.00000000E+00  0.00000000E+00  0.00000000E+00
  0.00000000E+00  0.00000000E+00  0.00000000E+00
  0.00000000E+00  0.00000000E+00  0.00000000E+00
  0.00000000E+00  0.00000000E+00  0.00000000E+00
  0.00000000E+00  0.00000000E+00  0.00000000E+00
  0.00000000E+00  0.00000000E+00  0.00000000E+00
  0.00000000E+00  0.00000000E+00  0.00000000E+00
  0.00000000E+00  0.00000000E+00  0.00000000E+00
  0.00000000E+00  0.00000000E+00  0.00000000E+00
  0.00000000E+00  0.00000000E+00  0.00000000E+00
  0.00000000E+00  0.00000000E+00  0.00000000E+00
  0.00000000E+00  0.00000000E+00  0.00000000E+00
  0.00000000E+00  0.00000000E+00  0.00000000E+00
  0.00000000E+00  0.00000000E+00  0.00000000E+00
  0.00000000E+00  0.00000000E+00  0.00000000E+00
  0.00000000E+00  0.00000000E+00  0.00000000E+00
  0.00000000E+00  0.00000000E+00  0.00000000E+00
  0.00000000E+00  0.00000000E+00  0.00000000E+00
  0.00000000E+00  0.00000000E+00  0.00000000E+00
  0.00000000E+00  0.00000000E+00  0.00000000E+00
  0.00000000E+00  0.00000000E+00  0.00000000E+00
  0.00000000E+00  0.00000000E+00  0.00000000E+00
  0.00000000E+00  0.00000000E+00  0.00000000E+00
  0.00000000E+00  0.00000000E+00  0.00000000E+00
  0.00000000E+00  0.00000000E+00  0.00000000E+00
  0.00000000E+00  0.00000000E+00  0.00000000E+00
  0.00000000E+00  0.00000000E+00  0.00000000E+00
  0.00000000E+00  0.00000000E+00  0.00000000E+00
  0.00000000E+00  0.00000000E+00  0.00000000E+00
  0.00000000E+00  0.00000000E+00  0.00000000E+00
  0.00000000E+00  0.00000000E+00  0.00000000E+00
  0.00000000E+00  0.00000000E+00  0.00000000E+00
  0.00000000E+00  0.00000000E+00  0.00000000E+00
  0.00000000E+00  0.00000000E+00  0.00000000E+00
  0.00000000E+00  0.00000000E+00  0.00000000E+00
  0.00000000E+00  0.00000000E+00  0.00000000E+00
