 Ni\(1\1\1)                             
   1.00000000000000     
     9.8291997910000006    0.0000000000000000    0.0000000000000000
     4.9145998955000003    8.5123367178000002    0.0000000000000000
     0.0000000000000000    0.0000000000000000   19.0128002167000005
   Ni   O    C    H 
    64     1     2     1
Direct
  0.8332111534449852  0.5850200195656728  0.2718881407164314
  0.3332429340878798  0.0840725864339243  0.2704686911884941
  0.8335058160223723  0.0842051741112186  0.2716241905826611
  0.3331995698721390  0.5845377650099561  0.2716514878693642
  0.5833423428068865  0.8345241101625110  0.2713477879240975
  0.8335795573507385  0.8345100714580985  0.2715083944045057
  0.0836797369028556  0.3343383411948734  0.2717600592174367
  0.8333569340757143  0.3342608365572281  0.2718713771279753
  0.5833526367724629  0.5847243447870525  0.2718527896671024
  0.0832782067127078  0.5845207506334141  0.2717856130576067
  0.0835489465315892  0.0845293051009994  0.2708525794532069
  0.5832068630677815  0.0843105368944528  0.2717812430819607
  0.3331694517349587  0.8350320690600103  0.2706018907321235
  0.0832754451403794  0.8344796593942672  0.2714972619643489
  0.3331602691967999  0.3343514918222278  0.2715652119255718
  0.5830503686422303  0.3344041218807168  0.2721769963323560
  0.9168192584407423  0.6661101130097332  0.3776363984581807
  0.9165329383017671  0.4163786260343626  0.3767036783957148
  0.6670383508038239  0.6658593376410828  0.3773912970901513
  0.1662569304766292  0.1670884631897074  0.3766769399620921
  0.9168851339795152  0.1672784772255870  0.3771065826249956
  0.9167362357202320  0.9171800240760166  0.3770633216470990
  0.4167543719519301  0.9165556941476998  0.3763475204229101
  0.4162442616705984  0.1667046107422914  0.3766883517007925
  0.6665730766152876  0.1667213271909809  0.3772461024372272
  0.1669252010565611  0.6662976630125159  0.3771011389722664
  0.4170694652793882  0.6665197919779543  0.3765564999072994
  0.4166264009098861  0.4164206700322833  0.3772967328822742
  0.6668113078786877  0.9164631914918028  0.3768728910241439
  0.1663162440468723  0.4165171683699541  0.3775266274215947
  0.6669981495529700  0.4165633121973821  0.3777356718934258
  0.1666159503844648  0.9171746050243351  0.3763055118336099
  0.0007891666546498  0.2477797289911591  0.4853175074695356
  0.4991438234918622  0.2479457775660973  0.4872789431839011
  0.0006693187574834  0.7489139338560026  0.4829846473147983
  0.4997375167042977  0.7489353596764726  0.4822292407480943
  0.7482102784112361  0.7518641281659255  0.4825446909278782
  0.0003358645783913  0.4989666970071059  0.4865504082293690
  0.7514210265834186  0.5004841583596636  0.4864428707312398
  0.2502809605123134 -0.0010904199672444  0.4821415276190656
  0.0006906371997918 -0.0010471257915077  0.4823494166171752
  0.4999578158455451 -0.0006651676377382  0.4822596474552894
  0.2503399655393339  0.7493866079899901  0.4821478824238473
  0.7525756135767798  0.9947098546530778  0.4829177030725129
  0.2534460168636387  0.2472122985871704  0.4818433314830344
  0.7503553545971188  0.2462242500973569  0.4863774671521193
  0.2461208481632924  0.5011674389056713  0.4831464688428113
  0.4983741889287167  0.5015157162868141  0.4864298806142646
  0.9992133479147216  0.2526098045421615  0.1660185390446760
  0.4996181694318783  0.2521745848154660  0.1663897838385295
 -0.0001102455481454  0.7517329593716497  0.1657109360340822
  0.5003825500701350  0.7514482742599230  0.1657377880882936
  0.7506002854498821  0.7513492650380739  0.1659010741965212
 -0.0003563244190407  0.5021613422494703  0.1661780566487582
  0.7498188712367611  0.5021663391193935  0.1662362454358156
  0.2494102249648367  0.0021910151261866  0.1651733947090643
 -0.0006239539072037  0.0019466945687109  0.1658441990303144
  0.5004513847854625  0.0015339777518511  0.1657393436478362
  0.2495937090665308  0.7517849410357943  0.1657243556689669
  0.7497257756140967  0.0019297666898963  0.1658506435097666
  0.2493272600332897  0.2524302897451235  0.1659350163670258
  0.7495787164755608  0.2523475867722861  0.1666481290652712
  0.2494141947966145  0.5020648444042198  0.1658699744386365
  0.4997204707867778  0.5020472935978469  0.1663553572027872
  0.9181240263229726  0.4109462862525479  0.6187283901541074
  0.9192644771558867  0.4127000455664598  0.5559022502295833
  0.5822295862627060  0.3339194093970548  0.5470894840239702
  0.5846394266665683  0.3349135795195482  0.6050145058620363
 
  0.00000000E+00  0.00000000E+00  0.00000000E+00
  0.00000000E+00  0.00000000E+00  0.00000000E+00
  0.00000000E+00  0.00000000E+00  0.00000000E+00
  0.00000000E+00  0.00000000E+00  0.00000000E+00
  0.00000000E+00  0.00000000E+00  0.00000000E+00
  0.00000000E+00  0.00000000E+00  0.00000000E+00
  0.00000000E+00  0.00000000E+00  0.00000000E+00
  0.00000000E+00  0.00000000E+00  0.00000000E+00
  0.00000000E+00  0.00000000E+00  0.00000000E+00
  0.00000000E+00  0.00000000E+00  0.00000000E+00
  0.00000000E+00  0.00000000E+00  0.00000000E+00
  0.00000000E+00  0.00000000E+00  0.00000000E+00
  0.00000000E+00  0.00000000E+00  0.00000000E+00
  0.00000000E+00  0.00000000E+00  0.00000000E+00
  0.00000000E+00  0.00000000E+00  0.00000000E+00
  0.00000000E+00  0.00000000E+00  0.00000000E+00
  0.00000000E+00  0.00000000E+00  0.00000000E+00
  0.00000000E+00  0.00000000E+00  0.00000000E+00
  0.00000000E+00  0.00000000E+00  0.00000000E+00
  0.00000000E+00  0.00000000E+00  0.00000000E+00
  0.00000000E+00  0.00000000E+00  0.00000000E+00
  0.00000000E+00  0.00000000E+00  0.00000000E+00
  0.00000000E+00  0.00000000E+00  0.00000000E+00
  0.00000000E+00  0.00000000E+00  0.00000000E+00
  0.00000000E+00  0.00000000E+00  0.00000000E+00
  0.00000000E+00  0.00000000E+00  0.00000000E+00
  0.00000000E+00  0.00000000E+00  0.00000000E+00
  0.00000000E+00  0.00000000E+00  0.00000000E+00
  0.00000000E+00  0.00000000E+00  0.00000000E+00
  0.00000000E+00  0.00000000E+00  0.00000000E+00
  0.00000000E+00  0.00000000E+00  0.00000000E+00
  0.00000000E+00  0.00000000E+00  0.00000000E+00
  0.00000000E+00  0.00000000E+00  0.00000000E+00
  0.00000000E+00  0.00000000E+00  0.00000000E+00
  0.00000000E+00  0.00000000E+00  0.00000000E+00
  0.00000000E+00  0.00000000E+00  0.00000000E+00
  0.00000000E+00  0.00000000E+00  0.00000000E+00
  0.00000000E+00  0.00000000E+00  0.00000000E+00
  0.00000000E+00  0.00000000E+00  0.00000000E+00
  0.00000000E+00  0.00000000E+00  0.00000000E+00
  0.00000000E+00  0.00000000E+00  0.00000000E+00
  0.00000000E+00  0.00000000E+00  0.00000000E+00
  0.00000000E+00  0.00000000E+00  0.00000000E+00
  0.00000000E+00  0.00000000E+00  0.00000000E+00
  0.00000000E+00  0.00000000E+00  0.00000000E+00
  0.00000000E+00  0.00000000E+00  0.00000000E+00
  0.00000000E+00  0.00000000E+00  0.00000000E+00
  0.00000000E+00  0.00000000E+00  0.00000000E+00
  0.00000000E+00  0.00000000E+00  0.00000000E+00
  0.00000000E+00  0.00000000E+00  0.00000000E+00
  0.00000000E+00  0.00000000E+00  0.00000000E+00
  0.00000000E+00  0.00000000E+00  0.00000000E+00
  0.00000000E+00  0.00000000E+00  0.00000000E+00
  0.00000000E+00  0.00000000E+00  0.00000000E+00
  0.00000000E+00  0.00000000E+00  0.00000000E+00
  0.00000000E+00  0.00000000E+00  0.00000000E+00
  0.00000000E+00  0.00000000E+00  0.00000000E+00
  0.00000000E+00  0.00000000E+00  0.00000000E+00
  0.00000000E+00  0.00000000E+00  0.00000000E+00
  0.00000000E+00  0.00000000E+00  0.00000000E+00
  0.00000000E+00  0.00000000E+00  0.00000000E+00
  0.00000000E+00  0.00000000E+00  0.00000000E+00
  0.00000000E+00  0.00000000E+00  0.00000000E+00
  0.00000000E+00  0.00000000E+00  0.00000000E+00
  0.00000000E+00  0.00000000E+00  0.00000000E+00
  0.00000000E+00  0.00000000E+00  0.00000000E+00
  0.00000000E+00  0.00000000E+00  0.00000000E+00
  0.00000000E+00  0.00000000E+00  0.00000000E+00
