 Cu_COCO
   1.000
   10.1184999999999992    0.0000000000000000    0.0000000000000000
   -5.0592499999999996    8.7628780000000006    0.0000000000000000
    0.0000000000000000    0.0000000000000000   30.4844000000000008
   Cu   O    H    C    O    C    O 
   64   30   60    1    1    1    1
Selective Dynamics
Direct
    0.4005466600000000    0.1025391500000000    0.1180144600000000    T  T  T
    0.9115159700000000    0.6090043200000000    0.1143472900000000    T  T  T
    0.6609842100000000    0.3660520700000000    0.1150627200000000    T  T  T
    0.1535384200000000    0.8403043700000000    0.1165023400000000    T  T  T
    0.1573717000000000    0.5996582700000000    0.1163684400000000    T  T  T
    0.3919913100000000    0.3376042300000000    0.1143930500000000    T  T  T
    0.1576145200000000    0.1021193800000000    0.1196743800000000    T  T  T
    0.4027360500000000    0.8412619400000000    0.1168745500000000    T  T  T
    0.9143882900000000    0.3585992200000000    0.1139701700000000    T  T  T
    0.1528838700000000    0.3503289500000000    0.1183318100000000    T  T  T
    0.6598926700000000    0.1110733200000000    0.1147680300000000    T  T  T
    0.6524769500000001    0.8497816500000001    0.1204983200000000    T  T  T
    0.6586789500000000    0.6107902800000000    0.1135986000000000    T  T  T
    0.4101306700000000    0.5872951199999999    0.1193633100000000    T  T  T
    0.9040377100000000    0.8552746000000000    0.1131155600000000    T  T  T
    0.9064081200000000    0.1055309200000000    0.1191312300000000    T  T  T
    0.3261246200000000    0.1867939500000000    0.1829054300000000    T  T  T
    0.8225226300000000    0.4363580500000000    0.1784057000000000    T  T  T
    0.0651242200000000    0.6831323300000000    0.1792208700000000    T  T  T
    0.3299912200000000    0.9293959700000000    0.1821644100000000    T  T  T
    0.5817802100000000    0.1928003000000000    0.1797142700000000    T  T  T
    0.5651461200000000    0.4412387900000000    0.1777350300000000    T  T  T
    0.0740880000000000    0.4314401500000000    0.1801083700000000    T  T  T
    0.8180908600000000    0.6917857300000000    0.1779727400000000    T  T  T
    0.0684885200000000    0.9263545300000000    0.1792790300000000    T  T  T
    0.3075962800000000    0.4203625100000000    0.1844262400000000    T  T  T
    0.3209887900000000    0.6740362700000000    0.1807210000000000    T  T  T
    0.0705627700000000    0.1791500800000000    0.1890871000000000    T  T  T
    0.5799350300000000    0.9455763800000000    0.1825525500000000    T  T  T
    0.8248378100000000    0.1924489600000000    0.1831598100000000    T  T  T
    0.5734509900000000    0.6907480200000000    0.1858547700000000    T  T  T
    0.8321858500000000    0.9407796800000000    0.1836354300000000    T  T  T
    0.4914871800000000    0.2586097000000000    0.2454276700000000    T  T  T
    0.2370705300000000    0.0153538600000000    0.2532621200000000    T  T  T
    0.9776915500000000    0.7730639100000000    0.2471522700000000    T  T  T
    0.4891888800000000    0.0204168900000000    0.2477533700000000    T  T  T
    0.9914030800000000    0.5193189400000000    0.2453444000000000    T  T  T
    0.7475598500000000    0.5279197900000000    0.2433478200000000    T  T  T
    0.2350377900000000    0.7716764900000000    0.2501395800000000    T  T  T
    0.7295443000000000    0.2686029900000000    0.2517372100000000    T  T  T
    0.2320483800000000    0.2677180000000000    0.2533491900000000    T  T  T
    0.2320218900000000    0.5241896300000000    0.2513029400000000    T  T  T
    0.9864146800000000    0.2732930200000000    0.2496057600000000    T  T  T
    0.5059935100000000    0.5103045800000000    0.2509049200000000    T  T  T
    0.4716668800000000    0.7596203300000000    0.2508973500000000    T  T  T
    0.9811949100000000    0.0157629900000000    0.2543152700000000    T  T  T
    0.7278500500000000    0.0077807000000000    0.2528297200000000    T  T  T
    0.7343487800000000    0.7679333800000000    0.2471773900000000    T  T  T
    0.4863971100000000    0.2648373200000000    0.0467805300000000    F  F  F
    0.2462842100000000    0.0014744200000000    0.0494005500000000    F  F  F
    0.0020461800000000    0.7613972800000000    0.0459231400000000    F  F  F
    0.4913962000000000    0.0166255700000000    0.0526543900000000    F  F  F
    0.9827559900000000    0.5099869800000000    0.0465119600000000    F  F  F
    0.7402367500000000    0.5209496300000001    0.0468854000000000    F  F  F
    0.2407079300000000    0.7582096400000000    0.0478651400000000    F  F  F
    0.7397173700000000    0.2721591800000000    0.0448820000000000    F  F  F
    0.2342256300000000    0.2420147000000000    0.0461493700000000    F  F  F
    0.2476083200000000    0.5100949000000000    0.0523038000000000    F  F  F
    0.9902419200000000    0.2657494300000000    0.0474798000000000    F  F  F
    0.4886118600000000    0.5134120599999999    0.0441568300000000    F  F  F
    0.4915837700000000    0.7746231700000000    0.0512892500000000    F  F  F
    0.9948292800000000    0.0092251900000000    0.0462135800000000    F  F  F
    0.7337483200000000    0.0140877100000000    0.0493640300000000    F  F  F
    0.7508486400000000    0.7826716700000000    0.0475485200000000    F  F  F
    0.7411417600000000    0.0122363600000000    0.3264972900000000    T  T  T
    0.6727256500000000    0.4435741700000000    0.4294346600000000    T  T  T
    0.9701585700000001    0.7470974000000000    0.3405663300000000    T  T  T
    0.6698459100000000    0.3825812400000000    0.3404370000000000    T  T  T
    0.1142593200000000    0.9452259000000000    0.5596639400000000    T  T  T
    0.9235653200000000    0.3003442000000000    0.3215459400000000    T  T  T
    0.0923871700000000    0.7193067900000000    0.4151713200000000    T  T  T
    0.7731145800000000    0.7410744700000000    0.5283520300000000    T  T  T
    0.3023712900000000    0.1575688500000000    0.4638621500000000    T  T  T
    0.2085454800000000    0.3497526600000000    0.4160545800000000    T  T  T
    0.5101722800000000    0.9286904300000000    0.5843936100000000    T  T  T
    0.7903383800000000    0.1337449600000000    0.4614415300000000    T  T  T
    0.0121576000000000    0.4435624000000000    0.4440915800000000    T  T  T
    0.0112460700000000    0.8988258800000000    0.4688262800000000    T  T  T
    0.6427705200000000    0.3716814700000000    0.6117402100000000    T  T  T
    0.6754940600000000    0.6854130600000000    0.6193711100000000    T  T  T
    0.3991423800000000    0.2403521100000000    0.5530763800000000    T  T  T
    0.2401407200000000    0.0082785900000000    0.3293844400000000    T  T  T
    0.8098772900000000    0.1430102500000000    0.5658142200000000    T  T  T
    0.3645784100000000    0.7746817900000000    0.4519662100000000    T  T  T
    0.2329892000000000    0.7716357600000000    0.5397625200000000    T  T  T
    0.5246721700000000    0.0768712700000000    0.3513104500000000    T  T  T
    0.7428525300000000    0.8687574100000000    0.4450825800000000    T  T  T
    0.0719867800000000    0.1205391700000000    0.3520906800000000    T  T  T
    0.3828477900000000    0.4949739400000000    0.5434383400000000    T  T  T
    0.6942603500000000    0.7351969400000000    0.3560605800000000    T  T  T
    0.5228418000000000    0.1086463900000000    0.4386706100000000    T  T  T
    0.4821471400000000    0.5452826700000000    0.4552391900000000    T  T  T
    0.7668352600000000    0.4711821100000000    0.5247772200000000    T  T  T
    0.0173962900000000    0.4493080200000000    0.5398793900000000    T  T  T
    0.7500767400000000    0.9256897600000000    0.3375314000000000    T  T  T
    0.6427891700000000    0.0009443200000000    0.3352826700000000    T  T  T
    0.6083584800000000    0.3294697300000000    0.4340288400000000    T  T  T
    0.6127911700000001    0.4924423200000000    0.4353800500000000    T  T  T
    0.0211096600000000    0.7276991000000000    0.3664420300000000    T  T  T
    0.9621598400000000    0.6776829200000000    0.3164258400000000    T  T  T
    0.6011675100000000    0.4037760100000000    0.3224880700000000    T  T  T
    0.6804027400000000    0.4212936700000000    0.3703818200000000    T  T  T
    0.0126449500000000    0.8722747199999999    0.5706123500000000    T  T  T
    0.1710478100000000    0.8940204000000000    0.5481244199999999    T  T  T
    0.8866492300000000    0.3657123300000000    0.3342383600000000    T  T  T
    0.8467055000000000    0.1883770500000000    0.3297968700000000    T  T  T
    0.2041509400000000    0.7568553700000000    0.4258644100000000    T  T  T
    0.0586408800000000    0.7771460800000000    0.4349475500000000    T  T  T
    0.7277963200000001    0.7779646099999999    0.5070729600000000    T  T  T
    0.7495170100000000    0.7628684300000000    0.5595358499999999    T  T  T
    0.2802112600000000    0.2300001800000000    0.4492969300000000    T  T  T
    0.1954630900000000    0.0729515800000000    0.4672298200000000    T  T  T
    0.1334340500000000    0.3872969300000000    0.4217707400000000    T  T  T
    0.2541567000000000    0.3839696300000000    0.3846318100000000    T  T  T
    0.6138573100000000    0.0215796800000000    0.5835972000000000    T  T  T
    0.5285862000000000    0.8640952500000000    0.6052341400000000    T  T  T
    0.6866061400000000    0.1174301900000000    0.4576678100000000    T  T  T
    0.8607100000000000    0.2370240900000000    0.4500140800000000    T  T  T
    0.0559203400000000    0.4562590600000000    0.4742875400000000    T  T  T
    0.0145202600000000    0.5390968300000000    0.4362714200000000    T  T  T
    0.0042779600000000    0.8890560199999999    0.5015464200000000    T  T  T
    0.9141372800000001    0.8937134200000000    0.4561401200000000    T  T  T
    0.6802631900000000    0.3587669900000000    0.5839674100000000    T  T  T
    0.5678022400000000    0.2661542200000000    0.6203675100000000    T  T  T
    0.7626553000000000    0.7465951600000000    0.6383580500000000    T  T  T
    0.6671505900000000    0.5842890900000000    0.6187876600000000    T  T  T
    0.3908601200000000    0.2138173700000000    0.5214314799999999    T  T  T
    0.3063857800000000    0.1522062200000000    0.5650427099999999    T  T  T
    0.1439598800000000    0.9105644100000000    0.3343638400000000    T  T  T
    0.1875557000000000    0.0707968500000000    0.3339153600000000    T  T  T
    0.7874950600000000    0.1411829700000000    0.5350479900000000    T  T  T
    0.8953059200000000    0.2460474000000000    0.5720606600000000    T  T  T
    0.4194190000000000    0.7194399600000000    0.4573147300000000    T  T  T
    0.4452253000000000    0.8851663300000000    0.4493970100000000    T  T  T
    0.2724482500000000    0.7488178900000000    0.5123473200000001    T  T  T
    0.3260335400000000    0.8053278600000000    0.5599893800000000    T  T  T
    0.4140514100000000    0.0260400100000000    0.3453006500000000    T  T  T
    0.5699888100000000    0.1808887600000000    0.3397624800000000    T  T  T
    0.7121983600000000    0.8330251300000000    0.4148844600000000    T  T  T
    0.7796393000000000    0.9799768100000000    0.4446642600000000    T  T  T
    0.1194641100000000    0.1905619700000000    0.3772438200000000    T  T  T
    0.0574292100000000    0.1926826800000000    0.3323582100000000    T  T  T
    0.4276353600000000    0.5659424500000000    0.5678919300000000    T  T  T
    0.3905039800000000    0.4001262500000000    0.5496648300000000    T  T  T
    0.7919626100000000    0.7456450600000000    0.3473867600000000    T  T  T
    0.6187058800000000    0.6485024900000000    0.3393850600000000    T  T  T
    0.5225400600000000    0.0840085900000000    0.4064453200000000    T  T  T
    0.4181033200000000    0.0988315400000000    0.4449399800000000    T  T  T
    0.4758571100000000    0.5296710100000001    0.4867421800000000    T  T  T
    0.3853735000000000    0.4685359700000000    0.4421288500000000    T  T  T
    0.7401497100000000    0.4364541500000000    0.4944752400000000    T  T  T
    0.7886454100000000    0.5745431400000000    0.5225949400000000    T  T  T
    0.9453518400000001    0.4839457800000000    0.5321134800000000    T  T  T
    0.1014487800000000    0.5365252900000000    0.5546548600000000    T  T  T
    0.3481115000000000    0.5940670600000000    0.3089095300000000    T  T  T
    0.3447596600000000    0.6444532900000000    0.3453770200000000    T  T  T
    0.4099531900000000    0.4847814000000000    0.3028886100000000    T  T  T
    0.3682032700000000    0.3839011800000000    0.3331093300000000    T  T  T

   0.002058153492500    0.001909343487420   -0.000833138652000
   0.001473405377499   -0.001221457564420   -0.004764102032000
   0.003965338965001   -0.001064339161880   -0.001330948904000
   0.000108925652500   -0.000519200521500   -0.002690857988000
   0.000993130775000   -0.001397153268320   -0.001758340192000
   0.002089622027500    0.002950899166500    0.001316926080000
  -0.001161806170000   -0.000889256859440   -0.000192051720000
   0.000758634537500    0.000542334519420   -0.001158407200000
   0.000785246192501   -0.001457178982620   -0.000286248516000
  -0.000138876412500   -0.000267705922900   -0.003383768400000
  -0.001971184985000   -0.000247638932280   -0.000610297688000
   0.002596660062499    0.000966457814619    0.002070195604000
  -0.000491253175001    0.002122018536480   -0.000857221328000
  -0.001386538055000    0.002164080350880    0.000485006804000
   0.000161137112500    0.000165180250300   -0.000406966740000
   0.002364592265002    0.000979339245280    0.001909542816000
  -0.002722230647500   -0.001651714874220    0.000005792035999
  -0.000628257665001   -0.002937316705600   -0.000719736684000
   0.001710835979999    0.005412303967921    0.000209427828000
  -0.002886403309999    0.002777131295762    0.001046224608000
   0.000728784962500    0.000517447945900   -0.002336324416000
   0.000090408797500   -0.003618455212540    0.003001798868000
   0.002082792040000   -0.002392265694000    0.000972147515999
   0.002628533337500   -0.002799827149779    0.000996839879999
   0.001062948424999    0.001870348680320   -0.002119885176000
   0.000870595740000    0.000335267712280    0.000964526415999
  -0.000894273030001    0.002607657235240   -0.001339179692000
  -0.001006133047500    0.001752137456100   -0.000234120192000
   0.000078064227501   -0.001881127020260   -0.000567619528000
   0.000233383202499   -0.000054592729940    0.001252299151999
   0.001438243589999    0.002545090286320    0.001725721883999
  -0.000934392882502   -0.002302796709619   -0.000547804667999
  -0.001765475880000    0.001921348630280    0.001128227644000
  -0.001244524907500    0.001782281756420    0.001955269416001
  -0.000918557430000   -0.001437287249559    0.000188088748000
   0.001140962060000   -0.000798999216040    0.000300881028000
   0.000056916562500    0.002653837602299   -0.000539269036000
   0.003865064629999    0.001920822857600    0.001685482476001
  -0.002311318362500    0.002132972133980   -0.001045919764000
   0.001567102687500   -0.001293137906460    0.000781620016000
   0.000840847350000   -0.002247327691880   -0.001121521076000
   0.000563904005000    0.003207914378240   -0.003920598683999
  -0.000519635567500   -0.001696931324700    0.002088486244000
   0.000862045607499   -0.002204301960900   -0.000096330703999
  -0.002176590535001    0.000444277914601    0.000401479548001
   0.000673487359999    0.002440987295680   -0.001243458675998
  -0.002187822070000   -0.001938523871160   -0.001786080995998
   0.001471179307500   -0.000364973868701   -0.000734369196000
  -0.002793363702500   -0.003222548384500    0.000509699168000
  -0.003400574887499   -0.003511723358500    0.002980459788000
  -0.000577462795000   -0.002790976643000    0.002593917596000
   0.000707687889999    0.000841586803120    0.002028736820000
   0.001032542332499   -0.001653292192260    0.000568534060000
  -0.000440458305000    0.001011586636320   -0.000212476268000
  -0.000105890102500    0.003363455462740    0.000538049660000
   0.003276117337500    0.001298045118140    0.001425145700000
   0.000817726577500   -0.000023922656940   -0.000418550812000
   0.001672183310000   -0.000852277514280   -0.000790460492000
   0.000008550132499    0.001080550486180   -0.001307171072000
  -0.001192617002500   -0.001276663695820   -0.002253711692000
   0.001373991115000   -0.001000370152480   -0.002912174732000
  -0.000505570852500    0.002313487420780    0.000391724540000
   0.001136611105000    0.001690359166200   -0.000686508688000
  -0.000725192895000   -0.001857554878439    0.001254737904000
   0.000179552782501   -0.006292885578140   -0.003795307799999
   0.002230167992501   -0.004390289506780    0.002013189775999
  -0.003444286807500    0.002727270519940    0.007484529888002
  -0.001341004805001   -0.002836017835920    0.001558057684001
  -0.005034965600001    0.001115514369401   -0.004727520751999
  -0.008210960379999   -0.007000487976640   -0.003363648696000
  -0.001479830625000   -0.004242284497360   -0.000608468624000
  -0.005210825130000   -0.002440111007881   -0.000599932991999
  -0.005885982042499    0.006664256347780    0.006173700688000
  -0.005795674430000   -0.000632329276480   -0.000077125532000
   0.004150456922499   -0.007790811943460    0.004048633164000
  -0.003457238487499   -0.000451901618460    0.001807115232001
  -0.008822775482500   -0.003887300309580    0.000553901548001
  -0.011984250215001   -0.000612349914640   -0.006179492724000
  -0.000871455812501   -0.001956663028620    0.008084462879999
   0.001982568297501   -0.001077921622780   -0.003163671031999
   0.006392767114999    0.001908554828400   -0.002629584344000
  -0.003992709507500    0.000944200104500    0.000942882492000
   0.000695596282500    0.000213376079300   -0.003873957552003
   0.004855514002500    0.003962135287700   -0.005385374104000
   0.002613912105000    0.003818161202160   -0.002673177036002
  -0.003995745057500   -0.000591581893780   -0.001500442168000
  -0.000610398512499    0.000599468483981    0.008640193491999
   0.002197029905000    0.004195841243960   -0.004392497195999
   0.004367954080000    0.005235819605000    0.002604891979999
  -0.008541885922499   -0.008405089691260    0.006489823915999
   0.003581746629999    0.006304890721000   -0.000367641864001
  -0.001997695455000    0.003795202461800    0.004751603428000
   0.004626279385000    0.002234533890000    0.005017427395996
   0.001763148625000    0.001443421264160    0.001355946112000
   0.009705564014999   -0.014708841238122   -0.008323460575999
  -0.018682646622500   -0.005090618716540    0.024618896595998
   0.009700960097500    0.000769293059620   -0.018509213148002
  -0.021334604287500   -0.028861152094460    0.023966835279998
  -0.009343321715000    0.038362477823520    0.015880543336001
  -0.008209644975000   -0.000270948187760    0.009464796511999
  -0.011524718537500   -0.000560035532980    0.034830865752001
   0.034182620254999   -0.037519664217480    0.031646160484001
   0.015933804320000   -0.001680018970159   -0.005141803748000
   0.004075580022500   -0.001379890398660    0.006578533520003
   0.000420373082500   -0.026170598033340    0.015726597115998
  -0.020817447752501   -0.007329008272860    0.015573260584000
  -0.005107464652500    0.006178442391461    0.002783225719998
  -0.004730449342500    0.002628775771220    0.021834756343999
  -0.011000681422502    0.005847205603061    0.005896292648000
   0.011607285497500    0.026534783243020   -0.003110323331999
  -0.003509804095000    0.023990832130840    0.014740121932000
   0.023593154672500   -0.027071246634180    0.022380122260000
  -0.006731736865000    0.016964581292880   -0.001639451032000
  -0.013717903412500   -0.006294462896180    0.012449524115999
   0.009432313922500   -0.007676544014340   -0.018027864472000
   0.011587503830000    0.010558041187079    0.010094909060001
  -0.011064427972499   -0.009807675943940   -0.026167808959999
   0.008824546220000    0.004268923646480    0.007295831452002
   0.019756775990000   -0.012228245733880   -0.026876876104000
  -0.038306010190001    0.010266412607240   -0.000872158684000
  -0.016546428902501   -0.017998513268100   -0.013701213580003
   0.004804263800001    0.000036804087600   -0.006155410047999
  -0.023234807995001   -0.014085450097200   -0.009782443959999
  -0.030729732722500   -0.002298590528180   -0.032923152000002
  -0.005370798615001   -0.019391723241321    0.009387366136000
  -0.001596142782500   -0.008290997019700   -0.006705653468000
   0.020959713862500    0.010549365937860    0.000661816324003
   0.000219116117500    0.021605489110460    0.006862343284002
  -0.014286512520000   -0.012272410639000    0.041614254439999
  -0.009389057335000    0.003956439417000   -0.019094208783999
  -0.003660367375000   -0.009350341341120   -0.038234449012002
  -0.012042684552501    0.005614989336060    0.007970146380000
  -0.009045078927500   -0.006207359888861   -0.002052514651998
  -0.010205620284999   -0.006853797398920   -0.014435277932000
  -0.002997403255000   -0.002389812088160    0.001886679515998
  -0.016640885100000   -0.016564643540961   -0.019515808035997
  -0.018425636722500   -0.029148223977740    0.015503146463999
   0.008588380430000    0.021943473314920    0.032286028040001
   0.010517067714999   -0.041691495175719    0.039002046204001
  -0.007367128072501    0.029902707773541    0.006385872112002
   0.028672085155000   -0.020284835767080    0.032562216703999
  -0.009835030222500    0.005489855438220   -0.027302743171999
   0.001183712722500    0.023995651713740   -0.034391890392001
  -0.013368562200000    0.009784279059680    0.015822013287998
   0.005902879937500    0.013514022822820   -0.000596884552001
   0.032515850342500   -0.002923033214461   -0.005248803992002
  -0.015499417115000   -0.004126088735080   -0.018247961840000
  -0.000154256532500    0.001496787191180    0.016209470012001
  -0.013451736270000    0.018726445543559    0.016838668027999
   0.013927963472501    0.008083492068660   -0.024267411464002
   0.008521750107500   -0.009942974780260    0.031829981416001
  -0.001251860820000    0.027381540144161   -0.002094583123998
  -0.017188599505000    0.005289097903240    0.000851429292002
  -0.004742895097499    0.008983264381699   -0.018486349848001
   0.001863473552500    0.001804889981660   -0.000814543168000
   0.000866953080000   -0.003478862565999    0.002530510044000
  -0.004167759557500   -0.006557173978620    0.007915579304001
  -0.005576608905000   -0.001777812688640   -0.001915334851999