 Ni\(1\1\1)                             
   1.00000000000000     
     9.8291997910000006    0.0000000000000000    0.0000000000000000
     4.9145998955000003    8.5123367178000002    0.0000000000000000
     0.0000000000000000    0.0000000000000000   19.0128002167000005
   Ni   O    C    O    H    C    O    H 
    64     3     1     2     1     1     1     1
Selective dynamics
Direct
  0.8341208604246309  0.5819670861495585  0.2714758445775656   T   T   T
  0.3341934743393906  0.0820714339219430  0.2701778204660343   T   T   T
  0.8337306280136415  0.0818454497162893  0.2710404009378306   T   T   T
  0.3340915607144374  0.5818216622350486  0.2707037319722794   T   T   T
  0.5844489740576436  0.8321013453633964  0.2707199166920053   T   T   T
  0.8336617410331014  0.8316385484786288  0.2711114886010264   T   T   T
  0.0837250090763859  0.3323779217279365  0.2704696885957631   T   T   T
  0.8339723829822060  0.3320360717894708  0.2715116348632294   T   T   T
  0.5844499884646195  0.5810868231359844  0.2717415471153465   T   T   T
  0.0834268046128311  0.5822727538263843  0.2713360759234557   T   T   T
  0.0830090046197766  0.0828113901587684  0.2703312217951770   T   T   T
  0.5847178009351496  0.0824133354675307  0.2717811671211917   T   T   T
  0.3348700055734482  0.8317755774873495  0.2709265305737587   T   T   T
  0.0838308649375552  0.8318578603114704  0.2705330260608956   T   T   T
  0.3334442216865542  0.3324289563272980  0.2716810913851250   T   T   T
  0.5844934068014936  0.3314063168753640  0.2717819401415283   T   T   T
  0.9179510819045829  0.6638547343293378  0.3767069470072361   T   T   T
  0.9181632858945438  0.4150993448723096  0.3761559885827483   T   T   T
  0.6679527589942992  0.6642541661485251  0.3755708308687462   T   T   T
  0.1681291320130458  0.1648895471542731  0.3747811928986866   T   T   T
  0.9157731106132048  0.1650134732022644  0.3766962114413216   T   T   T
  0.9172684575956431  0.9153897876300972  0.3754512201749106   T   T   T
  0.4171132084948082  0.9159353829958820  0.3758501094622157   T   T   T
  0.4176559362008746  0.1648851551661037  0.3759147409547043   T   T   T
  0.6690735326586084  0.1662334949221186  0.3786260025829277   T   T   T
  0.1680073322556723  0.6652966047460777  0.3758499107376794   T   T   T
  0.4175871506852419  0.6643914142487490  0.3762105566019874   T   T   T
  0.4176679406824197  0.4153697295853631  0.3763913823884626   T   T   T
  0.6663011899137091  0.9166437373309703  0.3778156050795412   T   T   T
  0.1667229273364611  0.4156975196832837  0.3786699744008142   T   T   T
  0.6679002965867028  0.4137480242400026  0.3791913959753471   T   T   T
  0.1675850054859073  0.9157221862083494  0.3775027605908516   T   T   T
  0.0012203554339364  0.2480546994288235  0.4772063527124557   T   T   T
  0.5005358777844470  0.2482359796575897  0.4799917095599189   T   T   T
  0.9980878267846768  0.7477014635620636  0.4795400809534762   T   T   T
  0.5049926636079350  0.7479058620065403  0.4788993270061271   T   T   T
  0.7481964224808978  0.7504025769491957  0.4799955627549616   T   T   T
  0.0010409005372581  0.5006207748069130  0.4872905475613851   T   T   T
  0.7531065449213503  0.5000818239647006  0.4828367237811725   T   T   T
  0.2491327870743566  0.9973793942096637  0.4849135702829812   T   T   T
  0.0052253367563328  0.9954373237719599  0.4840594251704562   T   T   T
  0.5016363786466409  0.9977730347869136  0.4872917158773571   T   T   T
  0.2490677693208732  0.7535739884149679  0.4851466919351869   T   T   T
  0.7476226065286915  0.9954950709681465  0.4852292117303384   T   T   T
  0.2508270000924697  0.2513280473405188  0.4838376147594462   T   T   T
  0.7468506106952409  0.2542310877999833  0.4995142909065284   T   T   T
  0.2490031747550547  0.4982588446221707  0.4851167166829611   T   T   T
  0.5013146557464815  0.5000134308068757  0.4864410354200709   T   T   T
  0.9970724670000024  0.2558556729999992  0.1637003960000030   F   F   F
  0.4999617989999976  0.2500875830000027  0.1643123180000003   F   F   F
  0.9968841629999972  0.7476992069999966  0.1643590660000029   F   F   F
  0.5054474789999972  0.7476858750000019  0.1651548480000002   F   F   F
  0.7507219769999978  0.7486395119999969  0.1651830500000031   F   F   F
  0.9979410790000003  0.5014025589999989  0.1651978470000017   F   F   F
  0.7507272960000009  0.5014379059999996  0.1654730480000026   F   F   F
  0.2484077359999972  0.9989653640000000  0.1655050250000016   F   F   F
  0.0026835399999996  0.9989392600000002  0.1655775309999967   F   F   F
  0.5037179199999997  0.9979203070000011  0.1655856309999990   F   F   F
  0.2483221529999966  0.7533767729999994  0.1658259459999982   F   F   F
  0.7484137009999969  0.9978805350000002  0.1658943890000018   F   F   F
  0.2473094730000014  0.2543786680000011  0.1660089160000027   F   F   F
  0.7483561820000020  0.2543461500000035  0.1660180820000008   F   F   F
  0.2472921950000000  0.4989472700000022  0.1662971330000005   F   F   F
  0.5037960519999984  0.4989156760000029  0.1664085250000014   F   F   F
  0.3277270675315119  0.0861127963077813  0.5470114757151265   T   T   T
  0.8451661805588685  0.0593427065629365  0.5462392157215353   T   T   T
  0.3277102722676053  0.5869352656312007  0.5451641923434662   T   T   T
  0.9309804583220744  0.4032515898750648  0.6017011356695567   T   T   T
  0.9961383439207765  0.4856305667859538  0.5943457636186142   T   T   T
  0.0112123029309352  0.2540481329669478  0.6238662827341579   T   T   T
  0.1253084284539438  0.2162083973559492  0.6211835130409380   T   T   T
  0.7602109650273187  0.4657566382114018  0.5880748693378413   T   T   T
  0.7000114708938279  0.3724468824664809  0.5895615050182035   T   T   T
  0.6857468202743481  0.5893870634191748  0.6051810038511100   T   T   T
 
  0.00000000E+00  0.00000000E+00  0.00000000E+00
  0.00000000E+00  0.00000000E+00  0.00000000E+00
  0.00000000E+00  0.00000000E+00  0.00000000E+00
  0.00000000E+00  0.00000000E+00  0.00000000E+00
  0.00000000E+00  0.00000000E+00  0.00000000E+00
  0.00000000E+00  0.00000000E+00  0.00000000E+00
  0.00000000E+00  0.00000000E+00  0.00000000E+00
  0.00000000E+00  0.00000000E+00  0.00000000E+00
  0.00000000E+00  0.00000000E+00  0.00000000E+00
  0.00000000E+00  0.00000000E+00  0.00000000E+00
  0.00000000E+00  0.00000000E+00  0.00000000E+00
  0.00000000E+00  0.00000000E+00  0.00000000E+00
  0.00000000E+00  0.00000000E+00  0.00000000E+00
  0.00000000E+00  0.00000000E+00  0.00000000E+00
  0.00000000E+00  0.00000000E+00  0.00000000E+00
  0.00000000E+00  0.00000000E+00  0.00000000E+00
  0.00000000E+00  0.00000000E+00  0.00000000E+00
  0.00000000E+00  0.00000000E+00  0.00000000E+00
  0.00000000E+00  0.00000000E+00  0.00000000E+00
  0.00000000E+00  0.00000000E+00  0.00000000E+00
  0.00000000E+00  0.00000000E+00  0.00000000E+00
  0.00000000E+00  0.00000000E+00  0.00000000E+00
  0.00000000E+00  0.00000000E+00  0.00000000E+00
  0.00000000E+00  0.00000000E+00  0.00000000E+00
  0.00000000E+00  0.00000000E+00  0.00000000E+00
  0.00000000E+00  0.00000000E+00  0.00000000E+00
  0.00000000E+00  0.00000000E+00  0.00000000E+00
  0.00000000E+00  0.00000000E+00  0.00000000E+00
  0.00000000E+00  0.00000000E+00  0.00000000E+00
  0.00000000E+00  0.00000000E+00  0.00000000E+00
  0.00000000E+00  0.00000000E+00  0.00000000E+00
  0.00000000E+00  0.00000000E+00  0.00000000E+00
  0.00000000E+00  0.00000000E+00  0.00000000E+00
  0.00000000E+00  0.00000000E+00  0.00000000E+00
  0.00000000E+00  0.00000000E+00  0.00000000E+00
  0.00000000E+00  0.00000000E+00  0.00000000E+00
  0.00000000E+00  0.00000000E+00  0.00000000E+00
  0.00000000E+00  0.00000000E+00  0.00000000E+00
  0.00000000E+00  0.00000000E+00  0.00000000E+00
  0.00000000E+00  0.00000000E+00  0.00000000E+00
  0.00000000E+00  0.00000000E+00  0.00000000E+00
  0.00000000E+00  0.00000000E+00  0.00000000E+00
  0.00000000E+00  0.00000000E+00  0.00000000E+00
  0.00000000E+00  0.00000000E+00  0.00000000E+00
  0.00000000E+00  0.00000000E+00  0.00000000E+00
  0.00000000E+00  0.00000000E+00  0.00000000E+00
  0.00000000E+00  0.00000000E+00  0.00000000E+00
  0.00000000E+00  0.00000000E+00  0.00000000E+00
  0.00000000E+00  0.00000000E+00  0.00000000E+00
  0.00000000E+00  0.00000000E+00  0.00000000E+00
  0.00000000E+00  0.00000000E+00  0.00000000E+00
  0.00000000E+00  0.00000000E+00  0.00000000E+00
  0.00000000E+00  0.00000000E+00  0.00000000E+00
  0.00000000E+00  0.00000000E+00  0.00000000E+00
  0.00000000E+00  0.00000000E+00  0.00000000E+00
  0.00000000E+00  0.00000000E+00  0.00000000E+00
  0.00000000E+00  0.00000000E+00  0.00000000E+00
  0.00000000E+00  0.00000000E+00  0.00000000E+00
  0.00000000E+00  0.00000000E+00  0.00000000E+00
  0.00000000E+00  0.00000000E+00  0.00000000E+00
  0.00000000E+00  0.00000000E+00  0.00000000E+00
  0.00000000E+00  0.00000000E+00  0.00000000E+00
  0.00000000E+00  0.00000000E+00  0.00000000E+00
  0.00000000E+00  0.00000000E+00  0.00000000E+00
  0.00000000E+00  0.00000000E+00  0.00000000E+00
  0.00000000E+00  0.00000000E+00  0.00000000E+00
  0.00000000E+00  0.00000000E+00  0.00000000E+00
  0.00000000E+00  0.00000000E+00  0.00000000E+00
  0.00000000E+00  0.00000000E+00  0.00000000E+00
  0.00000000E+00  0.00000000E+00  0.00000000E+00
  0.00000000E+00  0.00000000E+00  0.00000000E+00
  0.00000000E+00  0.00000000E+00  0.00000000E+00
  0.00000000E+00  0.00000000E+00  0.00000000E+00
  0.00000000E+00  0.00000000E+00  0.00000000E+00
