 Ni_O
   1.000
    9.8292000000000002    0.0000000000000000    0.0000000000000000
    4.9146000000000001    8.5123370000000005    0.0000000000000000
    0.0000000000000000    0.0000000000000000   30.7148000000000003
   Ni   O    H    C    O 
   64   30   60    2    2
Selective Dynamics
Direct
    0.0777091900000000    0.0816028400000000    0.1239792600000000    T  T  T
    0.3303572900000000    0.0844325300000000    0.1208409400000000    T  T  T
    0.3217927900000000    0.8387702400000000    0.1218398000000000    T  T  T
    0.5761267200000000    0.3341255200000000    0.1227116000000000    T  T  T
    0.3263938500000000    0.5774273900000000    0.1187105000000000    T  T  T
    0.3297732300000000    0.3309704900000000    0.1206132100000000    T  T  T
    0.8320415000000000    0.0905884300000000    0.1207746200000000    T  T  T
    0.5847719700000000    0.0806458900000000    0.1221400400000000    T  T  T
    0.8327171799999999    0.3312790100000000    0.1229930000000000    T  T  T
    0.5698383200000000    0.5942309600000000    0.1197868300000000    T  T  T
    0.0768092000000000    0.8284348800000000    0.1170979200000000    T  T  T
    0.5819705900000000    0.8392148600000000    0.1209915600000000    T  T  T
    0.0851518200000000    0.3222174600000000    0.1219385000000000    T  T  T
    0.8206812100000000    0.5966493600000000    0.1221651600000000    T  T  T
    0.0774577900000000    0.5849334100000000    0.1200741300000000    T  T  T
    0.8266955700000000    0.8394522500000000    0.1212667000000000    T  T  T
    0.1790764300000000    0.1568056900000000    0.1876075300000000    T  T  T
    0.1652588300000000    0.9125514500000000    0.1864386400000000    T  T  T
    0.4201148000000000    0.1691997900000000    0.1859679000000000    T  T  T
    0.4255620300000000    0.9178675900000000    0.1869266900000000    T  T  T
    0.4121618600000000    0.4237264700000000    0.1889007700000000    T  T  T
    0.4051452900000000    0.6723039200000001    0.1891291000000000    T  T  T
    0.9132173099999999    0.1736733300000000    0.1924947600000000    T  T  T
    0.6637344100000000    0.1695263500000000    0.1873155100000000    T  T  T
    0.6559756700000000    0.4326223700000000    0.1864890500000000    T  T  T
    0.1672829000000000    0.6684626000000000    0.1864685400000000    T  T  T
    0.9123815400000000    0.4262785300000000    0.1838304000000000    T  T  T
    0.6650823500000000    0.6734092699999999    0.1862731000000000    T  T  T
    0.9125850400000000    0.9150478900000000    0.1863937800000000    T  T  T
    0.6812447100000000    0.9069241100000000    0.1937323600000000    T  T  T
    0.1652053000000000    0.4213363600000000    0.1887455200000000    T  T  T
    0.9099948600000000    0.6718922500000000    0.1892726500000000    T  T  T
    0.2447168900000000    0.9956320900000000    0.2503598100000000    T  T  T
    0.4909963600000000    0.2533651300000000    0.2533472100000000    T  T  T
    0.4899548400000000    0.5057735400000000    0.2571557600000000    T  T  T
    0.2450472500000000    0.2551875500000000    0.2555039800000000    T  T  T
    0.9804340000000000    0.2645853100000000    0.2574657600000000    T  T  T
    0.7379306000000000    0.2681501700000000    0.2531598000000000    T  T  T
    0.4982198100000000    0.7578220700000000    0.2509910400000000    T  T  T
    0.2460459400000000    0.7589976400000000    0.2567774400000000    T  T  T
    0.4957391200000000    0.9992548000000000    0.2541304000000000    T  T  T
    0.9916486000000000    0.0139062200000000    0.2539723400000000    T  T  T
    0.2456950200000000    0.5120231600000000    0.2558338300000000    T  T  T
    0.7471851300000000    0.5082208800000000    0.2547475300000000    T  T  T
    0.7531635700000000    0.0015979700000000    0.2556766000000000    T  T  T
    0.9954978500000000    0.7462145900000000    0.2541697600000000    T  T  T
    0.7373134800000000    0.7598983600000000    0.2584997600000000    T  T  T
    0.9942775600000000    0.5064360500000000    0.2532740700000000    T  T  T
    0.2488099900000000    0.0018900000000000    0.0530725900000000    F  F  F
    0.4986599900000000    0.2520299800000000    0.0530725900000000    F  F  F
    0.4987100700000000    0.5019500099999999    0.0530725900000000    F  F  F
    0.2486699900000000    0.2519600100000000    0.0530725900000000    F  F  F
    0.9988300200000000    0.2520000100000000    0.0530725900000000    F  F  F
    0.7487000500000000    0.2521200000000000    0.0530725900000000    F  F  F
    0.4986899700000000    0.7520999700000000    0.0530725900000000    F  F  F
    0.2487699600000000    0.7521200300000001    0.0530725900000000    F  F  F
    0.4985999800000000    0.0021100000000000    0.0530725900000000    F  F  F
    0.9987700300000000    0.0022100000000000    0.0530725900000000    F  F  F
    0.2487500100000000    0.5021200300000001    0.0530725900000000    F  F  F
    0.7486699900000000    0.5022699800000000    0.0530725900000000    F  F  F
    0.7485900000000000    0.0024500000000000    0.0530725900000000    F  F  F
    0.9987000500000000    0.7524499700000000    0.0530725900000000    F  F  F
    0.7486699300000000    0.7524300300000000    0.0530725900000000    F  F  F
    0.9986899600000000    0.5022000200000000    0.0530725900000000    F  F  F
    0.9680448200000000    0.8330802100000000    0.5464904800000000    T  T  T
    0.4801072400000000    0.9911270200000000    0.5628411800000001    T  T  T
    0.5352808500000000    0.7037355000000000    0.3738183200000000    T  T  T
    0.0545392400000000    0.0853095900000000    0.4562858800000000    T  T  T
    0.3420778300000000    0.0520786200000000    0.3565314700000000    T  T  T
    0.9991028300000000    0.5158172500000000    0.5679321100000000    T  T  T
    0.7755205500000000    0.5328297000000000    0.4270227100000000    T  T  T
    0.1673053400000000    0.6312750700000000    0.3728266100000000    T  T  T
    0.7347454300000000    0.7505937499999999    0.3237885500000000    T  T  T
    0.3269105200000000    0.8427880400000000    0.4859769700000000    T  T  T
    0.0230533400000000    0.0310795400000000    0.3646281500000000    T  T  T
    0.2206417900000000    0.4616051500000000    0.5059143900000000    T  T  T
    0.1817478300000000    0.0673865500000000    0.5990364900000000    T  T  T
    0.5989503900000001    0.3514438400000000    0.4372998400000000    T  T  T
    0.5435966700000000    0.5102984699999999    0.5687695900000000    T  T  T
    0.2936060500000000    0.6047564800000000    0.4480692700000000    T  T  T
    0.5098577100000000    0.9836107200000000    0.4599688600000000    T  T  T
    0.7126734700000000    0.6280824300000000    0.5290656900000000    T  T  T
    0.9397057400000000    0.2910397600000000    0.6432002999999999    T  T  T
    0.5246536800000000    0.2815177300000000    0.5151218300000000    T  T  T
    0.6642919800000000    0.3274590800000000    0.6471759100000000    T  T  T
    0.2780320400000000    0.7649587200000000    0.5664699300000000    T  T  T
    0.8507061900000000    0.9016660500000000    0.3780962800000000    T  T  T
    0.7013419500000000    0.1021115900000000    0.5795162100000000    T  T  T
    0.2024911200000000    0.2584648400000000    0.4409440000000000    T  T  T
    0.7923365999999999    0.9423442700000000    0.4690766500000000    T  T  T
    0.5482938500000000    0.1639064100000000    0.3717916400000000    T  T  T
    0.9339019300000000    0.2110277200000000    0.5357960000000001    T  T  T
    0.2420228700000000    0.7788244000000000    0.3211151900000000    T  T  T
    0.1606876600000000    0.3454501400000000    0.3603969600000000    T  T  T
    0.0816740100000000    0.8063002100000000    0.5499764700000001    T  T  T
    0.9667089200000000    0.7377108100000001    0.5559714500000000    T  T  T
    0.4749593300000000    0.9950376800000000    0.5311176500000000    T  T  T
    0.5525801000000000    0.8771470099999999    0.5662913100000000    T  T  T
    0.4323301300000000    0.7970397400000000    0.3760006100000000    T  T  T
    0.5103603100000000    0.6361785300000000    0.3539028600000000    T  T  T
    0.9744913200000000    0.1331082700000000    0.4775392100000000    T  T  T
    0.0890756200000000    0.1620957200000000    0.4486201900000000    T  T  T
    0.2643301000000000    0.1293364300000000    0.3391115200000000    T  T  T
    0.4165062300000000    0.0860540600000000    0.3607135900000000    T  T  T
    0.9727888300000000    0.5049433300000000    0.5967298500000000    T  T  T
    0.9041187700000000    0.5462566800000000    0.5501913899999999    T  T  T
    0.8520891400000000    0.5247810300000000    0.4058839600000000    T  T  T
    0.6802991900000001    0.6139369800000000    0.4124971200000000    T  T  T
    0.0612103800000000    0.7222539800000000    0.3727063800000000    T  T  T
    0.2229852500000000    0.6090342200000000    0.4018669700000000    T  T  T
    0.6487053300000000    0.7365305900000000    0.3398954000000000    T  T  T
    0.7481203100000000    0.8287846700000000    0.3419933500000000    T  T  T
    0.3115761600000000    0.7602202300000001    0.4705125400000000    T  T  T
    0.2232410600000000    0.9396306300000000    0.4798339500000000    T  T  T
    0.9778090100000000    0.1419152700000000    0.3552653800000000    T  T  T
    0.0404342700000000    0.0325867200000000    0.3956719300000000    T  T  T
    0.3353649600000000    0.3936663100000000    0.5113965800000000    T  T  T
    0.1612970800000000    0.4861784000000000    0.5337180700000000    T  T  T
    0.1124582700000000    0.1213434100000000    0.6233116700000000    T  T  T
    0.2805578900000000    0.0730658600000000    0.5947699100000000    T  T  T
    0.6705013200000000    0.3929372300000000    0.4295524200000000    T  T  T
    0.5874912000000000    0.2980627300000000    0.4109185900000000    T  T  T
    0.4371505000000000    0.6125283000000000    0.5714113700000000    T  T  T
    0.5392641700000000    0.4527656800000000    0.5421518200000000    T  T  T
    0.4019834600000000    0.5109443400000000    0.4468823200000000    T  T  T
    0.2435232900000000    0.5747148600000000    0.4722510100000000    T  T  T
    0.4146831100000000    0.0855861400000000    0.4519589100000000    T  T  T
    0.4699373200000000    0.9114197200000000    0.4568773600000000    T  T  T
    0.7387518700000000    0.6088443900000000    0.4973799600000000    T  T  T
    0.6535294699999999    0.5758640800000000    0.5367314399999999    T  T  T
    0.9604938600000000    0.3083363600000000    0.6730843900000000    T  T  T
    0.8283286500000000    0.3090754800000000    0.6461703700000000    T  T  T
    0.5771050100000000    0.2662704200000000    0.4855262900000000    T  T  T
    0.5965704800000000    0.2133229900000000    0.5392697400000001    T  T  T
    0.6782295800000000    0.2423430600000000    0.6274069200000000    T  T  T
    0.6056026100000000    0.4238210800000000    0.6287718500000000    T  T  T
    0.2519006100000000    0.8595316100000000    0.5840541900000000    T  T  T
    0.3163367400000000    0.7877216700000000    0.5392292000000000    T  T  T
    0.9130278700000000    0.9538751600000001    0.3657415900000000    T  T  T
    0.8478544800000000    0.9018613599999999    0.4106678100000000    T  T  T
    0.8019837900000000    0.0587514400000000    0.5621710200000000    T  T  T
    0.6495393200000000    0.0417207100000000    0.5734114200000000    T  T  T
    0.1812655600000000    0.3136243400000000    0.4130223400000000    T  T  T
    0.1872643000000000    0.3430093900000000    0.4644158300000000    T  T  T
    0.8703258800000000    0.8873326000000000    0.4919841100000000    T  T  T
    0.6937585600000000    0.9389105599999999    0.4698217300000000    T  T  T
    0.5142865900000000    0.2334534900000000    0.3456878200000000    T  T  T
    0.6622272600000000    0.0909187100000000    0.3702731000000000    T  T  T
    0.9099243700000000    0.3139208400000000    0.5354710499999999    T  T  T
    0.0257822100000000    0.1648499900000000    0.5575670000000000    T  T  T
    0.2185954500000000    0.7063486600000000    0.3428560500000000    T  T  T
    0.1762784200000000    0.8808651800000000    0.3345536100000000    T  T  T
    0.0507820500000000    0.3688425500000000    0.3500010600000000    T  T  T
    0.1644062900000000    0.4471426300000000    0.3549590700000000    T  T  T
    0.6493456399999999    0.4162228600000000    0.3040047000000000    T  T  T
    0.8192542700000000    0.3831017700000000    0.3038249900000000    T  T  T
    0.5460315400000000    0.4498995600000000    0.3333584000000000    T  T  T
    0.8786858000000000    0.3493931900000000    0.3429284900000000    T  T  T

   0.000227840856000   -0.000059416112260    0.000192581796000
   0.002633046096000   -0.003385186178160    0.001574747796000
   0.001479884351999   -0.000534234270121    0.002280266752000
  -0.000490624518000   -0.001033653081910   -0.001351144052000
  -0.001910010144000    0.002355533894640    0.000485600988001
  -0.002021522418000   -0.005643764554371   -0.001499189388000
  -0.001519446882000   -0.005081609818890    0.002042227052000
  -0.005389596090001   -0.000350112420810   -0.000908543784000
  -0.000092394479999    0.001346992206880   -0.002475920028000
  -0.001229583773998    0.003315129644650    0.001460181592000
  -0.000048998562000    0.002299267347070    0.002279652456000
   0.001080474809999    0.000658940007169   -0.000907315192000
   0.002202133968000   -0.000652896247900    0.000079858479999
   0.003206285039999    0.000732060982000    0.001306914740000
   0.002516422638000    0.001461653386270    0.000480379472000
  -0.000416168328002   -0.001438584953000    0.003429307420000
  -0.001845776322000   -0.003703292211850    0.000230668148001
  -0.001494726443999   -0.000975003079980    0.003268054720000
  -0.000459269369999   -0.000195187887410   -0.001193884276000
  -0.001218083609999    0.001761968635630   -0.000303769372000
  -0.001704088403999   -0.003336495610520   -0.002173993544000
   0.001277009663999   -0.003263800252540    0.000192581796000
  -0.001302418146000   -0.001357973121610   -0.004001216996000
   0.000665485986000   -0.000072950728090    0.000664975420000
  -0.002862557915998   -0.000915246474240    0.001385237480001
  -0.002093423016000    0.000547002775619   -0.000671732676000
  -0.000672808740001    0.001349035167760    0.001399059140000
  -0.001522641371999    0.002524248413980    0.002036698388000
  -0.001078508970000    0.001277276166850    0.000306533704000
   0.001203192372000   -0.000445535718581    0.000021193212000
  -0.000248629614000    0.001059530586390    0.000034400576000
   0.001479491184000   -0.001038334867260   -0.002084306327999
   0.002252115450001    0.003228133560510    0.003083458772000
   0.000367808664000   -0.003083338708140   -0.001272514164000
   0.000257279310000   -0.000221746378850    0.000000614296000
   0.000496423746000   -0.000482564384530   -0.003964052088000
  -0.002085903678001    0.004138442879290   -0.005104799760001
  -0.003458649750002    0.004837305746990   -0.001780229807999
  -0.000497750688000    0.003799056003100    0.003126152344000
   0.004768538088000    0.003543685893099   -0.001769479628002
   0.000200122512002    0.000129557769140    0.001181905504000
   0.001609728084000    0.001960391211100    0.000190738908000
   0.001273077984001    0.000790285367080   -0.001712964396001
   0.002679734796001   -0.002432825914600   -0.001664742160000
   0.000659342736000    0.000624294795580    0.001991547632000
  -0.003764141286000   -0.002601625557310   -0.001128768900001
   0.002089589628001   -0.002386178307839    0.000555937879999
  -0.001018993163999    0.003561221307320   -0.000016585991999
   0.000000000000000    0.000000000000000    0.000000000000000
   0.000000000000000    0.000000000000000    0.000000000000000
   0.000000000000000    0.000000000000000    0.000000000000000
   0.000000000000000    0.000000000000000    0.000000000000000
   0.000000000000000    0.000000000000000    0.000000000000000
   0.000000000000000    0.000000000000000    0.000000000000000
   0.000000000000000    0.000000000000000    0.000000000000000
   0.000000000000000    0.000000000000000    0.000000000000000
   0.000000000000000    0.000000000000000    0.000000000000000
   0.000000000000000    0.000000000000000    0.000000000000000
   0.000000000000000    0.000000000000000    0.000000000000000
   0.000000000000000    0.000000000000000    0.000000000000000
   0.000000000000000    0.000000000000000    0.000000000000000
   0.000000000000000    0.000000000000000    0.000000000000000
   0.000000000000000    0.000000000000000    0.000000000000000
   0.000000000000000    0.000000000000000    0.000000000000000
  -0.006355806450001    0.000770621868610    0.000164017031999
  -0.002126645712000   -0.002118890926040   -0.000519387268000
   0.004792226460001    0.000743127020100   -0.008383911808000
   0.002852482986000    0.000021195719130    0.011760696920000
   0.002987831070000   -0.001331244383430   -0.002144814484000
   0.003544163789998   -0.002344723226650   -0.002233580256000
  -0.000758322779999   -0.000374713074740    0.003436371823998
   0.004692853248001    0.001770055355779   -0.002624886808000
  -0.003740010600001   -0.006151184962939   -0.007578569752001
  -0.000681212705999   -0.005178309967209    0.000517544379999
  -0.004600311330000   -0.000691457134510   -0.002397597287999
   0.002695559808000   -0.002819286014400    0.002002297811998
   0.001510305726000    0.000780666426270   -0.001756579412000
  -0.001943380278000    0.000992964111050    0.007597305779999
   0.003866708988000   -0.002404735202500   -0.004905460708002
  -0.002651721575999    0.005255516863800    0.005587943563999
  -0.005962540157999   -0.004061150859330   -0.005641080167999
  -0.011447774364001    0.001271232407580   -0.002770167811999
  -0.001597638167999    0.001119031822020   -0.003805563719997
   0.002056514370000   -0.007916899026850    0.000068494003999
   0.002832529710000   -0.002541528458090   -0.010221885439996
  -0.006490957950000    0.002218229898830   -0.001868995580001
   0.003349398191997    0.000963426301660   -0.000617367480000
   0.001629386484000    0.002664020987520   -0.000038393499995
  -0.004715804430000    0.000429277154910    0.002718874095999
  -0.001042386660000   -0.004523285635059    0.004249085432001
   0.004142368902000    0.003303893359810   -0.003895558083999
   0.000321758862000   -0.003237667377950   -0.008172901131999
  -0.002673984714001    0.000486139566070   -0.002389918588001
   0.004925264681999    0.000681923317070   -0.008978550336002
  -0.007821094439999   -0.002681896895219   -0.022655543628002
   0.021490956048002   -0.008520168350041    0.000368884747999
   0.005194339031998    0.027380102207239   -0.011496856788000
  -0.011892447371999   -0.006965985860579   -0.000999766740001
   0.005207510160002    0.014267528045700   -0.000250018472000
   0.017330108250000   -0.001468293009130    0.008344904011999
   0.001838207837999   -0.006259036272730   -0.016522105216000
   0.024098544516000    0.014603084370240   -0.004298229111997
  -0.014208403476000    0.019377143453320   -0.002059734488000
  -0.011751300060000   -0.031870019481260   -0.002842961888000
   0.007079432153999    0.033325373738150   -0.011705410280001
   0.011960809457999    0.024178867631649    0.000461643444002
  -0.017822452878001   -0.010524908836910   -0.008900534743999
  -0.017830611113999    0.019087298378470    0.002868762320002
  -0.002203755786000    0.014150313165211    0.021653934000000
  -0.021937644042000   -0.003233240962709    0.008639151795999
   0.013332769194001    0.014177041903390   -0.007906910964001
  -0.018853437666001   -0.012304327763389   -0.003796963575999
   0.015497453909999    0.032325344387390   -0.008125907487999
   0.009562140636000   -0.025184600248200    0.003777920399999
  -0.021185169636000   -0.024009727495460   -0.000001228592000
   0.008671271094000   -0.003744832416410    0.002720102688000
  -0.009144497928000   -0.021215808245321    0.002905927228001
  -0.008940443736001   -0.031943736319681    0.002536121035998
  -0.003779081670000    0.005897942937190    0.007489189684001
  -0.007551528630000    0.003885796717130    0.016882082672002
   0.000370167672001   -0.017376403764840    0.026710818671999
   0.002222382119999   -0.010121679433220    0.025253708560001
   0.025849174182001   -0.019632939180171   -0.023092615231999
  -0.007186668726000   -0.004213862185110    0.031294388275999
  -0.014210418462000    0.002293819451389   -0.001394144771998
  -0.016716323856000   -0.027057995375161   -0.003298769520002
   0.013123014065999   -0.013110616324030   -0.011993515103999
   0.002867030201999   -0.019554285186291   -0.004579576680001
  -0.020328554855999    0.002120763640180    0.001784837028001
   0.017271575363999    0.009493809456100    0.036831038123999
   0.023624678784000   -0.000784156484440   -0.011287074704001
   0.013151027286000   -0.013188248837470    0.009060251704000
  -0.005668401347999    0.009661502495000    0.021556568083998
  -0.008966638553998   -0.005497011864490    0.016558655827996
  -0.017655946230000   -0.005541446263630   -0.022471869124001
   0.008811238902000   -0.007207310614531   -0.007495946940001
   0.010394575583999    0.009010649207980    0.020204195439998
   0.000786237708001    0.014679695403240    0.014217880920000
  -0.006295602600002   -0.010290053459082    0.004204548972000
  -0.015608032410000   -0.021169926748891    0.010480504056000
   0.010471587366000   -0.017008585683070   -0.001093139731999
   0.009014015298000   -0.006845876785510    0.028472619600002
  -0.024803249010001    0.032094319561210   -0.037265959692000
   0.008377378014000    0.024632404947010    0.003847028700001
  -0.007900563522000   -0.007578108014250    0.011768682768002
   0.021370450056001   -0.011731702853401   -0.006714255280000
  -0.036991948470001   -0.014572184586930   -0.006635318243999
   0.001439535486001   -0.021020109617690    0.028204172248000
  -0.021765682187999    0.019338837936820    0.005729845939999
   0.014859391392000    0.009429456188380    0.006615660771999
  -0.004077594474000   -0.003002386383269   -0.037242616444003
  -0.023945503872000    0.009203538764400    0.002613522332000
   0.024457310316000   -0.028729988608700   -0.019164806608000
  -0.017132787060000    0.025049083843160   -0.011586851152000
   0.000588916518002    0.002639931073810    0.002471927104001
   0.000273595782001    0.003144372164430    0.001757808003999
   0.000658802129999    0.000433192829930   -0.001833980708000
   0.003866217528001   -0.004730816411120    0.008186108496000