 Ni\(1\1\1)                             
   1.00000000000000     
     9.8291997910000006    0.0000000000000000    0.0000000000000000
     4.9145998955000003    8.5123367178000002    0.0000000000000000
     0.0000000000000000    0.0000000000000000   19.0128002167000005
   Ni   O    C    O    C    O    H 
    64     3     1     2     1     1     1
Selective dynamics
Direct
  0.8343489029143862  0.5844069992886833  0.2708591590560519   T   T   T
  0.3336106081661638  0.0849766214655343  0.2704838141357790   T   T   T
  0.8340367159030735  0.0850345755477495  0.2708776172666921   T   T   T
  0.3344366908359392  0.5842080963310744  0.2708220082773201   T   T   T
  0.5840466810437501  0.8346689714620731  0.2707910317947897   T   T   T
  0.8340465742135358  0.8346909071053981  0.2703712835610872   T   T   T
  0.0839535750645827  0.3345231098639410  0.2711808916367324   T   T   T
  0.8338349592639543  0.3343312575925256  0.2717397877877101   T   T   T
  0.5844801952734796  0.5834100620225400  0.2714262048928977   T   T   T
  0.0839662110033051  0.5845070128674751  0.2708091180337885   T   T   T
  0.0832115889092138  0.0858496079499951  0.2705479114800482   T   T   T
  0.5838973169845147  0.0846925277743519  0.2716268431575408   T   T   T
  0.3347887106630599  0.8341497377095473  0.2701859045064207   T   T   T
  0.0839335876683789  0.8347346244380113  0.2703289028450281   T   T   T
  0.3343468930986830  0.3342994349093010  0.2714617458815357   T   T   T
  0.5841761360319994  0.3341079180296825  0.2724976503669775   T   T   T
  0.9182372241573986  0.6672456745391198  0.3753066345432359   T   T   T
  0.9181879237033357  0.4180567431398476  0.3760712032464682   T   T   T
  0.6679125977174691  0.6675162629648891  0.3745872207508111   T   T   T
  0.1663049247040726  0.1692064711107029  0.3767956364753578   T   T   T
  0.9178574507651048  0.1687553816253026  0.3779130897062793   T   T   T
  0.9181858231362768  0.9181889598265739  0.3750293683040494   T   T   T
  0.4170905946802747  0.9187882928458981  0.3752521689535495   T   T   T
  0.4180355206200949  0.1685469401321093  0.3770965325845148   T   T   T
  0.6682740015614138  0.1675352308941393  0.3776836860239675   T   T   T
  0.1682587265327959  0.6677458792887102  0.3751305873510118   T   T   T
  0.4180734320287146  0.6669834897793506  0.3761940314917144   T   T   T
  0.4175382700200331  0.4181196630839258  0.3779048317419136   T   T   T
  0.6673920310381326  0.9189836368047207  0.3767211811887116   T   T   T
  0.1683706445346559  0.4176340608426786  0.3773454453654219   T   T   T
  0.6666549047216151  0.4161777307397602  0.3793161071288123   T   T   T
  0.1683292316145061  0.9184519690084710  0.3763863508820528   T   T   T
 -0.0027799540961516  0.2568832261107185  0.4856364476429834   T   T   T
  0.5000973652453773  0.2493728001188998  0.4849131198659096   T   T   T
 -0.0014036457932650  0.7475920616276545  0.4793378715114854   T   T   T
  0.5068690868080350  0.7483211764675275  0.4794136458690643   T   T   T
  0.7514223813628320  0.7504828309430653  0.4797202368698126   T   T   T
 -0.0003188293429087  0.5016964704419922  0.4848445095891757   T   T   T
  0.7498419968699702  0.5057559809718791  0.4792192121077716   T   T   T
  0.2512328128726444 -0.0014699163622312  0.4839184400658718   T   T   T
  0.0074219778344785 -0.0025070976836377  0.4827690601663909   T   T   T
  0.5063800477999019  0.9963470880235111  0.4849979016899507   T   T   T
  0.2498834216714613  0.7564009558152222  0.4828492531213529   T   T   T
  0.7530148655287611  0.9939306279579709  0.4841978628958317   T   T   T
  0.2510153298640544  0.2540872337608531  0.4842602823841620   T   T   T
  0.7489838500930518  0.2545309944650093  0.4913551255591139   T   T   T
  0.2453525311387945  0.5031734510506790  0.4843360478766631   T   T   T
  0.5060978615559881  0.5007340991214589  0.4930524216315385   T   T   T
  0.9970724670000024  0.2558556729999992  0.1637003960000030   F   F   F
  0.4999617989999976  0.2500875830000027  0.1643123180000003   F   F   F
  0.9968841629999972  0.7476992069999966  0.1643590660000029   F   F   F
  0.5054474789999972  0.7476858750000019  0.1651548480000002   F   F   F
  0.7507219769999978  0.7486395119999969  0.1651830500000031   F   F   F
  0.9979410790000003  0.5014025589999989  0.1651978470000017   F   F   F
  0.7507272960000009  0.5014379059999996  0.1654730480000026   F   F   F
  0.2484077359999972  0.9989653640000000  0.1655050250000016   F   F   F
  0.0026835399999996  0.9989392600000002  0.1655775309999967   F   F   F
  0.5037179199999997  0.9979203070000011  0.1655856309999990   F   F   F
  0.2483221529999966  0.7533767729999994  0.1658259459999982   F   F   F
  0.7484137009999969  0.9978805350000002  0.1658943890000018   F   F   F
  0.2473094730000014  0.2543786680000011  0.1660089160000027   F   F   F
  0.7483561820000020  0.2543461500000035  0.1660180820000008   F   F   F
  0.2472921950000000  0.4989472700000022  0.1662971330000005   F   F   F
  0.5037960519999984  0.4989156760000029  0.1664085250000014   F   F   F
  0.3356336632028921  0.0831355345532180  0.5433496529347679   T   T   T
  0.8465766737604330  0.0681179341323807  0.5442747663449543   T   T   T
  0.3191239664150984  0.5966592603734020  0.5448802230888680   T   T   T
  0.9815449104966864  0.4487630615054422  0.5838584871139810   T   T   T
  0.9822397054535117  0.5437676654387680  0.6242748827353880   T   T   T
  0.9739435146378160  0.3236328015338391  0.5865433872662419   T   T   T
  0.6030401533438376  0.3495067127094499  0.5715917963688986   T   T   T
  0.5292950143610369  0.2795270380963616  0.5870893734583064   T   T   T
  0.6525003818194368  0.3889994036238186  0.6142148636202898   T   T   T
 
  0.00000000E+00  0.00000000E+00  0.00000000E+00
  0.00000000E+00  0.00000000E+00  0.00000000E+00
  0.00000000E+00  0.00000000E+00  0.00000000E+00
  0.00000000E+00  0.00000000E+00  0.00000000E+00
  0.00000000E+00  0.00000000E+00  0.00000000E+00
  0.00000000E+00  0.00000000E+00  0.00000000E+00
  0.00000000E+00  0.00000000E+00  0.00000000E+00
  0.00000000E+00  0.00000000E+00  0.00000000E+00
  0.00000000E+00  0.00000000E+00  0.00000000E+00
  0.00000000E+00  0.00000000E+00  0.00000000E+00
  0.00000000E+00  0.00000000E+00  0.00000000E+00
  0.00000000E+00  0.00000000E+00  0.00000000E+00
  0.00000000E+00  0.00000000E+00  0.00000000E+00
  0.00000000E+00  0.00000000E+00  0.00000000E+00
  0.00000000E+00  0.00000000E+00  0.00000000E+00
  0.00000000E+00  0.00000000E+00  0.00000000E+00
  0.00000000E+00  0.00000000E+00  0.00000000E+00
  0.00000000E+00  0.00000000E+00  0.00000000E+00
  0.00000000E+00  0.00000000E+00  0.00000000E+00
  0.00000000E+00  0.00000000E+00  0.00000000E+00
  0.00000000E+00  0.00000000E+00  0.00000000E+00
  0.00000000E+00  0.00000000E+00  0.00000000E+00
  0.00000000E+00  0.00000000E+00  0.00000000E+00
  0.00000000E+00  0.00000000E+00  0.00000000E+00
  0.00000000E+00  0.00000000E+00  0.00000000E+00
  0.00000000E+00  0.00000000E+00  0.00000000E+00
  0.00000000E+00  0.00000000E+00  0.00000000E+00
  0.00000000E+00  0.00000000E+00  0.00000000E+00
  0.00000000E+00  0.00000000E+00  0.00000000E+00
  0.00000000E+00  0.00000000E+00  0.00000000E+00
  0.00000000E+00  0.00000000E+00  0.00000000E+00
  0.00000000E+00  0.00000000E+00  0.00000000E+00
  0.00000000E+00  0.00000000E+00  0.00000000E+00
  0.00000000E+00  0.00000000E+00  0.00000000E+00
  0.00000000E+00  0.00000000E+00  0.00000000E+00
  0.00000000E+00  0.00000000E+00  0.00000000E+00
  0.00000000E+00  0.00000000E+00  0.00000000E+00
  0.00000000E+00  0.00000000E+00  0.00000000E+00
  0.00000000E+00  0.00000000E+00  0.00000000E+00
  0.00000000E+00  0.00000000E+00  0.00000000E+00
  0.00000000E+00  0.00000000E+00  0.00000000E+00
  0.00000000E+00  0.00000000E+00  0.00000000E+00
  0.00000000E+00  0.00000000E+00  0.00000000E+00
  0.00000000E+00  0.00000000E+00  0.00000000E+00
  0.00000000E+00  0.00000000E+00  0.00000000E+00
  0.00000000E+00  0.00000000E+00  0.00000000E+00
  0.00000000E+00  0.00000000E+00  0.00000000E+00
  0.00000000E+00  0.00000000E+00  0.00000000E+00
  0.00000000E+00  0.00000000E+00  0.00000000E+00
  0.00000000E+00  0.00000000E+00  0.00000000E+00
  0.00000000E+00  0.00000000E+00  0.00000000E+00
  0.00000000E+00  0.00000000E+00  0.00000000E+00
  0.00000000E+00  0.00000000E+00  0.00000000E+00
  0.00000000E+00  0.00000000E+00  0.00000000E+00
  0.00000000E+00  0.00000000E+00  0.00000000E+00
  0.00000000E+00  0.00000000E+00  0.00000000E+00
  0.00000000E+00  0.00000000E+00  0.00000000E+00
  0.00000000E+00  0.00000000E+00  0.00000000E+00
  0.00000000E+00  0.00000000E+00  0.00000000E+00
  0.00000000E+00  0.00000000E+00  0.00000000E+00
  0.00000000E+00  0.00000000E+00  0.00000000E+00
  0.00000000E+00  0.00000000E+00  0.00000000E+00
  0.00000000E+00  0.00000000E+00  0.00000000E+00
  0.00000000E+00  0.00000000E+00  0.00000000E+00
  0.00000000E+00  0.00000000E+00  0.00000000E+00
  0.00000000E+00  0.00000000E+00  0.00000000E+00
  0.00000000E+00  0.00000000E+00  0.00000000E+00
  0.00000000E+00  0.00000000E+00  0.00000000E+00
  0.00000000E+00  0.00000000E+00  0.00000000E+00
  0.00000000E+00  0.00000000E+00  0.00000000E+00
  0.00000000E+00  0.00000000E+00  0.00000000E+00
  0.00000000E+00  0.00000000E+00  0.00000000E+00
  0.00000000E+00  0.00000000E+00  0.00000000E+00
