Pd                                      
   1.00000000000000     
    10.9451000000000001    0.0000000000000000    0.0000000000000007
    -5.4725499999999991    9.4787346469610601    0.0000000000000007
     0.0000000000000000    0.0000000000000000   21.7025000000000006
   Pd   C    H 
    64     1     2
Selective dynamics
Direct
  0.9999991999999978  0.0000008000000022  0.9976446000000010   F   F   F
  0.3333354000000028  0.1666679000000002  0.1027069000000012   F   F   F
  0.1672516047565923  0.3350958924836602  0.2079394067390700   T   T   T
 -0.0006800250369829  0.0005429264312791  0.3120011685308255   T   T   T
  0.2499991999999978  0.0000008000000022  0.9976446000000010   F   F   F
  0.0833320999999998  0.1666679000000002  0.1027069000000012   F   F   F
  0.4160222864529687  0.3334225211536374  0.2065080949134785   T   T   T
  0.2493194982940888  0.0007072370904556  0.3117856965446817   T   T   T
  0.2499991999999978  0.2500008000000022  0.9976446000000010   F   F   F
  0.0833320999999998  0.4166679000000002  0.1027069000000012   F   F   F
  0.4166447801409819  0.0836621497972689  0.2066163983674799   T   T   T
  0.2494598988362880  0.2496020592951628  0.3122756257606013   T   T   T
  0.9999991999999978  0.2500008000000022  0.9976446000000010   F   F   F
  0.3333354000000028  0.4166679000000002  0.1027069000000012   F   F   F
  0.1663742051591616  0.0837496344844390  0.2063089999989622   T   T   T
  0.0000487304019909  0.2507784575691218  0.3123645392050576   T   T   T
  0.4999991999999978  0.0000008000000022  0.9976446000000010   F   F   F
  0.8333320999999998  0.1666679000000002  0.1027069000000012   F   F   F
  0.6664640043757099  0.3335002577985733  0.2068180686405405   T   T   T
  0.5003786328810312  0.0027318476226164  0.3121810440010138   T   T   T
  0.7499991999999978  0.0000008000000022  0.9976446000000010   F   F   F
  0.5833320999999998  0.1666679000000002  0.1027069000000012   F   F   F
  0.9165640857862962  0.3333532497162973  0.2066928846685220   T   T   T
  0.7489118381728125 -0.0003533133292175  0.3123321894214537   T   T   T
  0.7499991999999978  0.2500008000000022  0.9976446000000010   F   F   F
  0.5833320999999998  0.4166679000000002  0.1027069000000012   F   F   F
  0.9162351306349633  0.0836894832833793  0.2066407383283801   T   T   T
  0.7496827420892413  0.2500752706383738  0.3120379419174004   T   T   T
  0.4999991999999978  0.2500008000000022  0.9976446000000010   F   F   F
  0.8333320999999998  0.4166679000000002  0.1027069000000012   F   F   F
  0.6665942065807402  0.0834090350725378  0.2066748506981994   T   T   T
  0.4994080883276528  0.2504401026044620  0.3121780621519541   T   T   T
  0.9999991999999978  0.5000008000000022  0.9976446000000010   F   F   F
  0.3333354000000028  0.6666645999999972  0.1027069000000012   F   F   F
  0.1665669621981143  0.8332435221280651  0.2063907024885678   T   T   T
 -0.0029778089999559  0.4993123338429784  0.3121997886017320   T   T   T
  0.2499991999999978  0.5000008000000022  0.9976446000000010   F   F   F
  0.0833320999999998  0.6666645999999972  0.1027069000000012   F   F   F
  0.4167839127469085  0.8335771752631993  0.2072857448511999   T   T   T
  0.2484034859390385  0.4999556922657641  0.3171722883986661   T   T   T
  0.2499991999999978  0.7500008000000022  0.9976446000000010   F   F   F
  0.0833320999999998  0.9166679000000002  0.1027069000000012   F   F   F
  0.4159149459813527  0.5838741711739655  0.2076682632763223   T   T   T
  0.2474200306179554  0.7522790535276789  0.3117094534325349   T   T   T
  0.9999991999999978  0.7500008000000022  0.9976446000000010   F   F   F
  0.3333354000000028  0.9166679000000002  0.1027069000000012   F   F   F
  0.1663256258403887  0.5830893248423179  0.2073192728245355   T   T   T
 -0.0008861987480912  0.7505296537672198  0.3118515294484674   T   T   T
  0.4999991999999978  0.5000008000000022  0.9976446000000010   F   F   F
  0.8333320999999998  0.6666645999999972  0.1027069000000012   F   F   F
  0.6648535710475609  0.8325898752492150  0.2079216101734054   T   T   T
  0.5010458893963574  0.4987269065428017  0.3112491169486141   T   T   T
  0.7499991999999978  0.5000008000000022  0.9976446000000010   F   F   F
  0.5833320999999998  0.6666645999999972  0.1027069000000012   F   F   F
  0.9161868185396111  0.8335134488014184  0.2063189419895163   T   T   T
  0.7494140614433270  0.5004093026775431  0.3121783060939221   T   T   T
  0.7499991999999978  0.7500008000000022  0.9976446000000010   F   F   F
  0.5833320999999998  0.9166679000000002  0.1027069000000012   F   F   F
  0.9162714148451350  0.5832903130521284  0.2066294375049998   T   T   T
  0.7502672995955009  0.7503349831829685  0.3122945408780230   T   T   T
  0.4999991999999978  0.7500008000000022  0.9976446000000010   F   F   F
  0.8333320999999998  0.9166679000000002  0.1027069000000012   F   F   F
  0.6664575049879772  0.5838496889282989  0.2065264335609532   T   T   T
  0.4997866469072177  0.7513754976852033  0.3171204477699346   T   T   T
  0.3573343159002713  0.6425371732583968  0.3826330802983739   T   T   T
  0.4013500624723745  0.5988650073613679  0.4161667188519925   T   T   T
  0.3054647236467755  0.6941201285945112  0.4066833895066364   T   T   T
 
  0.00000000E+00  0.00000000E+00  0.00000000E+00
  0.00000000E+00  0.00000000E+00  0.00000000E+00
  0.00000000E+00  0.00000000E+00  0.00000000E+00
  0.00000000E+00  0.00000000E+00  0.00000000E+00
  0.00000000E+00  0.00000000E+00  0.00000000E+00
  0.00000000E+00  0.00000000E+00  0.00000000E+00
  0.00000000E+00  0.00000000E+00  0.00000000E+00
  0.00000000E+00  0.00000000E+00  0.00000000E+00
  0.00000000E+00  0.00000000E+00  0.00000000E+00
  0.00000000E+00  0.00000000E+00  0.00000000E+00
  0.00000000E+00  0.00000000E+00  0.00000000E+00
  0.00000000E+00  0.00000000E+00  0.00000000E+00
  0.00000000E+00  0.00000000E+00  0.00000000E+00
  0.00000000E+00  0.00000000E+00  0.00000000E+00
  0.00000000E+00  0.00000000E+00  0.00000000E+00
  0.00000000E+00  0.00000000E+00  0.00000000E+00
  0.00000000E+00  0.00000000E+00  0.00000000E+00
  0.00000000E+00  0.00000000E+00  0.00000000E+00
  0.00000000E+00  0.00000000E+00  0.00000000E+00
  0.00000000E+00  0.00000000E+00  0.00000000E+00
  0.00000000E+00  0.00000000E+00  0.00000000E+00
  0.00000000E+00  0.00000000E+00  0.00000000E+00
  0.00000000E+00  0.00000000E+00  0.00000000E+00
  0.00000000E+00  0.00000000E+00  0.00000000E+00
  0.00000000E+00  0.00000000E+00  0.00000000E+00
  0.00000000E+00  0.00000000E+00  0.00000000E+00
  0.00000000E+00  0.00000000E+00  0.00000000E+00
  0.00000000E+00  0.00000000E+00  0.00000000E+00
  0.00000000E+00  0.00000000E+00  0.00000000E+00
  0.00000000E+00  0.00000000E+00  0.00000000E+00
  0.00000000E+00  0.00000000E+00  0.00000000E+00
  0.00000000E+00  0.00000000E+00  0.00000000E+00
  0.00000000E+00  0.00000000E+00  0.00000000E+00
  0.00000000E+00  0.00000000E+00  0.00000000E+00
  0.00000000E+00  0.00000000E+00  0.00000000E+00
  0.00000000E+00  0.00000000E+00  0.00000000E+00
  0.00000000E+00  0.00000000E+00  0.00000000E+00
  0.00000000E+00  0.00000000E+00  0.00000000E+00
  0.00000000E+00  0.00000000E+00  0.00000000E+00
  0.00000000E+00  0.00000000E+00  0.00000000E+00
  0.00000000E+00  0.00000000E+00  0.00000000E+00
  0.00000000E+00  0.00000000E+00  0.00000000E+00
  0.00000000E+00  0.00000000E+00  0.00000000E+00
  0.00000000E+00  0.00000000E+00  0.00000000E+00
  0.00000000E+00  0.00000000E+00  0.00000000E+00
  0.00000000E+00  0.00000000E+00  0.00000000E+00
  0.00000000E+00  0.00000000E+00  0.00000000E+00
  0.00000000E+00  0.00000000E+00  0.00000000E+00
  0.00000000E+00  0.00000000E+00  0.00000000E+00
  0.00000000E+00  0.00000000E+00  0.00000000E+00
  0.00000000E+00  0.00000000E+00  0.00000000E+00
  0.00000000E+00  0.00000000E+00  0.00000000E+00
  0.00000000E+00  0.00000000E+00  0.00000000E+00
  0.00000000E+00  0.00000000E+00  0.00000000E+00
  0.00000000E+00  0.00000000E+00  0.00000000E+00
  0.00000000E+00  0.00000000E+00  0.00000000E+00
  0.00000000E+00  0.00000000E+00  0.00000000E+00
  0.00000000E+00  0.00000000E+00  0.00000000E+00
  0.00000000E+00  0.00000000E+00  0.00000000E+00
  0.00000000E+00  0.00000000E+00  0.00000000E+00
  0.00000000E+00  0.00000000E+00  0.00000000E+00
  0.00000000E+00  0.00000000E+00  0.00000000E+00
  0.00000000E+00  0.00000000E+00  0.00000000E+00
  0.00000000E+00  0.00000000E+00  0.00000000E+00
  0.00000000E+00  0.00000000E+00  0.00000000E+00
  0.00000000E+00  0.00000000E+00  0.00000000E+00
  0.00000000E+00  0.00000000E+00  0.00000000E+00
