 Ni\(1\1\1)                             
   1.00000000000000     
     9.8291997910000006    0.0000000000000000    0.0000000000000000
     4.9145998955000003    8.5123367178000002    0.0000000000000000
     0.0000000000000000    0.0000000000000000   19.0128002167000005
   Ni   O 
    64     3
Selective dynamics
Direct
  0.8330789185371181  0.5843176408462146  0.2717623825044565   T   T   T
  0.3331930389302535  0.0837974949840078  0.2692830343991435   T   T   T
  0.8332848781312062  0.0838160335353115  0.2693775096912888   T   T   T
  0.3330656720773639  0.5841424137457459  0.2695782765129631   T   T   T
  0.5842563445961969  0.8333391473073785  0.2716054314737238   T   T   T
  0.8330118519116330  0.8331943719092191  0.2714157804966548   T   T   T
  0.0820350015329334  0.3351386977444838  0.2712161653585717   T   T   T
  0.8332425144032389  0.3349686020318461  0.2713031314973267   T   T   T
  0.5843239232651433  0.5838969115182929  0.2717736252098439   T   T   T
  0.0821092894999796  0.5839652177268740  0.2715033283227278   T   T   T
  0.0830292597953119  0.0842159421666237  0.2701753318571990   T   T   T
  0.5832272430260658  0.0836981192288963  0.2707401829106373   T   T   T
  0.3328183579326900  0.8342371336785346  0.2705987917927249   T   T   T
  0.0830327672083081  0.8340969457072877  0.2705071948002239   T   T   T
  0.3327994075166061  0.3341478309152172  0.2709901748814167   T   T   T
  0.5834085676583747  0.3340947617392454  0.2710022973600036   T   T   T
  0.9158953755024796  0.6664720979684930  0.3780761174630898   T   T   T
  0.9157545139725299  0.4188002782642705  0.3779237908850893   T   T   T
  0.6681533778522205  0.6665134633535225  0.3781739572457565   T   T   T
  0.1614211249309062  0.1696439690709172  0.3751045398051238   T   T   T
  0.9193314935380430  0.1695376567379758  0.3751078358032260   T   T   T
  0.9191854466101204  0.9117819085323238  0.3753131535178301   T   T   T
  0.4191635207951361  0.9118568584989155  0.3753717998565005   T   T   T
  0.4187435106629545  0.1689741181512328  0.3752985875517404   T   T   T
  0.6624638190659652  0.1690434230428131  0.3753401324551048   T   T   T
  0.1614305423443883  0.6694745174517384  0.3753758716537134   T   T   T
  0.4192268128529701  0.6694897252597636  0.3753744479147851   T   T   T
  0.4187470128431167  0.4126779662927714  0.3755260258046035   T   T   T
  0.6675925469904366  0.9150415580266741  0.3790482454505902   T   T   T
  0.1644822173028514  0.4180085801206764  0.3789712621969962   T   T   T
  0.6677609756736794  0.4179666094024487  0.3790453143468823   T   T   T
  0.1665323437011305  0.9169511240452207  0.3794571775077085   T   T   T
  0.9974772242238656  0.2552426756974829  0.4851058183447151   T   T   T
  0.4999428465635886  0.2501997327881044  0.4867848244461162   T   T   T
  0.9975475143365090  0.7478034306495979  0.4853537314846347   T   T   T
  0.5049952338626791  0.7477054505261572  0.4853291030851045   T   T   T
  0.7527107449895082  0.7449078701052156  0.4853839699179622   T   T   T
  0.9947731167294048  0.5028749624619212  0.4852865442831326   T   T   T
  0.7525290256033914  0.5028250858856796  0.4853306128296485   T   T   T
  0.2437990267690877  0.9942388010618635  0.4974221743998604   T   T   T
  0.0121025411347540  0.9941688758785461  0.4975611365432787   T   T   T
  0.5177247681619852  0.9852718358042544  0.4994002387121706   T   T   T
  0.2437278503099558  0.7626816847381900  0.4976690645522320   T   T   T
  0.7471104287958406  0.9854086790932139  0.4988975296744071   T   T   T
  0.2349897535882007  0.2680920452361881  0.4993635563634058   T   T   T
  0.7469799594060292  0.2681836809219829  0.4995841269033272   T   T   T
  0.2350566117479216  0.4974666619124589  0.4993533621860788   T   T   T
  0.5176683980028007  0.4974933275046303  0.4994961858792086   T   T   T
  0.9970725127721352  0.2558556885660437  0.1637004079999969   F   F   F
  0.4999617694590981  0.2500875882756475  0.1643123229999972   F   F   F
  0.9968841279129421  0.7476992103265090  0.1643590609999990   F   F   F
  0.5054475948340738  0.7476858577758136  0.1651548419999997   F   F   F
  0.7507219237869691  0.7486395196294708  0.1651830500000031   F   F   F
  0.9979411352497110  0.5014025775462372  0.1651978530000022   F   F   F
  0.7507273207667993  0.5014378828407473  0.1654730440000023   F   F   F
  0.2484077576181107  0.9989653127437563  0.1655050250000016   F   F   F
  0.0026835648815862  0.9989392751868493  0.1655775360000007   F   F   F
  0.5037179278764583  0.9979203429349397  0.1655856349999993   F   F   F
  0.2483221759410768  0.7533768050877114  0.1658259539999989   F   F   F
  0.7484136803928223  0.9978805553618955  0.1658943879999981   F   F   F
  0.2473094549500487  0.2543786783860540  0.1660089160000027   F   F   F
  0.7483561418300297  0.2543461482530631  0.1660180849999975   F   F   F
  0.2472922028403062  0.4989472696402402  0.1662971390000010   F   F   F
  0.5037960297639756  0.4989156868822988  0.1664085239999977   F   F   F
  0.3362041846333938  0.0866213597654589  0.4466492386947921   T   T   T
  0.8275979593503837  0.0871138589009027  0.4465741659594896   T   T   T
  0.3362537145620541  0.5779275783060376  0.4467313647006421   T   T   T
 
  0.00000000E+00  0.00000000E+00  0.00000000E+00
  0.00000000E+00  0.00000000E+00  0.00000000E+00
  0.00000000E+00  0.00000000E+00  0.00000000E+00
  0.00000000E+00  0.00000000E+00  0.00000000E+00
  0.00000000E+00  0.00000000E+00  0.00000000E+00
  0.00000000E+00  0.00000000E+00  0.00000000E+00
  0.00000000E+00  0.00000000E+00  0.00000000E+00
  0.00000000E+00  0.00000000E+00  0.00000000E+00
  0.00000000E+00  0.00000000E+00  0.00000000E+00
  0.00000000E+00  0.00000000E+00  0.00000000E+00
  0.00000000E+00  0.00000000E+00  0.00000000E+00
  0.00000000E+00  0.00000000E+00  0.00000000E+00
  0.00000000E+00  0.00000000E+00  0.00000000E+00
  0.00000000E+00  0.00000000E+00  0.00000000E+00
  0.00000000E+00  0.00000000E+00  0.00000000E+00
  0.00000000E+00  0.00000000E+00  0.00000000E+00
  0.00000000E+00  0.00000000E+00  0.00000000E+00
  0.00000000E+00  0.00000000E+00  0.00000000E+00
  0.00000000E+00  0.00000000E+00  0.00000000E+00
  0.00000000E+00  0.00000000E+00  0.00000000E+00
  0.00000000E+00  0.00000000E+00  0.00000000E+00
  0.00000000E+00  0.00000000E+00  0.00000000E+00
  0.00000000E+00  0.00000000E+00  0.00000000E+00
  0.00000000E+00  0.00000000E+00  0.00000000E+00
  0.00000000E+00  0.00000000E+00  0.00000000E+00
  0.00000000E+00  0.00000000E+00  0.00000000E+00
  0.00000000E+00  0.00000000E+00  0.00000000E+00
  0.00000000E+00  0.00000000E+00  0.00000000E+00
  0.00000000E+00  0.00000000E+00  0.00000000E+00
  0.00000000E+00  0.00000000E+00  0.00000000E+00
  0.00000000E+00  0.00000000E+00  0.00000000E+00
  0.00000000E+00  0.00000000E+00  0.00000000E+00
  0.00000000E+00  0.00000000E+00  0.00000000E+00
  0.00000000E+00  0.00000000E+00  0.00000000E+00
  0.00000000E+00  0.00000000E+00  0.00000000E+00
  0.00000000E+00  0.00000000E+00  0.00000000E+00
  0.00000000E+00  0.00000000E+00  0.00000000E+00
  0.00000000E+00  0.00000000E+00  0.00000000E+00
  0.00000000E+00  0.00000000E+00  0.00000000E+00
  0.00000000E+00  0.00000000E+00  0.00000000E+00
  0.00000000E+00  0.00000000E+00  0.00000000E+00
  0.00000000E+00  0.00000000E+00  0.00000000E+00
  0.00000000E+00  0.00000000E+00  0.00000000E+00
  0.00000000E+00  0.00000000E+00  0.00000000E+00
  0.00000000E+00  0.00000000E+00  0.00000000E+00
  0.00000000E+00  0.00000000E+00  0.00000000E+00
  0.00000000E+00  0.00000000E+00  0.00000000E+00
  0.00000000E+00  0.00000000E+00  0.00000000E+00
  0.00000000E+00  0.00000000E+00  0.00000000E+00
  0.00000000E+00  0.00000000E+00  0.00000000E+00
  0.00000000E+00  0.00000000E+00  0.00000000E+00
  0.00000000E+00  0.00000000E+00  0.00000000E+00
  0.00000000E+00  0.00000000E+00  0.00000000E+00
  0.00000000E+00  0.00000000E+00  0.00000000E+00
  0.00000000E+00  0.00000000E+00  0.00000000E+00
  0.00000000E+00  0.00000000E+00  0.00000000E+00
  0.00000000E+00  0.00000000E+00  0.00000000E+00
  0.00000000E+00  0.00000000E+00  0.00000000E+00
  0.00000000E+00  0.00000000E+00  0.00000000E+00
  0.00000000E+00  0.00000000E+00  0.00000000E+00
  0.00000000E+00  0.00000000E+00  0.00000000E+00
  0.00000000E+00  0.00000000E+00  0.00000000E+00
  0.00000000E+00  0.00000000E+00  0.00000000E+00
  0.00000000E+00  0.00000000E+00  0.00000000E+00
  0.00000000E+00  0.00000000E+00  0.00000000E+00
  0.00000000E+00  0.00000000E+00  0.00000000E+00
  0.00000000E+00  0.00000000E+00  0.00000000E+00
