 Ni3(PO4)2_0K+                    
   1.00000000000000     
    11.6148996353000005    0.0000000000000000    0.0000000000000000
     0.0000000000000000    9.3666000365999995    0.0000000000000000
     0.0000000000000000    0.0000000000000000   33.0127983093000026
   Ni   P    O    H 
    24    16    94    60
Selective dynamics
Direct
  0.1346800000000000  0.0081200000000000  0.0493699990000000   F   F   F
  0.3680496255867164  0.2724467826617049  0.3412662589180446   T   T   T
  0.3797531670100422  0.5037081913586042  0.1866829151419816   T   T   T
  0.1243320776124940  0.2424675553866241  0.2051361970403243   T   T   T
  0.2400604523306750  0.0119756832790282  0.2754229515066901   T   T   T
  0.2592799900000000  0.2515699900000000  0.1184900100000000   F   F   F
  0.6346799700000000  0.0081200000000000  0.0493699990000000   F   F   F
  0.8699351677302765  0.2358842505069040  0.3445809578055458   T   T   T
  0.8743986738342741  0.4994054950512232  0.1873312122165900   T   T   T
  0.6112892228953952  0.2485931993826135  0.2045618135692742   T   T   T
  0.7434120134601182  0.0070311714821071  0.2752185390401350   T   T   T
  0.7592800100000000  0.2515699900000000  0.1184900100000000   F   F   F
  0.1346800000000000  0.5081200200000000  0.0493699990000000   F   F   F
  0.3739900845145993  0.7834815155926418  0.3330431901185875   T   T   T
  0.3768238920211244  0.9947653580758135  0.1864761627247504   T   T   T
  0.1308503359027196  0.7642376202916535  0.2038336287079784   T   T   T
  0.2407952279728717  0.5102869651052278  0.2718832834456998   T   T   T
  0.2592799900000000  0.7515700100000000  0.1184900100000000   F   F   F
  0.6346799700000000  0.5081200200000000  0.0493699990000000   F   F   F
  0.8683751474488852  0.7422692154185634  0.3449738536203392   T   T   T
  0.8788293834641072  0.0003875085148626  0.1870808877766421   T   T   T
  0.6397640657871785  0.7560482062107823  0.2070526472031184   T   T   T
  0.7537329786650054  0.4920302666355952  0.2759764287055747   T   T   T
  0.7592800100000000  0.7515700100000000  0.1184900100000000   F   F   F
  0.1165458106296975  0.3051672607735930  0.3043951629048340   T   T   T
  0.3856599900000000  0.0401900000000000  0.0895700010000000   F   F   F
  0.3755070874772546  0.2140281231455200  0.2455856128344731   T   T   T
  0.1297818190521876  0.4618980489132280  0.1473983939713388   T   T   T
  0.6199065755291848  0.2828736989832510  0.3034125104574825   T   T   T
  0.8856599900000000  0.0401900000000000  0.0895700010000000   F   F   F
  0.8793560724292481  0.2127607858948308  0.2443008542756940   T   T   T
  0.6275497418125445  0.4678156059330305  0.1477314643416578   T   T   T
  0.1204217339509159  0.8098939761333941  0.3042862449832124   T   T   T
  0.3856599900000000  0.5401899700000000  0.0895700010000000   F   F   F
  0.3790495173273192  0.7185698135583626  0.2401048420357565   T   T   T
  0.1304923788041391  0.9728451282385802  0.1470888490056672   T   T   T
  0.6272554706138187  0.7927693449762268  0.3061167494558121   T   T   T
  0.8856599900000000  0.5401899700000000  0.0895700010000000   F   F   F
  0.8794121380039714  0.7199304409199270  0.2463539920901334   T   T   T
  0.6400954341592093  0.9723812392865085  0.1489547082090983   T   T   T
  0.0036130467424209  0.3508792539064445  0.3259292986669414   T   T   T
  0.1307850896922527  0.3551543230868593  0.2589807183063384   T   T   T
  0.1415287501090166  0.1334605869124004  0.1533151036101973   T   T   T
  0.2234934658140567  0.3786887473045095  0.3228268859514440   T   T   T
  0.4870899800000000  0.1014900000000000  0.0656600030000000   F   F   F
  0.3814931609682221  0.1013828279420143  0.1335490472841439   T   T   T
  0.3625964643517876  0.3751742703192655  0.2422424364210173   T   T   T
  0.2789900000000000  0.1186700000000000  0.0689899970000000   F   F   F
  0.4784960067040503  0.1466017708487058  0.2200236805759316   T   T   T
  0.3783017707298298  0.1530156981143592  0.2895239119961063   T   T   T
  0.3773300200000000  0.3781200100000000  0.0875900020000000   F   F   F
  0.2695789250249117  0.1337632232293388  0.2264079703328046   T   T   T
  0.0288511539434852  0.3991114835898216  0.1755833351458698   T   T   T
  0.1380500000000000  0.4057100200000000  0.1037800000000000   F   F   F
  0.1390223187718594  0.1438254956701713  0.3090804298855015   T   T   T
  0.2432204859791176  0.3914024128089926  0.1685412145361115   T   T   T
  0.5202099657664778  0.3312966267610020  0.3325246716318299   T   T   T
  0.6199161086682061  0.3531053840222004  0.2598891631156236   T   T   T
  0.6433731421654634  0.1358440801084720  0.1483714857282579   T   T   T
  0.7383285121854122  0.3447880732873260  0.3233662135010271   T   T   T
  0.9870900200000000  0.1014900000000000  0.0656600030000000   F   F   F
  0.8808012113547815  0.1004368984657291  0.1340269514473545   T   T   T
  0.8565353264211589  0.3761888504689361  0.2423299584001042   T   T   T
  0.7789900000000000  0.1186700000000000  0.0689899970000000   F   F   F
  0.9784387402973541  0.1435405673661208  0.2215938205265081   T   T   T
  0.8724826419425289  0.1503359302731724  0.2884337439018709   T   T   T
  0.8773299800000000  0.3781200100000000  0.0875900020000000   F   F   F
  0.7678833627821837  0.1279458802844526  0.2222536681637468   T   T   T
  0.5228602720929825  0.4141615044453664  0.1721029333528140   T   T   T
  0.6380500000000000  0.4057100200000000  0.1037800000000000   F   F   F
  0.6228520354453844  0.1224121851040547  0.3018174147870258   T   T   T
  0.7324407693997398  0.3863056020871379  0.1685786367065667   T   T   T
  0.0178554118044613  0.8426755524774829  0.3330403102811171   T   T   T
  0.1128040855922766  0.8747219793101038  0.2613966736287776   T   T   T
  0.1251545148742537  0.6245740593166191  0.1455840319977200   T   T   T
  0.2286434595393405  0.8887100866114739  0.3253153664017093   T   T   T
  0.4870899800000000  0.6014900100000000  0.0656600030000000   F   F   F
  0.3752489856044265  0.6098967333680478  0.1338448228831485   T   T   T
  0.3655986277291801  0.8789366925934358  0.2428824376779225   T   T   T
  0.2789900000000000  0.6186699700000000  0.0689899970000000   F   F   F
  0.4818578786102627  0.6491927017921572  0.2172618823656909   T   T   T
  0.3662587053475980  0.6547473839078516  0.2855377710552701   T   T   T
  0.3773300200000000  0.8781199600000000  0.0875900020000000   F   F   F
  0.2744708153518017  0.6456681015105371  0.2155806206273173   T   T   T
  0.0295421428027206  0.9034036150890771  0.1702225644952682   T   T   T
  0.1380500000000000  0.9057099900000000  0.1037800000000000   F   F   F
  0.1496358125283231  0.6476340485391788  0.3020461928898011   T   T   T
  0.2343698139966890  0.8973547290517534  0.1703803066934813   T   T   T
  0.5312075985712206  0.8281830825111318  0.3353507317039448   T   T   T
  0.6179132984061969  0.8550242878017582  0.2645003215982838   T   T   T
  0.6360704349185102  0.6357577159262978  0.1524224907900400   T   T   T
  0.7395586174232498  0.8668869154328988  0.3242416810305378   T   T   T
  0.9870900200000000  0.6014900100000000  0.0656600030000000   F   F   F
  0.8803335905710173  0.5988432527684183  0.1340011115187855   T   T   T
  0.8656330849679700  0.8842353268188139  0.2455348463466216   T   T   T
  0.7789900000000000  0.6186699700000000  0.0689899970000000   F   F   F
  0.9862127857499883  0.6615181768712245  0.2205778140656403   T   T   T
  0.8842428949293777  0.6543641715602319  0.2887850530652210   T   T   T
  0.8773299800000000  0.8781199600000000  0.0875900020000000   F   F   F
  0.7692483697140162  0.6375164043476065  0.2282853912605779   T   T   T
  0.5347213196101221  0.9080011007805966  0.1729103424984114   T   T   T
  0.6380500000000000  0.9057099900000000  0.1037800000000000   F   F   F
  0.6551870256456392  0.6315446739681475  0.3082045895311226   T   T   T
  0.7430662360781087  0.8847611711846614  0.1696102993660983   T   T   T
  0.9924855445141312  0.0865590310269017  0.3654508400361497   T   T   T
  0.7939242733594301  0.6592151845648393  0.5836417746555397   T   T   T
  0.5732726537913699  0.5446511209461016  0.3945368306357773   T   T   T
  0.2006954485543832  0.1663634581291248  0.5183451940512129   T   T   T
  0.9300929136931039  0.2432229996793164  0.4832079783771406   T   T   T
  0.0574715701246612  0.9519293230852887  0.5073093781185355   T   T   T
  0.4296294671624468  0.9339447104262067  0.4235957883136236   T   T   T
  0.3725980797265375  0.4160997220997375  0.3926505703886407   T   T   T
  0.6617625531794896  0.8171269959295057  0.5211973721667006   T   T   T
  0.6590212887647906  0.3412120178302445  0.5409700842371890   T   T   T
  0.3299492916155444  0.5641480691514281  0.4959578237026680   T   T   T
  0.7175075721162535  0.6855844555348526  0.4552500551281513   T   T   T
  0.8376753608995644  0.3441661355103302  0.4050350641024459   T   T   T
  0.4102560530419174  1.0260371962185570  0.5029464172881574   T   T   T
  0.6015938391480398  0.2475172133668561  0.4067602526962882   T   T   T
  0.7635021447641467  0.0659086846561903  0.3822298157533677   T   T   T
  0.2768656924638534  0.6568312604557278  0.3679343551238001   T   T   T
  0.9642800379774225  0.5679523950597738  0.3724969505522749   T   T   T
  0.0202820221983910  0.6663057220409909  0.5127695360529677   T   T   T
  0.4581048564637442  0.7607584116188026  0.5438183209599444   T   T   T
  0.0699124751544005  0.4976451785320413  0.4435049506615171   T   T   T
  0.1938157867536468  0.2932958705829951  0.4384283965904410   T   T   T
  0.4724157197633176  0.3406985822032592  0.4779971262788620   T   T   T
  0.8646980269859595  0.8120518098574315  0.4026873597918327   T   T   T
  0.8164013438726004  0.4917311652161095  0.5011732690519883   T   T   T
  0.1881874053635285  0.4377222118993561  0.5517059526532334   T   T   T
  0.0511707514201372  0.9138649040787372  0.4289103377226035   T   T   T
  0.2688788719163926  0.1529711257611868  0.3774466945452218   T   T   T
  0.7626172383657981  0.0698704390019344  0.5248546905614556   T   T   T
  0.2368829934779816  0.7570722743041352  0.4413562652535524   T   T   T
  0.0587291162451636  0.1142100860633410  0.3456232749736325   T   T   T
  0.9764400240865854  0.9866459857421495  0.3533531667828886   T   T   T
  0.8718269104552149  0.6885758835377107  0.5870043973744694   T   T   T
  0.7928293718067004  0.5653719227415887  0.5683268307735903   T   T   T
  0.5994649842453104  0.5637251534878948  0.3662308286987023   T   T   T
  0.6152073241044407  0.5957143330637000  0.4155876039818540   T   T   T
  0.2036635533945293  0.2571312218005448  0.5337962494612284   T   T   T
  0.2811932943475537  0.1367882435497066  0.5106213406775737   T   T   T
  1.0096260721731329  0.2366701073040272  0.4894972089784544   T   T   T
  0.8924380863156879  0.1669388854599415  0.4972705920289965   T   T   T
  0.0513748830355904  0.9536818217534342  0.4771145248706563   T   T   T
  0.1234499064574172  0.0029993234371029  0.5161219584926816   T   T   T
  0.4899044762507037  0.8780187628174002  0.4118233978145857   T   T   T
  0.4092340433127795  0.0058303458440423  0.4036091163488127   T   T   T
  0.3316262168895283  0.3827952701725669  0.4169353808204189   T   T   T
  0.4511121610547971  0.4604277648457111  0.3993875216604371   T   T   T
  0.7172486710861117  0.7750982935647104  0.5399462762348863   T   T   T
  0.6761404844139387  0.7670421984433653  0.4941679951923665   T   T   T
  0.6001094308241454  0.3503526519691814  0.5200952648674910   T   T   T
  0.6867577280982368  0.2388847479980606  0.5384981260016932   T   T   T
  0.3913932191603376  0.6189593200667276  0.5103247904853450   T   T   T
  0.2870353115671826  0.6335461398963863  0.4780002477738866   T   T   T
  0.7638469964413482  0.6000140870374813  0.4646459835850444   T   T   T
  0.7732592952847930  0.7417383007385298  0.4386613428168922   T   T   T
  0.8633292382548637  0.2868369581110898  0.4271819964617593   T   T   T
  0.7503939512271937  0.3477770850571008  0.4067781592586232   T   T   T
  0.4356534776222423  0.9793997101156490  0.4763191866204994   T   T   T
  0.4146913558254530  0.9519354509600223  0.5246120008284391   T   T   T
  0.5461207752790675  0.2829075522193004  0.4279734920940659   T   T   T
  0.5737272904326780  0.2962877840035662  0.3813028367660449   T   T   T
  0.7464521214594159  0.0040183494917966  0.3600643024162870   T   T   T
  0.6902874749465450  0.1056417687602673  0.3923618680487840   T   T   T
  0.3110610543945460  0.5594844481067101  0.3712104050670766   T   T   T
  0.2111356880134258  0.6246542698676127  0.3478086861367672   T   T   T
  0.9898937100030903  0.5065048065321237  0.3478236238259011   T   T   T
  0.9036376595996821  0.5045758431300161  0.3848161807071289   T   T   T
  0.0361979022150110  0.7709746324279928  0.5075130727945739   T   T   T
 -0.0629129350996567  0.6495445148880102  0.5081811393568063   T   T   T
  0.4357399839103409  0.7413471104869825  0.5715131578237055   T   T   T
  0.5391554098053645  0.7772871181774198  0.5398540307004147   T   T   T
  0.0643470930546251  0.5699411098319552  0.4636462059487928   T   T   T
  0.0427620381101811  0.5323423374436334  0.4174816158893079   T   T   T
  0.1342106396507216  0.3778028652162665  0.4398149819467370   T   T   T
  0.1971370568875567  0.2313171536521235  0.4619523800751583   T   T   T
  0.4053665430389543  0.4071188289020749  0.4851219987729035   T   T   T
  0.4613224536708812  0.2513951306334154  0.4923594608127094   T   T   T
  0.9476095440968236  0.8142575185649437  0.4127689591964949   T   T   T
  0.8446724039058980  0.9154079339721808  0.3974063606158699   T   T   T
  0.8825931773552398  0.4309210860424242  0.4948463720631873   T   T   T
  0.7525351180455923  0.4400451066163060  0.5157235655419448   T   T   T
  0.2426319808078042  0.4843729939927703  0.5323481996358749   T   T   T
  0.1157815020309189  0.4873420918455135  0.5470457025787545   T   T   T
  0.0516883347817463  0.9863404346095649  0.4087829415194698   T   T   T
  0.1205219661180801  0.8560213731037838  0.4254597228672733   T   T   T
  0.2249470299049596  0.2074722114381403  0.4014094473677682   T   T   T
  0.2117743390093682  0.1118681846992628  0.3587718730617788   T   T   T
  0.8214254024843647  0.0474401165096258  0.5430150144562765   T   T   T
  0.7283815292245029  0.9843542422030650  0.5164968161504043   T   T   T
  0.2272513783042782  0.7209481061276334  0.4138837885776077   T   T   T
  0.3003645882318417  0.8268611852190718  0.4357453558427006   T   T   T
 
  0.00000000E+00  0.00000000E+00  0.00000000E+00
 -0.17377419E-02 -0.23701929E-02  0.56635956E-03
 -0.18218560E-02 -0.10546066E-02 -0.16455729E-02
  0.35335929E-02 -0.12435373E-02 -0.51060951E-03
 -0.18833398E-02  0.12292293E-02 -0.64624364E-03
  0.00000000E+00  0.00000000E+00  0.00000000E+00
  0.00000000E+00  0.00000000E+00  0.00000000E+00
 -0.83847258E-03  0.25851545E-02  0.27295317E-02
  0.22565215E-02  0.29453174E-02  0.32031398E-02
  0.62226584E-03  0.28777206E-02  0.24542901E-03
  0.30887904E-02 -0.21276418E-02 -0.12210712E-02
  0.00000000E+00  0.00000000E+00  0.00000000E+00
  0.00000000E+00  0.00000000E+00  0.00000000E+00
  0.18269847E-02 -0.15070957E-02  0.13141477E-02
  0.32890039E-02 -0.32553608E-03 -0.78280000E-03
 -0.23039021E-02 -0.15215940E-02 -0.22151164E-02
  0.21245012E-02  0.67669000E-04 -0.12868853E-02
  0.00000000E+00  0.00000000E+00  0.00000000E+00
  0.00000000E+00  0.00000000E+00  0.00000000E+00
 -0.17861855E-02  0.43299942E-03 -0.17089478E-02
 -0.50238155E-03  0.10855067E-02 -0.18766046E-02
  0.37005178E-02 -0.57484654E-02  0.15879179E-02
 -0.15776871E-02 -0.30632596E-02 -0.12226008E-02
  0.00000000E+00  0.00000000E+00  0.00000000E+00
  0.71457208E-03  0.45011537E-02  0.14553355E-02
  0.00000000E+00  0.00000000E+00  0.00000000E+00
  0.39460681E-02 -0.68780009E-03 -0.14938331E-02
 -0.19286650E-02  0.18278669E-03  0.18807465E-02
  0.31179826E-02 -0.40540546E-03  0.71312650E-02
  0.00000000E+00  0.00000000E+00  0.00000000E+00
  0.35173261E-02  0.71380535E-02  0.19473778E-02
 -0.65665309E-02 -0.53139464E-02  0.13187467E-02
 -0.75686562E-04 -0.22438206E-02  0.27350900E-03
  0.00000000E+00  0.00000000E+00  0.00000000E+00
  0.65306201E-02  0.98752441E-03  0.30629976E-02
 -0.59073303E-03  0.12983653E-02  0.13640135E-03
 -0.33074677E-02 -0.41168204E-03 -0.28921083E-02
  0.00000000E+00  0.00000000E+00  0.00000000E+00
 -0.18336105E-02  0.60329337E-02  0.13284225E-02
 -0.19251943E-02 -0.45932102E-02  0.20142041E-02
  0.37037630E-02  0.26137661E-02  0.11214014E-02
 -0.10930313E-02 -0.19274332E-02  0.51326951E-02
 -0.73838265E-03  0.28914077E-02 -0.53175875E-02
  0.33612768E-02 -0.55131340E-02  0.41188300E-03
  0.00000000E+00  0.00000000E+00  0.00000000E+00
 -0.32455239E-02  0.10808055E-02 -0.15691888E-02
  0.13924345E-02 -0.49170480E-02 -0.11005334E-04
  0.00000000E+00  0.00000000E+00  0.00000000E+00
 -0.43266304E-02  0.13211191E-02  0.71106261E-03
  0.70874425E-02 -0.15320857E-02 -0.21913418E-03
  0.00000000E+00  0.00000000E+00  0.00000000E+00
  0.11952783E-02  0.71808836E-02 -0.19001087E-02
  0.17849735E-02 -0.75244429E-03 -0.19915469E-02
  0.00000000E+00  0.00000000E+00  0.00000000E+00
  0.26345488E-02 -0.52159582E-02 -0.30787571E-02
 -0.18446443E-02 -0.90834715E-03 -0.63154237E-02
  0.52319575E-02  0.22177513E-02 -0.41020067E-03
 -0.18484886E-02 -0.41047135E-02 -0.20008689E-02
 -0.15889901E-02  0.46690528E-02 -0.19545858E-02
  0.56171513E-03  0.12072731E-02  0.41419994E-02
  0.00000000E+00  0.00000000E+00  0.00000000E+00
 -0.21060473E-02  0.55989120E-02  0.43724806E-03
 -0.50622815E-02 -0.18930470E-02 -0.56134658E-02
  0.00000000E+00  0.00000000E+00  0.00000000E+00
 -0.44508346E-02 -0.48408122E-02 -0.17641819E-02
  0.35579014E-02  0.47549321E-04 -0.30986991E-02
  0.00000000E+00  0.00000000E+00  0.00000000E+00
 -0.49688167E-02  0.27556123E-02  0.94605744E-03
  0.29468609E-02 -0.78699111E-02 -0.54834832E-02
  0.00000000E+00  0.00000000E+00  0.00000000E+00
 -0.86019884E-04 -0.70786855E-02 -0.83882655E-03
 -0.45597082E-03 -0.24248548E-02 -0.28981878E-02
  0.19967982E-03 -0.57172750E-04  0.17809100E-03
 -0.27835465E-02 -0.53168930E-02  0.64656172E-03
  0.21521369E-03 -0.13408059E-04  0.32147851E-02
  0.45403353E-02 -0.56089083E-02 -0.14047052E-02
  0.00000000E+00  0.00000000E+00  0.00000000E+00
 -0.39855777E-02  0.22244439E-02 -0.32330103E-02
 -0.39078468E-02  0.75670200E-02  0.41349698E-02
  0.00000000E+00  0.00000000E+00  0.00000000E+00
  0.36925243E-02  0.70460404E-03  0.37729538E-02
 -0.13040541E-02 -0.74123838E-02 -0.45892365E-02
  0.00000000E+00  0.00000000E+00  0.00000000E+00
  0.10194999E-03 -0.29523741E-02  0.88610229E-02
  0.35716128E-04 -0.52415363E-03 -0.19638288E-02
  0.00000000E+00  0.00000000E+00  0.00000000E+00
  0.51201891E-02  0.54291892E-02 -0.11149044E-02
  0.47279295E-02  0.25919221E-02 -0.11054308E-01
  0.32100270E-02 -0.37393829E-02  0.13010624E-02
  0.36608300E-02  0.42328143E-03  0.44536669E-03
  0.26668556E-02  0.19808890E-02 -0.34582764E-02
 -0.39650486E-02  0.33165407E-02  0.14241658E-02
  0.00000000E+00  0.00000000E+00  0.00000000E+00
  0.47799188E-02 -0.22028975E-02  0.56519694E-02
  0.22339586E-02  0.26127966E-02 -0.97132428E-02
  0.00000000E+00  0.00000000E+00  0.00000000E+00
 -0.48758059E-03  0.68677100E-04  0.23691439E-02
  0.79041431E-02 -0.30996813E-02 -0.14023560E-02
  0.00000000E+00  0.00000000E+00  0.00000000E+00
  0.30478503E-02  0.22670447E-02  0.72916878E-02
  0.14031020E-02  0.15076098E-02 -0.30382110E-02
  0.00000000E+00  0.00000000E+00  0.00000000E+00
  0.29792704E-02  0.68305020E-02 -0.13285336E-02
  0.11481304E-02  0.26417150E-02  0.48543709E-02
 -0.30791226E-02 -0.32328275E-02 -0.19785755E-02
 -0.10247483E-01 -0.96781463E-03 -0.52709471E-02
 -0.37310337E-02  0.73475905E-02 -0.28560608E-02
  0.25183432E-02  0.15973643E-02  0.34693450E-02
 -0.29559132E-03  0.10609538E-02 -0.35634161E-02
 -0.50800208E-02  0.20544367E-02 -0.37268348E-03
 -0.17064823E-02 -0.16403353E-02  0.19171697E-02
 -0.46835061E-02  0.42353976E-02 -0.23680618E-02
  0.37232141E-03 -0.38996425E-02 -0.12896189E-02
 -0.22724299E-02 -0.34624696E-02 -0.11365625E-02
  0.29463178E-02 -0.38935231E-02 -0.51484675E-02
 -0.72878276E-02 -0.34300820E-02  0.67335656E-02
  0.79419152E-03 -0.23405212E-02 -0.53827279E-02
  0.27266134E-02  0.54420491E-02 -0.35162113E-02
 -0.18750870E-02  0.72656635E-02  0.42537152E-02
  0.10275445E-02 -0.22750316E-02  0.17381950E-02
  0.53537332E-02  0.84757025E-02 -0.43679315E-02
  0.20880919E-02 -0.88432681E-03 -0.23742791E-03
  0.39156216E-02  0.58446341E-02  0.30163871E-03
  0.24206794E-02  0.42575497E-02 -0.57927608E-02
 -0.45732831E-02 -0.12192927E-02  0.12749731E-02
 -0.49652616E-03 -0.40630874E-02 -0.16705269E-02
  0.49694767E-02  0.51997924E-03 -0.30457305E-02
  0.38884323E-03 -0.42316206E-02 -0.70252637E-03
 -0.27917592E-02  0.36931780E-02  0.63431845E-02
 -0.14201385E-02  0.11730214E-02 -0.47059910E-03
 -0.15893889E-02  0.16601646E-02  0.99224061E-03
 -0.76073209E-02  0.29877714E-02 -0.36062631E-02
  0.24438417E-02  0.75861186E-03  0.28915252E-02
 -0.32723115E-02  0.35159657E-02  0.14726815E-03
  0.43748713E-02  0.15318397E-01  0.87930961E-02
  0.25778937E-01 -0.29245384E-01 -0.33632331E-02
 -0.13284520E-01  0.61471740E-02  0.14087929E-01
 -0.13558147E-01  0.11873715E-01 -0.48421970E-03
 -0.95183415E-02  0.16211412E-01  0.35567404E-01
 -0.92737391E-02  0.30922145E-03 -0.81652143E-02
  0.64240492E-03 -0.32798717E-01  0.13169522E-01
  0.60456685E-02  0.41100612E-02 -0.10655343E-01
  0.37065067E-01  0.20171683E-01 -0.15225823E-02
 -0.66651726E-02 -0.51868799E-02  0.26553152E-02
 -0.21099585E-01 -0.15224828E-01 -0.23350690E-02
  0.20544035E-01 -0.34286941E-03 -0.11685798E-01
  0.50736655E-01  0.74111825E-02  0.11663238E-01
  0.10539572E-01 -0.24331519E-01 -0.15319028E-01
 -0.11711238E-01 -0.18354628E-01  0.16422016E-01
 -0.84292762E-02  0.11263775E-01 -0.11279966E-01
  0.16376954E-01 -0.39666942E-02 -0.56517250E-03
 -0.15018220E-01 -0.15065870E-01 -0.23905591E-01
  0.73679553E-02  0.23446136E-01  0.65731760E-02
 -0.76893702E-02 -0.42266743E-02  0.10414466E-03
  0.10456712E-02  0.76134028E-03  0.22110717E-02
  0.14497788E-01 -0.12491313E-02  0.85276823E-02
 -0.13823669E-02 -0.16020509E-01  0.21559505E-01
 -0.19582306E-01 -0.16744064E-01 -0.44116920E-02
  0.37113906E-02 -0.40985140E-02 -0.44189986E-02
  0.91630182E-02  0.27245089E-02  0.13979939E-01
 -0.57937807E-02  0.13419504E-01 -0.19405872E-01
  0.57459551E-03  0.37516793E-02  0.37712437E-02
  0.44271178E-02 -0.12512269E-01  0.16366038E-01
 -0.39360963E-02  0.40570260E-01  0.11024217E-01
  0.43394343E-01  0.17010563E-01 -0.26066871E-01
  0.16202890E-01  0.29043463E-01  0.30530250E-01
  0.27321437E-02 -0.10067456E-02  0.89137484E-02
 -0.79915656E-02 -0.37731923E-01 -0.91695655E-02
  0.81410128E-02  0.66498039E-02 -0.13704586E-02
 -0.11192164E-01 -0.17827924E-02 -0.75028623E-02
  0.17858724E-01  0.21456038E-01  0.63133007E-02
 -0.28978385E-02  0.22659359E-02  0.21170860E-01
 -0.38475370E-01  0.37899551E-02  0.19654425E-01
  0.18638048E-01  0.11937846E-01  0.39441719E-02
 -0.15984471E-03 -0.18158178E-01  0.56764007E-02
  0.35048291E-01  0.40032474E-02 -0.13865301E-01
  0.76682318E-02 -0.43233690E-01 -0.23749580E-01
 -0.81573285E-03 -0.32253838E-01  0.10117867E-01
  0.11472946E-02  0.11609161E-02 -0.85191230E-03
  0.50776718E-02  0.62298991E-03 -0.18552758E-01
 -0.22409185E-02  0.12947721E-01 -0.65219686E-02
 -0.96397262E-02  0.14458644E-01 -0.18449182E-01
 -0.22677252E-03  0.72280872E-02  0.10877967E-02
  0.21884342E-01 -0.22951773E-01  0.58144458E-02
 -0.73940410E-02 -0.17412480E-01  0.55053978E-02
  0.11562098E-01 -0.29426598E-02 -0.86137383E-02
  0.18007291E-02  0.12048970E-01  0.26678133E-02
  0.71257913E-02  0.57236479E-02 -0.39837550E-02
 -0.70848262E-02 -0.16427331E-02 -0.60385449E-02
  0.28858672E-02  0.26479583E-01  0.53466652E-02
  0.35006740E-02 -0.17524080E-01  0.18959091E-01
 -0.96829792E-03 -0.16982112E-01  0.11603886E-01
  0.94610737E-02 -0.45552717E-02 -0.97426068E-02
  0.54812451E-02 -0.11996867E-01 -0.11564391E-02
 
           1
   1.00000000000000     
  0.17206333E+01 -0.11076087E-01 -0.10510766E-01  0.17314267E+01
  0.13468000E+00  0.81200000E-02  0.49369999E-01
  0.36790001E+00  0.27219374E+00  0.34128341E+00
  0.37959631E+00  0.50359560E+00  0.18663307E+00
  0.12463631E+00  0.24233479E+00  0.20512073E+00
  0.23989830E+00  0.12106919E-01  0.27540338E+00
  0.25927999E+00  0.25156999E+00  0.11849001E+00
  0.63467997E+00  0.81200000E-02  0.49369999E-01
  0.86986298E+00  0.23616025E+00  0.34466364E+00
  0.87459295E+00  0.49971994E+00  0.18742824E+00
  0.61134280E+00  0.24890043E+00  0.20456925E+00
  0.74367795E+00  0.68040195E-02  0.27518155E+00
  0.75928001E+00  0.25156999E+00  0.11849001E+00
  0.13468000E+00  0.50812002E+00  0.49369999E-01
  0.37414738E+00  0.78332061E+00  0.33308300E+00
  0.37710706E+00  0.99473060E+00  0.18645245E+00
  0.13065198E+00  0.76407517E+00  0.20376653E+00
  0.24097814E+00  0.51029419E+00  0.27184430E+00
  0.25927999E+00  0.75157001E+00  0.11849001E+00
  0.63467997E+00  0.50812002E+00  0.49369999E-01
  0.86822136E+00  0.74231544E+00  0.34492209E+00
  0.87878613E+00  0.50339973E-03  0.18702404E+00
  0.64008267E+00  0.75543449E+00  0.20710075E+00
  0.75359715E+00  0.49170323E+00  0.27593939E+00
  0.75928001E+00  0.75157001E+00  0.11849001E+00
  0.11660733E+00  0.30564781E+00  0.30443925E+00
  0.38565999E+00  0.40190000E-01  0.89570001E-01
  0.37584683E+00  0.21395469E+00  0.24554036E+00
  0.12961577E+00  0.46191756E+00  0.14745536E+00
  0.62017502E+00  0.28283042E+00  0.30362853E+00
  0.88565999E+00  0.40190000E-01  0.89570001E-01
  0.87965890E+00  0.21352286E+00  0.24435984E+00
  0.62698439E+00  0.46724828E+00  0.14777141E+00
  0.12041522E+00  0.80965442E+00  0.30429453E+00
  0.38565999E+00  0.54018997E+00  0.89570001E-01
  0.37961178E+00  0.71867524E+00  0.24019762E+00
  0.13044152E+00  0.97298374E+00  0.14709298E+00
  0.62697071E+00  0.79272539E+00  0.30602914E+00
  0.88565999E+00  0.54018997E+00  0.89570001E-01
  0.87925427E+00  0.72057453E+00  0.24639423E+00
  0.63992968E+00  0.97189086E+00  0.14901572E+00
  0.39319271E-02  0.35115831E+00  0.32596327E+00
  0.13069098E+00  0.35494855E+00  0.25913619E+00
  0.14146518E+00  0.13376928E+00  0.15315403E+00
  0.22378286E+00  0.37810015E+00  0.32283936E+00
  0.48708998E+00  0.10149000E+00  0.65660003E-01
  0.38121373E+00  0.10149822E+00  0.13350151E+00
  0.36271635E+00  0.37464931E+00  0.24224210E+00
  0.27899000E+00  0.11867000E+00  0.68989997E-01
  0.47812350E+00  0.14674282E+00  0.22004522E+00
  0.37891197E+00  0.15285213E+00  0.28951727E+00
  0.37733002E+00  0.37812001E+00  0.87590002E-01
  0.26968183E+00  0.13452987E+00  0.22635041E+00
  0.29004834E-01  0.39903115E+00  0.17552301E+00
  0.13805000E+00  0.40571002E+00  0.10378000E+00
  0.13924914E+00  0.14326863E+00  0.30898717E+00
  0.24306167E+00  0.39130544E+00  0.16834991E+00
  0.52066042E+00  0.33153340E+00  0.33251225E+00
  0.61975696E+00  0.35266716E+00  0.25982855E+00
  0.64323634E+00  0.13634256E+00  0.14831228E+00
  0.73837687E+00  0.34491696E+00  0.32349168E+00
  0.98709002E+00  0.10149000E+00  0.65660003E-01
  0.88061989E+00  0.10103465E+00  0.13404020E+00
  0.85609948E+00  0.37598674E+00  0.24215992E+00
  0.77899000E+00  0.11867000E+00  0.68989997E-01
  0.97805554E+00  0.14302375E+00  0.22154038E+00
  0.87278896E+00  0.15034101E+00  0.28833988E+00
  0.87732998E+00  0.37812001E+00  0.87590002E-01
  0.76745557E+00  0.12824008E+00  0.22228233E+00
  0.52311399E+00  0.41332129E+00  0.17193683E+00
  0.63805000E+00  0.40571002E+00  0.10378000E+00
  0.62284463E+00  0.12165645E+00  0.30179201E+00
  0.73240151E+00  0.38604672E+00  0.16849085E+00
  0.17872604E-01  0.84266945E+00  0.33304570E+00
  0.11256443E+00  0.87415434E+00  0.26141626E+00
  0.12517304E+00  0.62457263E+00  0.14568141E+00
  0.22903437E+00  0.88811127E+00  0.32527282E+00
  0.48708998E+00  0.60149001E+00  0.65660003E-01
  0.37490584E+00  0.61013422E+00  0.13374689E+00
  0.36526218E+00  0.87974457E+00  0.24300769E+00
  0.27899000E+00  0.61866997E+00  0.68989997E-01
  0.48217579E+00  0.64926793E+00  0.21737617E+00
  0.36614643E+00  0.65395602E+00  0.28539876E+00
  0.37733002E+00  0.87811996E+00  0.87590002E-01
  0.27447959E+00  0.64535290E+00  0.21584903E+00
  0.29545218E-01  0.90334766E+00  0.17016308E+00
  0.13805000E+00  0.90570999E+00  0.10378000E+00
  0.15007664E+00  0.64821368E+00  0.30201242E+00
  0.23477687E+00  0.89763145E+00  0.17004546E+00
  0.53148397E+00  0.82778386E+00  0.33539014E+00
  0.61822848E+00  0.85506948E+00  0.26451381E+00
  0.63630004E+00  0.63596920E+00  0.15231774E+00
  0.73921724E+00  0.86724100E+00  0.32428482E+00
  0.98709002E+00  0.60149001E+00  0.65660003E-01
  0.88074512E+00  0.59860807E+00  0.13417232E+00
  0.86582542E+00  0.88451428E+00  0.24524062E+00
  0.77899000E+00  0.61866997E+00  0.68989997E-01
  0.98617081E+00  0.66152551E+00  0.22064958E+00
  0.88492341E+00  0.65403324E+00  0.28874257E+00
  0.87732998E+00  0.87811996E+00  0.87590002E-01
  0.76951078E+00  0.63775844E+00  0.22850627E+00
  0.53484212E+00  0.90816206E+00  0.17281831E+00
  0.63805000E+00  0.90570999E+00  0.10378000E+00
  0.65544353E+00  0.63227391E+00  0.30816435E+00
  0.74316509E+00  0.88504321E+00  0.16975734E+00
  0.99222044E+00  0.86213887E-01  0.36539091E+00
  0.79304200E+00  0.65911186E+00  0.58348211E+00
  0.57295143E+00  0.54543557E+00  0.39445032E+00
  0.20091227E+00  0.16653400E+00  0.51845028E+00
  0.93006746E+00  0.24333627E+00  0.48310004E+00
  0.57034199E-01  0.95214866E+00  0.50729809E+00
  0.42948255E+00  0.93376958E+00  0.42365386E+00
  0.37219485E+00  0.41655190E+00  0.39257884E+00
  0.66179461E+00  0.81671066E+00  0.52115831E+00
  0.65882564E+00  0.34084236E+00  0.54093566E+00
  0.33020296E+00  0.56373239E+00  0.49580187E+00
  0.71688012E+00  0.68521825E+00  0.45545402E+00
  0.83774374E+00  0.34391626E+00  0.40487201E+00
  0.41049080E+00  0.26618202E-01  0.50283991E+00
  0.60143240E+00  0.24829291E+00  0.40688910E+00
  0.76359061E+00  0.65665797E-01  0.38228247E+00