Ni_Pol_CO2CH
   1.00000000000000     
     9.8291997910000006    0.0000000000000000    0.0000000000000000
     4.9145998955000003    8.5123367178000002    0.0000000000000000
     0.0000000000000000    0.0000000000000000   19.0128002167000005
   Ni   O    C    O    C    H 
    64     3     1     2     1     1
Selective dynamics
Direct
  0.8334492059654249  0.5846305869605253  0.2713208466760095   T   T   T
  0.3327512768536205  0.0850845277617283  0.2703571679129154   T   T   T
  0.8339136159617628  0.0852961745787358  0.2712006412852861   T   T   T
  0.3332696451870343  0.5850309429207043  0.2709229116769842   T   T   T
  0.5832963449734926  0.8354266380734464  0.2704769082457945   T   T   T
  0.8334420275827209  0.8350656634748576  0.2705199153205969   T   T   T
  0.0834198725144273  0.3348248364347401  0.2710263036423737   T   T   T
  0.8338258966729895  0.3344360321787014  0.2718669018846576   T   T   T
  0.5833293414320296  0.5844837249845700  0.2715001056033985   T   T   T
  0.0830053992273704  0.5850276818961325  0.2710474770477387   T   T   T
  0.0826555622709100  0.0857236776133595  0.2709954757955326   T   T   T
  0.5836312668720885  0.0849309685161584  0.2711194189464612   T   T   T
  0.3336139696353246  0.8348385014435470  0.2705329365313710   T   T   T
  0.0829632062805675  0.8351039621227528  0.2705707397021614   T   T   T
  0.3330568492570469  0.3351549044673357  0.2710630464842116   T   T   T
  0.5831508100890798  0.3343335222128199  0.2716012452824355   T   T   T
  0.9169659521613484  0.6675151869463325  0.3755776223210606   T   T   T
  0.9177746514896767  0.4179957740925284  0.3766958533660319   T   T   T
  0.6663185540300119  0.6685607645311700  0.3747702824355110   T   T   T
  0.1659779643276398  0.1687751706172017  0.3767993712488230   T   T   T
  0.9175675099133901  0.1691965593341691  0.3789358351717635   T   T   T
  0.9170728467948562  0.9188062933217211  0.3758371821106658   T   T   T
  0.4163860318674013  0.9188694731162319  0.3754026911666096   T   T   T
  0.4168915121702137  0.1683268666310242  0.3753237997497471   T   T   T
  0.6680038281231723  0.1684746027709078  0.3767977808129919   T   T   T
  0.1671429573180958  0.6681846247449342  0.3757356963254889   T   T   T
  0.4162261494818543  0.6684669498795662  0.3765021228805514   T   T   T
  0.4166730843128199  0.4192593121321140  0.3767270115078213   T   T   T
  0.6669495316004356  0.9193783388043371  0.3768858651682007   T   T   T
  0.1673902932838664  0.4180005603807092  0.3777923759135708   T   T   T
  0.6664510606244475  0.4170760035546494  0.3777060671147214   T   T   T
  0.1666619456895055  0.9185269494895917  0.3777203840657202   T   T   T
  0.0012557763642055  0.2544481062302240  0.4862880745359093   T   T   T
  0.5005479410625674  0.2507116906774184  0.4793871753524864   T   T   T
  0.9976358674337987  0.7476957835863974  0.4797655817392925   T   T   T
  0.5045236476459939  0.7505490961290084  0.4795404984817906   T   T   T
  0.7505344089419469  0.7508672548082228  0.4799278812233894   T   T   T
  0.9990350057004930  0.5015664819825298  0.4853314360006143   T   T   T
  0.7499078321849917  0.5062073784678310  0.4817560290356115   T   T   T
  0.2509009267569937 -0.0024446971533136  0.4846545604402567   T   T   T
  0.0049176732362792  0.9975560166246922  0.4849611536836343   T   T   T
  0.5063276970983662  0.9976590517105255  0.4848575854342320   T   T   T
  0.2471121859168199  0.7556961594021877  0.4845171977025742   T   T   T
  0.7498664270022485  0.9970172766780180  0.4852498156149627   T   T   T
  0.2533449245285609  0.2525695323724333  0.4840638723672052   T   T   T
  0.7488088511908600  0.2531074766657317  0.4930148008894985   T   T   T
  0.2463084624419776  0.5002418681650029  0.4849196125036435   T   T   T
  0.4993067348240198  0.5028964385753910  0.4923049512975817   T   T   T
  0.9970724670000024  0.2558556729999992  0.1637003960000030   F   F   F
  0.4999617989999976  0.2500875830000027  0.1643123180000003   F   F   F
  0.9968841629999972  0.7476992069999966  0.1643590660000029   F   F   F
  0.5054474789999972  0.7476858750000019  0.1651548480000002   F   F   F
  0.7507219769999978  0.7486395119999969  0.1651830500000031   F   F   F
  0.9979410790000003  0.5014025589999989  0.1651978470000017   F   F   F
  0.7507272960000009  0.5014379059999996  0.1654730480000026   F   F   F
  0.2484077359999972  0.9989653640000000  0.1655050250000016   F   F   F
  0.0026835399999996  0.9989392600000002  0.1655775309999967   F   F   F
  0.5037179199999997  0.9979203070000011  0.1655856309999990   F   F   F
  0.2483221529999966  0.7533767729999994  0.1658259459999982   F   F   F
  0.7484137009999969  0.9978805350000002  0.1658943890000018   F   F   F
  0.2473094730000014  0.2543786680000011  0.1660089160000027   F   F   F
  0.7483561820000020  0.2543461500000035  0.1660180820000008   F   F   F
  0.2472921950000000  0.4989472700000022  0.1662971330000005   F   F   F
  0.5037960519999984  0.4989156760000029  0.1664085250000014   F   F   F
  0.3374820921290336  0.0812761194201248  0.5437961212562382   T   T   T
  0.8401346388505588  0.0720781626988117  0.5463010098267124   T   T   T
  0.3191280610708470  0.5919114853933571  0.5463625426706177   T   T   T
  0.9981582175503584  0.4390408555287740  0.5859533922874844   T   T   T
  0.9887501771819281  0.5425420577955109  0.6238370189089866   T   T   T
  0.0088281033278867  0.3063389404098866  0.5894066458670623   T   T   T
  0.6731155340941686  0.4301382510376796  0.5480833355988607   T   T   T
  0.6797772692653598  0.4303302916780148  0.6058779695413513   T   T   T
 
  0.00000000E+00  0.00000000E+00  0.00000000E+00
  0.00000000E+00  0.00000000E+00  0.00000000E+00
  0.00000000E+00  0.00000000E+00  0.00000000E+00
  0.00000000E+00  0.00000000E+00  0.00000000E+00
  0.00000000E+00  0.00000000E+00  0.00000000E+00
  0.00000000E+00  0.00000000E+00  0.00000000E+00
  0.00000000E+00  0.00000000E+00  0.00000000E+00
  0.00000000E+00  0.00000000E+00  0.00000000E+00
  0.00000000E+00  0.00000000E+00  0.00000000E+00
  0.00000000E+00  0.00000000E+00  0.00000000E+00
  0.00000000E+00  0.00000000E+00  0.00000000E+00
  0.00000000E+00  0.00000000E+00  0.00000000E+00
  0.00000000E+00  0.00000000E+00  0.00000000E+00
  0.00000000E+00  0.00000000E+00  0.00000000E+00
  0.00000000E+00  0.00000000E+00  0.00000000E+00
  0.00000000E+00  0.00000000E+00  0.00000000E+00
  0.00000000E+00  0.00000000E+00  0.00000000E+00
  0.00000000E+00  0.00000000E+00  0.00000000E+00
  0.00000000E+00  0.00000000E+00  0.00000000E+00
  0.00000000E+00  0.00000000E+00  0.00000000E+00
  0.00000000E+00  0.00000000E+00  0.00000000E+00
  0.00000000E+00  0.00000000E+00  0.00000000E+00
  0.00000000E+00  0.00000000E+00  0.00000000E+00
  0.00000000E+00  0.00000000E+00  0.00000000E+00
  0.00000000E+00  0.00000000E+00  0.00000000E+00
  0.00000000E+00  0.00000000E+00  0.00000000E+00
  0.00000000E+00  0.00000000E+00  0.00000000E+00
  0.00000000E+00  0.00000000E+00  0.00000000E+00
  0.00000000E+00  0.00000000E+00  0.00000000E+00
  0.00000000E+00  0.00000000E+00  0.00000000E+00
  0.00000000E+00  0.00000000E+00  0.00000000E+00
  0.00000000E+00  0.00000000E+00  0.00000000E+00
  0.00000000E+00  0.00000000E+00  0.00000000E+00
  0.00000000E+00  0.00000000E+00  0.00000000E+00
  0.00000000E+00  0.00000000E+00  0.00000000E+00
  0.00000000E+00  0.00000000E+00  0.00000000E+00
  0.00000000E+00  0.00000000E+00  0.00000000E+00
  0.00000000E+00  0.00000000E+00  0.00000000E+00
  0.00000000E+00  0.00000000E+00  0.00000000E+00
  0.00000000E+00  0.00000000E+00  0.00000000E+00
  0.00000000E+00  0.00000000E+00  0.00000000E+00
  0.00000000E+00  0.00000000E+00  0.00000000E+00
  0.00000000E+00  0.00000000E+00  0.00000000E+00
  0.00000000E+00  0.00000000E+00  0.00000000E+00
  0.00000000E+00  0.00000000E+00  0.00000000E+00
  0.00000000E+00  0.00000000E+00  0.00000000E+00
  0.00000000E+00  0.00000000E+00  0.00000000E+00
  0.00000000E+00  0.00000000E+00  0.00000000E+00
  0.00000000E+00  0.00000000E+00  0.00000000E+00
  0.00000000E+00  0.00000000E+00  0.00000000E+00
  0.00000000E+00  0.00000000E+00  0.00000000E+00
  0.00000000E+00  0.00000000E+00  0.00000000E+00
  0.00000000E+00  0.00000000E+00  0.00000000E+00
  0.00000000E+00  0.00000000E+00  0.00000000E+00
  0.00000000E+00  0.00000000E+00  0.00000000E+00
  0.00000000E+00  0.00000000E+00  0.00000000E+00
  0.00000000E+00  0.00000000E+00  0.00000000E+00
  0.00000000E+00  0.00000000E+00  0.00000000E+00
  0.00000000E+00  0.00000000E+00  0.00000000E+00
  0.00000000E+00  0.00000000E+00  0.00000000E+00
  0.00000000E+00  0.00000000E+00  0.00000000E+00
  0.00000000E+00  0.00000000E+00  0.00000000E+00
  0.00000000E+00  0.00000000E+00  0.00000000E+00
  0.00000000E+00  0.00000000E+00  0.00000000E+00
  0.00000000E+00  0.00000000E+00  0.00000000E+00
  0.00000000E+00  0.00000000E+00  0.00000000E+00
  0.00000000E+00  0.00000000E+00  0.00000000E+00
  0.00000000E+00  0.00000000E+00  0.00000000E+00
  0.00000000E+00  0.00000000E+00  0.00000000E+00
  0.00000000E+00  0.00000000E+00  0.00000000E+00
  0.00000000E+00  0.00000000E+00  0.00000000E+00
  0.00000000E+00  0.00000000E+00  0.00000000E+00
