 Layer\(9)                              
   1.00000000000000     
     9.8291997910000006    0.0000000000000000    0.0000000000000000
     4.9145998955000003    8.5123367178000002    0.0000000000000000
     0.0000000000000000    0.0000000000000000   30.7147998810000011
   Ni   O    H    C    H 
    64    30    60     1     2
Selective dynamics
Direct
  0.0909378505054753  0.0891623732441271  0.1221919465412309   T   T   T
  0.3503549357386882  0.0770080689358344  0.1205164805679745   T   T   T
  0.3298071499848154  0.8394399608767061  0.1204333256702791   T   T   T
  0.5812441026491020  0.3410573343190427  0.1205041482572246   T   T   T
  0.3315481038753078  0.5835905563503890  0.1227747587401252   T   T   T
  0.3374897488184577  0.3319533550600977  0.1236233312096653   T   T   T
  0.8280398030148404  0.0987245890209883  0.1168527101601763   T   T   T
  0.5893293649518244  0.0792064027050765  0.1174744727885571   T   T   T
  0.8286229327475717  0.3360531726439231  0.1174877904226949   T   T   T
  0.5748740386927779  0.5855917184121918  0.1212266889968928   T   T   T
  0.0783978213318778  0.8519957916910915  0.1198706331781205   T   T   T
  0.5834334378535511  0.8279337678299704  0.1196189115145973   T   T   T
  0.0840072919601879  0.3403855962589746  0.1218538593450888   T   T   T
  0.8395528495860451  0.5767771810899230  0.1237593683321623   T   T   T
  0.0882139855754030  0.5891067908736510  0.1198098744045488   T   T   T
  0.8329219495278968  0.8336289163855047  0.1218418761874892   T   T   T
  0.1644505284380141  0.1646670861715946  0.1903668115661942   T   T   T
  0.1614086306811836  0.9213250955281834  0.1840335251997100   T   T   T
  0.4189747680196493  0.1589007020401955  0.1866142753970924   T   T   T
  0.4142856444339811  0.9142692419449451  0.1847541255198501   T   T   T
  0.4146321508594797  0.4105886560377104  0.1884505023702396   T   T   T
  0.4165387737213015  0.6679834309308263  0.1872503842017194   T   T   T
  0.9178852133097753  0.1622847472394681  0.1873321382605107   T   T   T
  0.6646577712506949  0.1714890813306662  0.1806051495900347   T   T   T
  0.6682227522561027  0.4151954811017722  0.1867718081962242   T   T   T
  0.1677097802469430  0.6635152889476547  0.1837493307140128   T   T   T
  0.9231750329398605  0.4065082049308890  0.1885841618977073   T   T   T
  0.6632605856393685  0.6701015288359028  0.1850782264433053   T   T   T
  0.9165638358680414  0.9180129955007496  0.1881152889400367   T   T   T
  0.6705292771122330  0.9228379796943817  0.1870849307660748   T   T   T
  0.1672128849283891  0.4163369580174310  0.1897133599155155   T   T   T
  0.9114858447078273  0.6693183683663699  0.1908075450998859   T   T   T
  0.2401274138434752 -0.0052804119415125  0.2544234138576550   T   T   T
  0.5098887725800048  0.2380379737054208  0.2489454310324380   T   T   T
  0.4891984924300325  0.4976523350651344  0.2490660019376811   T   T   T
  0.2560337699947142  0.2429457501192553  0.2552521591033322   T   T   T
  0.0090666994649912  0.2423830928396664  0.2557709738406969   T   T   T
  0.7438537224510918  0.2463195860773310  0.2508492018201771   T   T   T
  0.4933560384035142  0.7553780534747870  0.2533390635608495   T   T   T
  0.2469479041312330  0.7475359764088481  0.2495946941037054   T   T   T
  0.4997528187711479  0.9965210783747620  0.2507186475076061   T   T   T
  1.0052643367085061 -0.0109547887118480  0.2535145931555142   T   T   T
  0.2572240020150902  0.4895634940270568  0.2562405913953442   T   T   T
  0.7300425521245012  0.5130592748736513  0.2501148462764805   T   T   T
  0.7562501176326085 -0.0003505298123961  0.2591595765394065   T   T   T
  1.0222907439332105  0.7412672386953442  0.2532402626099339   T   T   T
  0.7586168208014548  0.7475426759261367  0.2585567864415734   T   T   T
 -0.0038719201191174  0.5020734403853625  0.2513736441382792   T   T   T
  0.2488099899999980  0.0018900000000031  0.0530725930000031   F   F   F
  0.4986599900000002  0.2520299800000032  0.0530725930000031   F   F   F
  0.4987100700000013  0.5019500100000016  0.0530725930000031   F   F   F
  0.2486699900000033  0.2519600099999977  0.0530725930000031   F   F   F
  0.9988300199999998  0.2520000100000033  0.0530725930000031   F   F   F
  0.7487000499999965  0.2521199999999979  0.0530725930000031   F   F   F
  0.4986899700000009  0.7520999700000033  0.0530725930000031   F   F   F
  0.2487699599999971  0.7521200300000004  0.0530725930000031   F   F   F
  0.4985999800000016  0.0021100000000018  0.0530725930000031   F   F   F
  0.9987700300000029  0.0022099999999980  0.0530725930000031   F   F   F
  0.2487500100000020  0.5021200300000004  0.0530725930000031   F   F   F
  0.7486699900000033  0.5022699800000012  0.0530725930000031   F   F   F
  0.7485900000000001  0.0024500000000032  0.0530725930000031   F   F   F
  0.9987000499999965  0.7524499700000007  0.0530725930000031   F   F   F
  0.7486699299999984  0.7524300299999993  0.0530725930000031   F   F   F
  0.9986899600000001  0.5022000199999965  0.0530725930000031   F   F   F
  0.8198573493616674  0.0886735513162192  0.5218802021985564   T   T   T
  0.3701383396005548  0.2587948010702080  0.6145251295722188   T   T   T
  0.7301177636745469  0.0469043463524324  0.3246795903273575   T   T   T
  0.9876565382631374  0.6616788137809857  0.4411245064802464   T   T   T
  0.4614352117947885  0.2570318583302355  0.3622039111837774   T   T   T
  0.8089040167852216  0.8606992982787014  0.5593678060125243   T   T   T
  0.4044380092346652  0.7538246339544624  0.3569733254534975   T   T   T
  0.7273150783628847  0.9199194464251587  0.4245242084558226   T   T   T
  0.7461129834113960  0.7473240836640069  0.3223681708856393   T   T   T
  0.1583785137802410  0.9689753213944046  0.4477208486023446   T   T   T
  0.9609589453019831  0.3397630439218798  0.4179292421959918   T   T   T
  0.1002285856222912  0.5804063110901375  0.5739646264027605   T   T   T
  0.0639692115685439  0.4240918289351444  0.5065157097425215   T   T   T
  0.4994099057153134  0.4812226318125425  0.4019458924187731   T   T   T
  0.3456613040587432  0.8693556316637823  0.5730661622146148   T   T   T
  0.2407498675924998  0.6730255663605311  0.4624080142943399   T   T   T
  0.4180981443990761  0.9796062766844994  0.4433905440271936   T   T   T
  0.5905548346219947  0.8166765608710397  0.5171055288671617   T   T   T
  0.7930242774527991  0.8456070773856500  0.6501616654827806   T   T   T
  0.3668247545628684  0.5760334767897498  0.5518145970015272   T   T   T
  0.4544348189294330  0.9545098042423553  0.6441415660974961   T   T   T
  0.0971743809430324  0.1160368286471509  0.5296868769906399   T   T   T
 -0.0360084055667270  1.0512273711603437  0.3679543510011095   T   T   T
  0.5305890887966633  0.2773482660927900  0.5501941506980718   T   T   T
  0.4127786342522280  0.2393167265821441  0.4752286486077555   T   T   T
  0.7155138956118019  0.1855266121356056  0.4418205078176078   T   T   T
  0.2785468019501664  0.1107097630177550  0.3609312295774729   T   T   T
  0.6958080196148788  0.4986342615641117  0.4676933746266975   T   T   T
  0.2470032158450670  0.4985776627652832  0.3176723536684996   T   T   T
 -0.0041792290177443  0.5416135648220950  0.3630527175622886   T   T   T
  0.9129585397398617  0.0991156121397042  0.5331466001797979   T   T   T
  0.8178786315252293  1.0018010215082140  0.5380765411916051   T   T   T
  0.4050559286292609  0.1528080909909854  0.6260757905799148   T   T   T
  0.2634412867480980  0.2914470571455181  0.6056062081656376   T   T   T
  0.6272730706655186  0.1420383100929627  0.3343706492538979   T   T   T
  0.8105432141571353  1.0553068944479389  0.3414315692311803   T   T   T
  1.0111378667744262  0.5830852526829962  0.4641572225195120   T   T   T
  0.8753709349512707  0.7592824586128010  0.4416797980461418   T   T   T
  0.4119410757962715  0.1917791168042511  0.3672834646325688   T   T   T
  0.3701668960773015  0.3501966371155669  0.3459107527326434   T   T   T
  0.8002087158335734  0.8477565076850069  0.5900874737325984   T   T   T
  0.7404145602064731  0.8357506467726572  0.5399293409466553   T   T   T
  0.6544735778963308  0.4218857771329166  0.3223563534987244   T   T   T
  0.3504560443449269  0.7904946940069051  0.3285477019868287   T   T   T
  0.7263810392070296  1.0239258483888303  0.4346154474480610   T   T   T
  0.6184012061681670  0.9449843569312931  0.4326239074113053   T   T   T
  0.7143801932532723  0.8582716626683208  0.3281021311214869   T   T   T
  0.5083443895497577  0.7356331137903023  0.3485647667530223   T   T   T
  0.2514002114288140  0.9740908946628282  0.4373465966248568   T   T   T
  0.1929644019786251  0.8547685313531911  0.4511751441282647   T   T   T
  0.9733432718189879  0.4110246190601938  0.4007389143275633   T   T   T
  1.0065997133122890  0.2396460491457517  0.4010888191339063   T   T   T
  0.2057879912297944  0.5785362080948315  0.5669255388591042   T   T   T
  1.0125234531654248  0.6843775227243444  0.5664320722528857   T   T   T
  1.0875264051190598  0.4809149466861641  0.5328347548232295   T   T   T
  0.1634690120368739  0.3464733915845581  0.4922235325039539   T   T   T
  0.4502108281139652  0.5753250890898206  0.3840852414134283   T   T   T
  0.4593570816913576  0.4148479314124014  0.3930645573667511   T   T   T
  0.2436883126578707  0.9495191185360006  0.5583481913507531   T   T   T
  0.3622241229205177  0.7688729293222136  0.5593521024078182   T   T   T
  0.3116695654157685  0.6274737765481395  0.4388214499007125   T   T   T
  0.1481299983708453  0.6601197539789858  0.4548505895627511   T   T   T
  0.3956434888868800  0.0826299755490025  0.4555315179205677   T   T   T
  0.4660372769320839  0.9222119808818002  0.4706128035473151   T   T   T
  0.6337720811189358  0.7143533531540220  0.5046673754099628   T   T   T
  0.5083628741452623  0.8416964441077697  0.5394498170486383   T   T   T
  0.6855075663611436 -0.1234055428519750  0.6442511615702443   T   T   T
  0.8473310221418620  0.7306065252951495  0.6601952904265490   T   T   T
  0.3580486050002215  0.5803263512916333  0.5194481421024146   T   T   T
  0.4432475003612530  0.4706626711846255  0.5607033962020047   T   T   T
  0.3791999819334722  0.9827329757772602  0.6663066560143539   T   T   T
  0.4260860095893744  0.9159478142809018  0.6169128861089282   T   T   T
  0.0806904098646534  0.2238353435885563  0.5288793685845111   T   T   T
  0.1010194662048198  0.0824244514014651  0.4997747910111359   T   T   T
  0.0477972409435195  1.0252909681706679  0.3457860798741767   T   T   T
  0.0283191772035707  0.9947130935177139  0.3930980939900294   T   T   T
  0.6487212830736251  0.2041791305957842  0.5462016898307406   T   T   T
  0.4943761950222651  0.2447433279674902  0.5759538030898692   T   T   T
  0.4882869601457427  0.2248490722186759  0.4530331302842475   T   T   T
  0.4718328042272752  0.2243066631324370  0.5026738096162326   T   T   T
  0.8044693903026700  0.1727352789613238  0.4255034025704729   T   T   T
  0.7522741931470973  0.1729379055595983  0.4714594615343912   T   T   T
  0.2358211748281221  0.1374247186415598  0.3318996367963278   T   T   T
  0.3061488299509212  0.0033458539451820  0.3666742995364483   T   T   T
  0.7899902871615985  0.4225123820668814  0.4516850033173698   T   T   T
  0.6114692707761806  0.5150587040307493  0.4464756444504152   T   T   T
  0.0982195736060943  0.5022925979027041  0.3511051802166096   T   T   T
  0.2561432429605284  0.5868362611440195  0.3259011749261623   T   T   T
 -0.1409912095571313  0.6691936356498810  0.3353380428984242   T   T   T
  0.9911981429155180  0.5860569905286828  0.3928688750358949   T   T   T
  0.7483060645865374  0.3807255839215543  0.3113901904129052   T   T   T
  0.8055023580206003  0.4450646820834270  0.3255202086047090   T   T   T
  0.8253346536967866  0.2578662783943585  0.3175973150129124   T   T   T
 
 -0.21528920E-03 -0.23115531E-03 -0.13782863E-02
  0.50444126E-02  0.19661264E-02  0.32464795E-02
  0.28344180E-02  0.25718400E-03 -0.21823766E-02
  0.33316826E-02  0.31727310E-02 -0.23829618E-02
  0.27585476E-02 -0.15416764E-02 -0.24714326E-02
  0.15632106E-02 -0.54175590E-02  0.70268484E-03
  0.13060652E-02 -0.14357370E-02 -0.10565359E-02
  0.34783763E-03 -0.34880543E-02  0.14948860E-02
  0.31966048E-02 -0.15895757E-02  0.92432430E-03
 -0.78569802E-03 -0.10111609E-02 -0.14818558E-02
  0.10452232E-02 -0.16969970E-02  0.69227634E-03
 -0.12019273E-02  0.29258586E-02  0.28260642E-03
  0.26314746E-04 -0.21037272E-02 -0.36521037E-03
  0.37229973E-02 -0.34340596E-03  0.88576923E-03
 -0.10154697E-02 -0.18030974E-02  0.33588681E-03
  0.17778128E-02  0.32798232E-02 -0.20225563E-02
  0.33817023E-02  0.53759665E-03  0.30070982E-02
  0.23077368E-02 -0.15644157E-03 -0.13012805E-02
  0.33723466E-02 -0.17100829E-02  0.12063741E-02
 -0.42631207E-03 -0.86918677E-03 -0.94723410E-03
  0.17045946E-03  0.19521744E-03 -0.50095748E-03
  0.39929193E-02  0.24629274E-02 -0.11525345E-02
 -0.92513116E-03  0.33587864E-03  0.30857634E-03
 -0.21622220E-02 -0.40853511E-04  0.14664041E-02
  0.10488927E-02 -0.61363702E-03 -0.38840693E-02
  0.89887219E-03 -0.68507647E-03 -0.31149200E-04
  0.27379598E-02  0.41568998E-02 -0.16497620E-02
 -0.44875685E-03  0.20596593E-03  0.52446561E-03
 -0.11687559E-02 -0.33840823E-02 -0.12883354E-03
  0.10345831E-02  0.24149430E-03  0.19361407E-03
 -0.13458159E-02  0.34448470E-02  0.30766366E-02
  0.31825139E-02  0.19830064E-02 -0.32097282E-03
  0.15136693E-03 -0.17642923E-02  0.28233152E-02
 -0.42181451E-02  0.36720931E-03  0.15910048E-02
 -0.51838515E-03  0.24193049E-02 -0.25856684E-02
 -0.25247626E-02  0.86607080E-03  0.70388880E-03
 -0.10454915E-02 -0.44407254E-02  0.10190252E-02
  0.26597801E-02 -0.20188281E-02  0.14587388E-02
 -0.18647342E-02  0.33539878E-02 -0.22445715E-02
 -0.18414975E-03 -0.85845747E-03  0.19795670E-02
 -0.79085975E-03 -0.90150809E-03  0.97473162E-03
 -0.24662985E-02 -0.20691517E-02  0.30128734E-03
  0.39291141E-03 -0.55581269E-03 -0.96804201E-03
 -0.24442016E-02  0.21118743E-02  0.72402716E-03
 -0.11150275E-02  0.26971200E-02 -0.11036999E-02
 -0.15763415E-02 -0.17809834E-02 -0.54663423E-03
  0.26940089E-02  0.30449300E-02 -0.81826230E-03
 -0.25876175E-05 -0.47528175E-02 -0.73295159E-03
  0.00000000E+00  0.00000000E+00  0.00000000E+00
  0.00000000E+00  0.00000000E+00  0.00000000E+00
  0.00000000E+00  0.00000000E+00  0.00000000E+00
  0.00000000E+00  0.00000000E+00  0.00000000E+00
  0.00000000E+00  0.00000000E+00  0.00000000E+00
  0.00000000E+00  0.00000000E+00  0.00000000E+00
  0.00000000E+00  0.00000000E+00  0.00000000E+00
  0.00000000E+00  0.00000000E+00  0.00000000E+00
  0.00000000E+00  0.00000000E+00  0.00000000E+00
  0.00000000E+00  0.00000000E+00  0.00000000E+00
  0.00000000E+00  0.00000000E+00  0.00000000E+00
  0.00000000E+00  0.00000000E+00  0.00000000E+00
  0.00000000E+00  0.00000000E+00  0.00000000E+00
  0.00000000E+00  0.00000000E+00  0.00000000E+00
  0.00000000E+00  0.00000000E+00  0.00000000E+00
  0.00000000E+00  0.00000000E+00  0.00000000E+00
  0.37168031E-02  0.21667776E-02  0.24394709E-02
 -0.88391701E-03  0.67357154E-02 -0.12462470E-03
 -0.72702968E-03  0.59259324E-02 -0.15303947E-02
 -0.20198315E-02 -0.24492274E-02 -0.11433491E-02
 -0.37207096E-03 -0.31766274E-02  0.75567779E-02
 -0.18056826E-02 -0.71764491E-02  0.15511327E-02
  0.94298775E-02  0.13729033E-02 -0.19773418E-02
 -0.21697009E-02  0.13499546E-02  0.56418653E-02
  0.81718938E-02  0.57003461E-03  0.26488492E-02
  0.56024620E-02  0.91932085E-02 -0.18613269E-02
  0.26809791E-02 -0.10301601E-01  0.49801523E-02
  0.55255363E-03 -0.86542945E-03 -0.80217669E-03
  0.27085063E-03  0.12263980E-02 -0.10261613E-02
 -0.30076114E-02  0.12522308E-02  0.59221078E-02
 -0.13117421E-02  0.85962578E-02  0.84010338E-03
  0.39162641E-02  0.25194463E-02 -0.93947431E-03
  0.69475877E-02  0.46596560E-02 -0.26800648E-02
  0.45351968E-02  0.95933214E-03 -0.62555808E-02
  0.15857536E-02 -0.58370636E-02 -0.20048461E-02
 -0.79874791E-02  0.20465519E-02 -0.80486951E-03
 -0.61021674E-03  0.47097505E-02  0.86297543E-03
  0.36063931E-02  0.22694698E-02  0.66606392E-02
  0.23661259E-02 -0.29848119E-03  0.14040559E-02
 -0.39995533E-02  0.29910592E-02 -0.35742857E-03
  0.37087982E-02 -0.67872345E-02 -0.54691470E-03
 -0.25134268E-02  0.88963862E-04  0.40793378E-02
  0.68466137E-02 -0.38307885E-02  0.36217486E-02
  0.13051943E-02  0.33053471E-03 -0.28401111E-02
  0.42546876E-02  0.94735436E-02  0.41994628E-02
  0.92178121E-03  0.40977493E-02  0.23363501E-02
 -0.25807866E-01 -0.22672567E-01 -0.11325764E-01
 -0.40844692E-02  0.24252922E-02 -0.20675799E-01
  0.30131508E-02 -0.72725716E-02 -0.14608801E-01
  0.40326521E-01  0.34502361E-02 -0.22953626E-01
  0.10818483E-01 -0.27306092E-01  0.20374216E-01
 -0.22474016E-01 -0.34712029E-01  0.23728264E-01
 -0.18835455E-01 -0.18534616E-01  0.20706046E-01
 -0.11401284E-01  0.14680432E-01  0.11312867E-02
 -0.67389298E-02 -0.34278733E-02  0.19703046E-01
 -0.12627066E-01  0.41530036E-02 -0.16219207E-01
 -0.97233376E-03 -0.86088460E-02  0.49825191E-02
  0.11477715E-01  0.43964742E-02  0.28971545E-01
  0.79951672E-02  0.25538245E-02  0.11970727E-01
 -0.79708723E-02  0.12066560E-01 -0.14998434E-01
 -0.29544201E-01 -0.16327030E-01  0.50985139E-02
 -0.59736584E-02 -0.15561403E-01  0.22023506E-01
  0.22539601E-01  0.91607807E-02  0.38916883E-02
 -0.20992198E-01  0.14972890E-01  0.75663430E-02
  0.34349039E-02  0.21174343E-01  0.13198493E-01
 -0.12426860E-01  0.23064559E-01 -0.10560644E-01
  0.63947643E-02  0.89325300E-02 -0.96516753E-02
  0.15361220E-01 -0.80541823E-02  0.22376453E-01
  0.19272397E-01  0.32132561E-01  0.83632938E-03
  0.37570557E-04  0.59523857E-02 -0.17702259E-02
  0.31185169E-01  0.11518752E-01 -0.18746534E-01
  0.83361558E-02 -0.19668818E-02  0.13377161E-01
 -0.15090815E-01  0.95739352E-02  0.29575123E-01
  0.20948957E-01 -0.30746170E-01 -0.27381420E-01
 -0.82004844E-02  0.11719219E-01  0.19585380E-02
 -0.24410629E-01  0.23023940E-01  0.62001534E-02
  0.11770816E-01 -0.18133327E-01 -0.25128437E-01
 -0.40202228E-02 -0.12795750E-01  0.11175870E-01
  0.75009076E-02  0.10518501E-01 -0.16266550E-01
  0.20616108E-02  0.31063574E-03 -0.46468673E-01
 -0.38774009E-01 -0.12757487E-01 -0.53209649E-02
  0.30173332E-01 -0.80033162E-02  0.34803987E-01
 -0.98455681E-02  0.15343817E-01  0.20450861E-01
 -0.98872691E-02  0.24632526E-01 -0.13171746E-01
  0.77020216E-02  0.14411529E-01  0.10636494E-01
  0.39987883E-01 -0.19204517E-01 -0.50010721E-02
 -0.27804309E-02 -0.80979609E-02 -0.24206543E-02
 -0.76539776E-02  0.25219925E-01 -0.44996983E-02
  0.74048210E-02  0.70392176E-02 -0.76446933E-02
 -0.30520325E-01  0.56426551E-02 -0.22162263E-02
 -0.13656644E-01  0.25132949E-02  0.78965138E-02
 -0.58881423E-02 -0.56488773E-02 -0.13060530E-01
 -0.74657729E-02  0.20460040E-01 -0.48104947E-02
  0.26051230E-01 -0.78069984E-02  0.33961073E-01
  0.18561146E-01 -0.13151968E-02 -0.15001728E-01
 -0.45208040E-02  0.16297524E-01 -0.12154362E-01
  0.97859052E-02  0.19831099E-01 -0.36303244E-02
 -0.18079473E-01  0.22189554E-02  0.16105515E-01
  0.42454931E-02  0.20425972E-01  0.23611914E-02
  0.17685718E-01 -0.16519046E-01  0.74362413E-02
 -0.92690923E-02  0.15048917E-01 -0.87768285E-02
  0.12163516E-01 -0.13890948E-01 -0.22758097E-01
 -0.15601623E-01 -0.27123504E-01 -0.75729841E-02
 -0.34560881E-02 -0.41325704E-02  0.21484805E-01
 -0.33581507E-01  0.23800272E-01 -0.50249423E-02
 -0.22144671E-01 -0.11374267E-01  0.12065208E-01
 -0.93469977E-03  0.61425119E-02 -0.80561659E-02
 -0.65902115E-02 -0.55059419E-01  0.44548708E-02
  0.24310346E-01 -0.24174608E-01 -0.99608455E-02
 
           1
   1.00000000000000     
  0.33184684E-01 -0.53582936E-03 -0.17222785E-02  0.34313738E-01
  0.90929525E-01  0.89135218E-01  0.12214707E+00
  0.35075266E+00  0.77239043E-01  0.12062218E+00
  0.33008041E+00  0.83947017E+00  0.12036227E+00
  0.58139670E+00  0.34143006E+00  0.12042656E+00
  0.33191931E+00  0.58340945E+00  0.12269429E+00
  0.33796700E+00  0.33131692E+00  0.12364621E+00
  0.82825701E+00  0.98555924E-01  0.11681831E+00
  0.58956964E+00  0.78796638E-01  0.11752314E+00
  0.82904152E+00  0.33586643E+00  0.11751788E+00
  0.57485350E+00  0.58547293E+00  0.12117844E+00
  0.78603839E-01  0.85179643E+00  0.11989317E+00
  0.58313930E+00  0.82827749E+00  0.11962811E+00
  0.84133538E-01  0.34013846E+00  0.12184197E+00
  0.83995179E+00  0.57673684E+00  0.12378821E+00
  0.88216585E-01  0.58889497E+00  0.11982081E+00
  0.83291017E+00  0.83401422E+00  0.12177603E+00
  0.16476300E+00  0.16473024E+00  0.19046472E+00
  0.16165260E+00  0.92130672E+00  0.18399116E+00
  0.41941831E+00  0.15869981E+00  0.18665355E+00
  0.41429333E+00  0.91416713E+00  0.18472329E+00
  0.41463803E+00  0.41061159E+00  0.18843419E+00
  0.41680034E+00  0.66827277E+00  0.18721286E+00
  0.91777136E+00  0.16232421E+00  0.18734218E+00
  0.66444019E+00  0.17148428E+00  0.18065289E+00
  0.66836551E+00  0.41512339E+00  0.18664535E+00
  0.16784147E+00  0.66343481E+00  0.18374832E+00
  0.92320942E+00  0.40699654E+00  0.18853045E+00
  0.66320283E+00  0.67012573E+00  0.18509530E+00
  0.91664370E+00  0.91761545E+00  0.18811109E+00
  0.67062035E+00  0.92286635E+00  0.18709123E+00
  0.16687362E+00  0.41674165E+00  0.18981353E+00
  0.91169315E+00  0.66955133E+00  0.19079709E+00
  0.24024645E+00  0.99451233E+00  0.25451533E+00
  0.50943806E+00  0.23808111E+00  0.24899723E+00
  0.48900365E+00  0.49793655E+00  0.24898182E+00
  0.25572603E+00  0.24304749E+00  0.25527508E+00
  0.92211741E-02  0.24186141E+00  0.25580415E+00
  0.74424290E+00  0.24608242E+00  0.25089669E+00
  0.49296932E+00  0.75577207E+00  0.25326599E+00
  0.24697959E+00  0.74743513E+00  0.24965914E+00
  0.49972531E+00  0.99641517E+00  0.25075038E+00
  0.51349596E-02  0.98880213E+00  0.25352440E+00
  0.25729662E+00  0.48949820E+00  0.25620907E+00
  0.72966984E+00  0.51330737E+00  0.25013842E+00
  0.75597825E+00  0.99996632E+00  0.25912364E+00
  0.22234983E-01  0.74105801E+00  0.25322247E+00
  0.75871205E+00  0.74790038E+00  0.25853015E+00
  0.99640699E+00  0.50151510E+00  0.25134978E+00
  0.24880999E+00  0.18900000E-02  0.53072593E-01
  0.49865999E+00  0.25202998E+00  0.53072593E-01
  0.49871007E+00  0.50195001E+00  0.53072593E-01
  0.24866999E+00  0.25196001E+00  0.53072593E-01
  0.99883002E+00  0.25200001E+00  0.53072593E-01
  0.74870005E+00  0.25212000E+00  0.53072593E-01
  0.49868997E+00  0.75209997E+00  0.53072593E-01
  0.24876996E+00  0.75212003E+00  0.53072593E-01
  0.49859998E+00  0.21100000E-02  0.53072593E-01
  0.99877003E+00  0.22100000E-02  0.53072593E-01
  0.24875001E+00  0.50212003E+00  0.53072593E-01
  0.74866999E+00  0.50226998E+00  0.53072593E-01
  0.74859000E+00  0.24500000E-02  0.53072593E-01
  0.99870005E+00  0.75244997E+00  0.53072593E-01
  0.74866993E+00  0.75243003E+00  0.53072593E-01
  0.99868996E+00  0.50220002E+00  0.53072593E-01
  0.82010822E+00  0.88928097E-01  0.52195963E+00
  0.36965277E+00  0.25958609E+00  0.61452107E+00
  0.72969572E+00  0.47600504E-01  0.32462976E+00
  0.98759491E+00  0.66139109E+00  0.44108728E+00
  0.46158395E+00  0.25665868E+00  0.36244994E+00
  0.80914184E+00  0.85985623E+00  0.55941831E+00
  0.40531674E+00  0.75398592E+00  0.35690895E+00
  0.72701504E+00  0.92007803E+00  0.42470789E+00
  0.74691089E+00  0.74739105E+00  0.32245441E+00
  0.15840850E+00  0.97005531E+00  0.44766025E+00
  0.96183680E+00  0.33855285E+00  0.41809138E+00
  0.10033563E+00  0.58030464E+00  0.57393851E+00
  0.63924731E-01  0.42423590E+00  0.50648230E+00
  0.49903036E+00  0.48136974E+00  0.40213870E+00
  0.34502292E+00  0.87036549E+00  0.57309351E+00
  0.24100031E+00  0.67332154E+00  0.46237743E+00
  0.41853128E+00  0.98015368E+00  0.44330329E+00
  0.59095989E+00  0.81678926E+00  0.51690186E+00
  0.79352847E+00  0.84492136E+00  0.65009639E+00
  0.36589192E+00  0.57627390E+00  0.55178839E+00
  0.45409609E+00  0.95506309E+00  0.64416966E+00
  0.97407982E-01  0.11630344E+00  0.52990373E+00
  0.96424985E+00  0.51192307E-01  0.36800006E+00
  0.53000649E+00  0.27769965E+00  0.55018251E+00
  0.41355463E+00  0.23851939E+00  0.47521084E+00
  0.71525296E+00  0.18553706E+00  0.44195332E+00
  0.27946837E+00  0.11025974E+00  0.36104915E+00
  0.69592139E+00  0.49867309E+00  0.46760091E+00
  0.24687962E+00  0.49969058E+00  0.31780908E+00
  0.99567386E+00  0.54209495E+00  0.36312878E+00
  0.91166465E+00  0.96452117E-01  0.53277786E+00
  0.81732063E+00  0.20859365E-02  0.53740339E+00
  0.40578966E+00  0.15195373E+00  0.62560016E+00
  0.26734135E+00  0.29185238E+00  0.60485889E+00
  0.62997763E+00  0.13883048E+00  0.33503398E+00
  0.81029568E+00  0.51229045E-01  0.34220410E+00
  0.10310283E-01  0.58090787E+00  0.46483136E+00
  0.87334869E+00  0.76100707E+00  0.44171663E+00
  0.41145682E+00  0.19137642E+00  0.36792495E+00
  0.36863831E+00  0.35068452E+00  0.34538269E+00
  0.80061546E+00  0.84674517E+00  0.59024969E+00
  0.74132404E+00  0.83626713E+00  0.54087258E+00
  0.65513698E+00  0.42218579E+00  0.32274609E+00
  0.34893634E+00  0.79191223E+00  0.32805939E+00
  0.72433430E+00  0.22007805E-01  0.43478144E+00
  0.61870751E+00  0.94315626E+00  0.43334094E+00
  0.71613523E+00  0.85934784E+00  0.32822884E+00
  0.50532921E+00  0.73739208E+00  0.34881111E+00
  0.25050593E+00  0.97657838E+00  0.43777631E+00
  0.19034535E+00  0.85747808E+00  0.45083131E+00
  0.97346918E+00  0.41207398E+00  0.40042468E+00
  0.86356170E-02  0.23869987E+00  0.40181734E+00
  0.20586131E+00  0.58231103E+00  0.56695277E+00
  0.12177643E-01  0.68507679E+00  0.56637444E+00
  0.90022520E-01  0.48226813E+00  0.53222441E+00
  0.16443264E+00  0.34624233E+00  0.49265906E+00
  0.44811317E+00  0.57644980E+00  0.38504814E+00
  0.46329436E+00  0.41123598E+00  0.39217308E+00
  0.24216565E+00  0.95089585E+00  0.55841196E+00
  0.35838826E+00  0.77157770E+00  0.55955396E+00
  0.31393222E+00  0.62534354E+00  0.43800333E+00
  0.14847259E+00  0.65861655E+00  0.45521445E+00
  0.39578878E+00  0.83865653E-01  0.45500192E+00
  0.46622877E+00  0.92224847E+00  0.46909990E+00
  0.63057666E+00  0.71285465E+00  0.50449414E+00
  0.51190274E+00  0.84075624E+00  0.54058295E+00
  0.68360463E+00  0.87839700E+00  0.64491699E+00
  0.84487824E+00  0.73350027E+00  0.65976645E+00
  0.35798568E+00  0.58201937E+00  0.51979444E+00
  0.44844382E+00  0.46840659E+00  0.56054057E+00
  0.37939277E+00  0.98178166E+00  0.66622785E+00
  0.42382594E+00  0.91891056E+00  0.61676639E+00
  0.81030288E-01  0.22466229E+00  0.52863048E+00
  0.97582959E-01  0.83087331E-01  0.49970264E+00
  0.46260219E-01  0.25586221E-01  0.34604317E+00
  0.28051937E-01  0.99404948E+00  0.39267287E+00
  0.64675995E+00  0.20658271E+00  0.54604507E+00
  0.49748516E+00  0.24382619E+00  0.57705949E+00
  0.49025258E+00  0.22469457E+00  0.45254471E+00
  0.47041558E+00  0.22622124E+00  0.50227809E+00
  0.80430014E+00  0.17506497E+00  0.42538521E+00
  0.75030449E+00  0.17319858E+00  0.47198382E+00
  0.23505332E+00  0.13982429E+00  0.33197651E+00
  0.30891843E+00  0.14052534E-02  0.36691641E+00
  0.78816332E+00  0.42428028E+00  0.45139925E+00
  0.61352269E+00  0.51342684E+00  0.44573470E+00
  0.98225489E-01  0.49910622E+00  0.35085862E+00
  0.25603437E+00  0.58635078E+00  0.32660067E+00
  0.85419430E+00  0.67198961E+00  0.33517444E+00
  0.98961330E+00  0.58472078E+00  0.39326169E+00
  0.74785017E+00  0.38144719E+00  0.31112790E+00
  0.80806598E+00  0.43859649E+00  0.32566525E+00
  0.82922791E+00  0.25502633E+00  0.31727301E+00
  0.00000000E+00  0.00000000E+00  0.00000000E+00
  0.00000000E+00  0.00000000E+00  0.00000000E+00
  0.00000000E+00  0.00000000E+00  0.00000000E+00
  0.00000000E+00  0.00000000E+00  0.00000000E+00
  0.00000000E+00  0.00000000E+00  0.00000000E+00
  0.00000000E+00  0.00000000E+00  0.00000000E+00
  0.00000000E+00  0.00000000E+00  0.00000000E+00
  0.00000000E+00  0.00000000E+00  0.00000000E+00
  0.00000000E+00  0.00000000E+00  0.00000000E+00
  0.00000000E+00  0.00000000E+00  0.00000000E+00
  0.00000000E+00  0.00000000E+00  0.00000000E+00
  0.00000000E+00  0.00000000E+00  0.00000000E+00
  0.00000000E+00  0.00000000E+00  0.00000000E+00
  0.00000000E+00  0.00000000E+00  0.00000000E+00
  0.00000000E+00  0.00000000E+00  0.00000000E+00
  0.00000000E+00  0.00000000E+00  0.00000000E+00
  0.00000000E+00  0.00000000E+00  0.00000000E+00
  0.00000000E+00  0.00000000E+00  0.00000000E+00
  0.00000000E+00  0.00000000E+00  0.00000000E+00
  0.00000000E+00  0.00000000E+00  0.00000000E+00
  0.00000000E+00  0.00000000E+00  0.00000000E+00
  0.00000000E+00  0.00000000E+00  0.00000000E+00
  0.00000000E+00  0.00000000E+00  0.00000000E+00
  0.00000000E+00  0.00000000E+00  0.00000000E+00
  0.00000000E+00  0.00000000E+00  0.00000000E+00
  0.00000000E+00  0.00000000E+00  0.00000000E+00
  0.00000000E+00  0.00000000E+00  0.00000000E+00
  0.00000000E+00  0.00000000E+00  0.00000000E+00
  0.00000000E+00  0.00000000E+00  0.00000000E+00
  0.00000000E+00  0.00000000E+00  0.00000000E+00
  0.00000000E+00  0.00000000E+00  0.00000000E+00
  0.00000000E+00  0.00000000E+00  0.00000000E+00
  0.00000000E+00  0.00000000E+00  0.00000000E+00
  0.00000000E+00  0.00000000E+00  0.00000000E+00
  0.00000000E+00  0.00000000E+00  0.00000000E+00
  0.00000000E+00  0.00000000E+00  0.00000000E+00
  0.00000000E+00  0.00000000E+00  0.00000000E+00
  0.00000000E+00  0.00000000E+00  0.00000000E+00
  0.00000000E+00  0.00000000E+00  0.00000000E+00
  0.00000000E+00  0.00000000E+00  0.00000000E+00
  0.00000000E+00  0.00000000E+00  0.00000000E+00
  0.00000000E+00  0.00000000E+00  0.00000000E+00
  0.00000000E+00  0.00000000E+00  0.00000000E+00
  0.00000000E+00  0.00000000E+00  0.00000000E+00
  0.00000000E+00  0.00000000E+00  0.00000000E+00
  0.00000000E+00  0.00000000E+00  0.00000000E+00
  0.00000000E+00  0.00000000E+00  0.00000000E+00
  0.00000000E+00  0.00000000E+00  0.00000000E+00
  0.00000000E+00  0.00000000E+00  0.00000000E+00
  0.00000000E+00  0.00000000E+00  0.00000000E+00
  0.00000000E+00  0.00000000E+00  0.00000000E+00
  0.00000000E+00  0.00000000E+00  0.00000000E+00
  0.00000000E+00  0.00000000E+00  0.00000000E+00
  0.00000000E+00  0.00000000E+00  0.00000000E+00