Ni_CO2CH3
   1.00000000000000     
     9.8291997910000006    0.0000000000000000    0.0000000000000000
     4.9145998955000003    8.5123367178000002    0.0000000000000000
     0.0000000000000000    0.0000000000000000   19.0128002167000005
   Ni   O    C    H 
    64     2     2     3
Selective dynamics
Direct
      0.8369341841978833      0.5912830331012457      0.2704047470802884   T T T
      0.3361509039281736      0.0916239511318321      0.2704917480788335   T T T
      0.8371656851261794      0.0917528735300559      0.2711125245349884   T T T
      0.3369750698202277      0.5912375276349088      0.2705879545385951   T T T
      0.5864726295236743      0.8416844750842961      0.2703522187194128   T T T
      0.8367370073352116      0.8417315453426396      0.2697946012735772   T T T
      0.0869097833522373      0.3410895336580698      0.2711927447495829   T T T
      0.8371450610297096      0.3407968501311010      0.2714284372674805   T T T
      0.5865483199242544      0.5911289039084380      0.2705971244047100   T T T
      0.0865093817770305      0.5913823502766098      0.2705460405634750   T T T
      0.0867150006670827      0.0913899801445230      0.2712673196430416   T T T
      0.5864382504413155      0.0919250819625947      0.2709189127335225   T T T
      0.3366775933313600      0.8413579146286455      0.2703396778602378   T T T
      0.0866932410546790      0.8413686467410444      0.2702943134751039   T T T
      0.3367949041746499      0.3411845447052822      0.2703134761702491   T T T
      0.5866258849898568      0.3413280267018737      0.2711078953759420   T T T
      0.9203288755316497      0.6738138007721337      0.3761425902248022   T T T
      0.9209396777892752      0.4243874610909660      0.3767967897616343   T T T
      0.6700972317139552      0.6744087932304715      0.3751431149443393   T T T
      0.1690454493303072      0.1749681956673551      0.3770751056779745   T T T
      0.9202440134690897      0.1757964729609781      0.3787016674485288   T T T
      0.9204862347853655      0.9242057285207416      0.3755167119514033   T T T
      0.4198420035935722      0.9246746835459536      0.3756472216871370   T T T
      0.4205356947388970      0.1751694515764628      0.3767197855158632   T T T
      0.6706384180883400      0.1745856015092075      0.3765310176502898   T T T
      0.1700952361252236      0.6740464411976178      0.3755083451766079   T T T
      0.4210563615356482      0.6724675547233683      0.3770283389424655   T T T
      0.4202390884878310      0.4240609131967114      0.3764145907576628   T T T
      0.6701662102976357      0.9242278344938999      0.3753311514356190   T T T
      0.1693797650063710      0.4244493734555990      0.3760855801100657   T T T
      0.6704319230576488      0.4240027159692155      0.3763438220672429   T T T
      0.1701448502052521      0.9240924399615309      0.3758338989888004   T T T
      0.0046115406791834      0.2551789556377772      0.4872533392660006   T T T
      0.5040038272519927      0.2551192685708096      0.4844516203877927   T T T
      0.0045369080219440      0.7561345781569483      0.4815826372286113   T T T
      0.5037301079143420      0.7580261561142234      0.4813787853039025   T T T
      0.7534826935537836      0.7576314377784921      0.4811192414139196   T T T
      0.0043249813628958      0.5064272601052361      0.4867197759336336   T T T
      0.7515128942706991      0.5118428022088309      0.4794885209638838   T T T
      0.2559369573698290      0.0043311157245990      0.4811685237825333   T T T
      0.0053084781103960      0.0040233840727291      0.4813955150181117   T T T
      0.5047001427375999      0.0056403480114741      0.4814719542798550   T T T
      0.2539517150956030      0.7569396594236240      0.4815143029286625   T T T
      0.7564834158594625      0.0021166703388790      0.4803131102811727   T T T
      0.2572325577832573      0.2554147577649340      0.4806645774212913   T T T
      0.7542577355360826      0.2551397388961112      0.4837996985425082   T T T
      0.2512910835129045      0.5088490254010041      0.4803662765468113   T T T
      0.5030741710371092      0.5081438359315886      0.4846228864816932   T T T
      0.0037974419193907      0.2580860168003877      0.1653988121714274   F F F
      0.5040842630303355      0.2581845634193647      0.1649605811348837   F F F
      0.0044036942045864      0.7577930027472467      0.1645147869757216   F F F
      0.5041589424781436      0.7577773784286531      0.1647113378807166   F F F
      0.7541185201946357      0.7577871544676137      0.1645943396201272   F F F
      0.0042006343104699      0.5076650655064306      0.1648995115531004   F F F
      0.7541744362539284      0.5078194014835455      0.1649113971432390   F F F
      0.2538734936437206      0.0080884482902238      0.1647651557688975   F F F
      0.0039078179224540      0.0081658425069077      0.1651393531170015   F F F
      0.5041361423305831      0.0080718447613987      0.1648866669641359   F F F
      0.2541442000386798      0.7578557812455992      0.1646470505237317   F F F
      0.7537554788117167      0.0084642107505430      0.1647914391341119   F F F
      0.2538330415923973      0.2581697180765839      0.1649115189150952   F F F
      0.7540475384848330      0.2581312105028286      0.1653879409074732   F F F
      0.2539265637324724      0.5079984986705177      0.1646592838571420   F F F
      0.5041298928385615      0.5079565780468347      0.1649034244327982   F F F
      0.0188197342828359      0.5242200805449535      0.6269474869327144   T T T
      0.0016913909045423      0.3121961782075246      0.5865301276024227   T T T
      0.0099488084307574      0.4382542217464384      0.5833555866499261   T T T
      0.5887533340634616      0.3386326567089807      0.5644181313468810   T T T
      0.5274706065398719      0.4597140173548885      0.5874515844639540   T T T
      0.5291481590801110      0.2769354684293804      0.5873266497600567   T T T
      0.7105165233848423      0.2785267506105139      0.5868407635545720   T T T
 
  0.00000000E+00  0.00000000E+00  0.00000000E+00
  0.00000000E+00  0.00000000E+00  0.00000000E+00
  0.00000000E+00  0.00000000E+00  0.00000000E+00
  0.00000000E+00  0.00000000E+00  0.00000000E+00
  0.00000000E+00  0.00000000E+00  0.00000000E+00
  0.00000000E+00  0.00000000E+00  0.00000000E+00
  0.00000000E+00  0.00000000E+00  0.00000000E+00
  0.00000000E+00  0.00000000E+00  0.00000000E+00
  0.00000000E+00  0.00000000E+00  0.00000000E+00
  0.00000000E+00  0.00000000E+00  0.00000000E+00
  0.00000000E+00  0.00000000E+00  0.00000000E+00
  0.00000000E+00  0.00000000E+00  0.00000000E+00
  0.00000000E+00  0.00000000E+00  0.00000000E+00
  0.00000000E+00  0.00000000E+00  0.00000000E+00
  0.00000000E+00  0.00000000E+00  0.00000000E+00
  0.00000000E+00  0.00000000E+00  0.00000000E+00
  0.00000000E+00  0.00000000E+00  0.00000000E+00
  0.00000000E+00  0.00000000E+00  0.00000000E+00
  0.00000000E+00  0.00000000E+00  0.00000000E+00
  0.00000000E+00  0.00000000E+00  0.00000000E+00
  0.00000000E+00  0.00000000E+00  0.00000000E+00
  0.00000000E+00  0.00000000E+00  0.00000000E+00
  0.00000000E+00  0.00000000E+00  0.00000000E+00
  0.00000000E+00  0.00000000E+00  0.00000000E+00
  0.00000000E+00  0.00000000E+00  0.00000000E+00
  0.00000000E+00  0.00000000E+00  0.00000000E+00
  0.00000000E+00  0.00000000E+00  0.00000000E+00
  0.00000000E+00  0.00000000E+00  0.00000000E+00
  0.00000000E+00  0.00000000E+00  0.00000000E+00
  0.00000000E+00  0.00000000E+00  0.00000000E+00
  0.00000000E+00  0.00000000E+00  0.00000000E+00
  0.00000000E+00  0.00000000E+00  0.00000000E+00
  0.00000000E+00  0.00000000E+00  0.00000000E+00
  0.00000000E+00  0.00000000E+00  0.00000000E+00
  0.00000000E+00  0.00000000E+00  0.00000000E+00
  0.00000000E+00  0.00000000E+00  0.00000000E+00
  0.00000000E+00  0.00000000E+00  0.00000000E+00
  0.00000000E+00  0.00000000E+00  0.00000000E+00
  0.00000000E+00  0.00000000E+00  0.00000000E+00
  0.00000000E+00  0.00000000E+00  0.00000000E+00
  0.00000000E+00  0.00000000E+00  0.00000000E+00
  0.00000000E+00  0.00000000E+00  0.00000000E+00
  0.00000000E+00  0.00000000E+00  0.00000000E+00
  0.00000000E+00  0.00000000E+00  0.00000000E+00
  0.00000000E+00  0.00000000E+00  0.00000000E+00
  0.00000000E+00  0.00000000E+00  0.00000000E+00
  0.00000000E+00  0.00000000E+00  0.00000000E+00
  0.00000000E+00  0.00000000E+00  0.00000000E+00
  0.00000000E+00  0.00000000E+00  0.00000000E+00
  0.00000000E+00  0.00000000E+00  0.00000000E+00
  0.00000000E+00  0.00000000E+00  0.00000000E+00
  0.00000000E+00  0.00000000E+00  0.00000000E+00
  0.00000000E+00  0.00000000E+00  0.00000000E+00
  0.00000000E+00  0.00000000E+00  0.00000000E+00
  0.00000000E+00  0.00000000E+00  0.00000000E+00
  0.00000000E+00  0.00000000E+00  0.00000000E+00
  0.00000000E+00  0.00000000E+00  0.00000000E+00
  0.00000000E+00  0.00000000E+00  0.00000000E+00
  0.00000000E+00  0.00000000E+00  0.00000000E+00
  0.00000000E+00  0.00000000E+00  0.00000000E+00
  0.00000000E+00  0.00000000E+00  0.00000000E+00
  0.00000000E+00  0.00000000E+00  0.00000000E+00
  0.00000000E+00  0.00000000E+00  0.00000000E+00
  0.00000000E+00  0.00000000E+00  0.00000000E+00
  0.00000000E+00  0.00000000E+00  0.00000000E+00
  0.00000000E+00  0.00000000E+00  0.00000000E+00
  0.00000000E+00  0.00000000E+00  0.00000000E+00
  0.00000000E+00  0.00000000E+00  0.00000000E+00
  0.00000000E+00  0.00000000E+00  0.00000000E+00
  0.00000000E+00  0.00000000E+00  0.00000000E+00
  0.00000000E+00  0.00000000E+00  0.00000000E+00
