 Ni\(1\1\1)                             
   1.00000000000000     
     9.8291997910000006    0.0000000000000000    0.0000000000000000
     4.9145998955000003    8.5123367178000002    0.0000000000000000
     0.0000000000000000    0.0000000000000000   33.0128002167000005
   Ni   O    O    H    C    O    H 
    64     3    30    60     1     1     1
Selective dynamics
Direct
  0.8375898185232350  0.5864952636840235  0.1229737292541559   T   T   T
  0.3411821373492609  0.0825012577168158  0.1223915653283974   T   T   T
  0.8412888020197141  0.0712969635925316  0.1200381037585863   T   T   T
  0.3443186196440770  0.5739607728093464  0.1213318136457307   T   T   T
  0.5950252343590163  0.8282004935365929  0.1241771721456902   T   T   T
  0.8504193627179265  0.8254599167445088  0.1231256475751731   T   T   T
  0.0826458309118126  0.3368931786885409  0.1200881755265964   T   T   T
  0.8377015003657443  0.3232873804328772  0.1251763798877805   T   T   T
  0.5896497261500288  0.5760753930806367  0.1199429095330059   T   T   T
  0.0930534940410658  0.5766636768939006  0.1258150432374432   T   T   T
  0.0719419893871469  0.0868314085357711  0.1205380039670582   T   T   T
  0.5862106293357413  0.0722906456878365  0.1233664045870813   T   T   T
  0.3395794588020530  0.8310961687085019  0.1208047076896758   T   T   T
  0.0917047910389559  0.8181274246201086  0.1206792721375762   T   T   T
  0.3432862173651529  0.3229728958192120  0.1231824808617315   T   T   T
  0.5856510446085967  0.3249328800723608  0.1209489872085260   T   T   T
  0.9216939598491151  0.6638441907963439  0.1847482835193666   T   T   T
  0.9273353401083178  0.4045547446306572  0.1812374144173700   T   T   T
  0.6788948394636366  0.6539755464916474  0.1835004102500616   T   T   T
  0.1656352529590237  0.1670152652240525  0.1836391432842370   T   T   T
  0.9335765801518697  0.1520432235884751  0.1817200220706481   T   T   T
  0.9325401898552871  0.9011297689229720  0.1846668696768742   T   T   T
  0.4118443820122500  0.9275811595145018  0.1826413721071081   T   T   T
  0.4363891450367439  0.1565979567832661  0.1824996012505867   T   T   T
  0.6750469462132269  0.1646330855228666  0.1827138760319842   T   T   T
  0.1755137873945364  0.6620626621356577  0.1874057277830244   T   T   T
  0.4272198102172290  0.6673212371956468  0.1824248484346978   T   T   T
  0.4167682163414573  0.4174279737373656  0.1840225343808388   T   T   T
  0.6719860792162254  0.9160343768256997  0.1855918446540271   T   T   T
  0.1846170513886652  0.4000678639303646  0.1874460522032273   T   T   T
  0.6772786670216676  0.4069835919873586  0.1824607024330539   T   T   T
  0.1785640923618402  0.9103126813148149  0.1823268910546190   T   T   T
  0.0066972516240509  0.2538056423889886  0.2435005515426664   T   T   T
  0.5112587810022453  0.2495775070478921  0.2418478293348624   T   T   T
 -0.0035188117332049  0.7432863201125436  0.2525193947797947   T   T   T
  0.5077108723456414  0.7406141635653619  0.2459860450505834   T   T   T
  0.7522999794943370  0.7316971616754108  0.2448179936947911   T   T   T
  0.0099005994222944  0.4911149251079319  0.2426871887601363   T   T   T
  0.7524739633204357  0.4893054776159037  0.2500560100568766   T   T   T
  0.2590341266347282  0.9952231197814002  0.2413521900939255   T   T   T
  0.0025024609142766  0.9955918740381643  0.2454426701865541   T   T   T
  0.5156688746958117  0.9766701857167294  0.2467765366262091   T   T   T
  0.2495061216682821  0.7526915750214320  0.2470152466882271   T   T   T
  0.7493558710461103  0.9964777889067354  0.2484243241249554   T   T   T
  0.2658555305173116  0.2365078489528594  0.2504253837398212   T   T   T
  0.7508018923176343  0.2559474496254077  0.2466681405180200   T   T   T
  0.2475897315243883  0.4930677569051096  0.2524242550577700   T   T   T
  0.5112470861685879  0.4881037238597314  0.2445614168724235   T   T   T
  0.9970724699999991  0.2558556700000025  0.0591330299999981   F   F   F
  0.4999618000000012  0.2500875799999989  0.0594854499999968   F   F   F
  0.9968841600000005  0.7476992100000004  0.0595123729999969   F   F   F
  0.5054474800000008  0.7476858799999988  0.0599706819999994   F   F   F
  0.7507219800000016  0.7486395099999967  0.0599869240000004   F   F   F
  0.9979410799999968  0.5014025600000025  0.0599954460000021   F   F   F
  0.7507273000000012  0.5014379099999999  0.0601539399999993   F   F   F
  0.2484077399999975  0.9989653599999997  0.0601723560000025   F   F   F
  0.0026835402000032  0.9989392600000002  0.0602141139999972   F   F   F
  0.5037179199999997  0.9979203099999978  0.0602187790000031   F   F   F
  0.2483221499999999  0.7533767700000027  0.0603571819999971   F   F   F
  0.7484137000000004  0.9978805399999970  0.0603965990000006   F   F   F
  0.2473094699999976  0.2543786700000013  0.0604625579999976   F   F   F
  0.7483561800000018  0.2543461500000035  0.0604678369999974   F   F   F
  0.2472921999999969  0.4989472700000022  0.0606285479999968   F   F   F
  0.5037960499999983  0.4989156800000032  0.0606927010000007   F   F   F
  0.3454207000502537  0.0512802644372171  0.2831527025034686   T   T   T
  0.8368723242307292  0.0860200617164481  0.2843969032586683   T   T   T
  0.3643280901465478  0.5955047764351769  0.2818505073282418   T   T   T
  1.0052551235145621  0.4148482576512366  0.5895237828217387   T   T   T
  0.7056982836218118  0.1785269881482692  0.5346521697447059   T   T   T
  0.1912596191556317  0.3270436259191320  0.4085819830733388   T   T   T
  1.0709173015237625  0.3241528655545265  0.4836193590666412   T   T   T
  0.9457228795230357  0.1479492877948341  0.3529156115770186   T   T   T
  0.3930393915902113  0.3280928847195779  0.5524638257681802   T   T   T
  0.9728143819929629  0.7406717348727192  0.3094853487821833   T   T   T
  0.7933282951830279  0.1419430561789763  0.4140954766146601   T   T   T
  0.2557521631859653  0.0436404766650201  0.3673483398901002   T   T   T
  0.9483006542592315  0.6941690099536628  0.6116941938203371   T   T   T
  0.2125215677148972  0.7065857158415296  0.4137469709054928   T   T   T
  0.6490386634915152  0.9625541737709797  0.6354306496773884   T   T   T
  0.5192213416410595 -0.0942871970155177  0.5299021338511175   T   T   T
  0.7297610759216278  0.9617108806963284  0.3461582637412190   T   T   T
  0.7389853414787387  0.3731613943809930  0.5876498875561644   T   T   T
  0.4377014212024110  0.7505233004575520  0.3963965616129332   T   T   T
  0.3660145095943524  0.5518626538576529  0.4832309372838012   T   T   T
  0.4869005533650669  0.4973915605210613  0.3521875278935225   T   T   T
  0.8230024012873702  0.8564917552596014  0.5439720557732917   T   T   T
  0.4712781044381396  0.3183209180246256  0.4213278500351830   T   T   T
  0.5487790125493486  0.3033271084590295  0.6414112993187373   T   T   T
  0.2794853878839589  0.6228841634923130  0.6346745041621309   T   T   T
  0.5814635689337961  0.6823861385725977  0.4680054750094538   T   T   T
  0.7972258534092548  0.3259245263622878  0.4737322792099310   T   T   T
  0.7560744815623395  0.4472503568104161  0.3203491057170886   T   T   T
  0.5131941542035493  0.7083625654346871  0.5913915841193158   T   T   T
  0.9042554357037170  0.8351804096711498  0.4186784874497246   T   T   T
  0.2026373387767858  0.1099946594013566  0.5496133047148266   T   T   T
  0.8949104418753149  0.6439523365017765  0.4840322804497146   T   T   T
  0.9274065544039670  0.5880324319195979  0.3591646530655038   T   T   T
  0.9073045723593296  0.4044457318575649  0.5894234202992070   T   T   T
  1.0174238616575333  0.4365762941375116  0.5610421185607104   T   T   T
  0.5915580574666709  0.2295454661304982  0.5291858172217720   T   T   T
  0.7533768824279846  0.0605861131986799  0.5352136646769633   T   T   T
  0.1597408513640243  0.3158870847243488  0.4371219962586605   T   T   T
  0.3047827428723410  0.2822463754156588  0.4115216979147672   T   T   T
  0.9913253991039433  0.2966501808700752  0.4762785090649409   T   T   T
  1.1382377306630735  0.2325289964271180  0.5021237235658281   T   T   T
  0.9453634249812025  0.0993775630475215  0.3266518955687160   T   T   T
  0.0534882305010260  0.1219534648105444  0.3551176878826482   T   T   T
  0.4560489567018160  0.2948113358161484  0.5764339533029735   T   T   T
  0.3440991762631209  0.2629676752419777  0.5554110586178090   T   T   T
  0.9730816319624748  0.6522995383561956  0.3295044127701708   T   T   T
  0.8751501890486048  0.8409928725788209  0.3201134830399032   T   T   T
  0.8508395947917701  0.1551854842699318  0.3900676472136217   T   T   T
  0.8478799527329945  0.0260427300336159  0.4182100997800268   T   T   T
  0.2295248672537327  0.1475461196777290  0.3811457176036254   T   T   T
  0.2946804169567277  0.0531344494350983  0.3413738242775107   T   T   T
  1.0571244007732883  0.6685128661999635  0.6182691129395083   T   T   T
  0.9728409317253458  0.5808637016053604  0.6083183941331204   T   T   T
  0.2276065465531877  0.6233757759644389  0.3950776609311443   T   T   T
  0.2981338422398520  0.7258542794173254  0.4069007956275906   T   T   T
  0.5828832524281063  0.9319741744207597  0.6208483423277428   T   T   T
  0.7497816309144293  0.8697348884776390  0.6274101516754825   T   T   T
  0.6256082000649161 -0.1201555611851947  0.5393026291053626   T   T   T
  0.5237573469500824  0.8305493697935977  0.5062032296328117   T   T   T
  0.7189153674677869  0.0678691252423597  0.3426326566754293   T   T   T
  0.7766652233199872  0.9337725761262232  0.3748682879552765   T   T   T
  0.7220917502860448  0.3135945434895523  0.5647246347750727   T   T   T
  0.6518937290066517  0.4812019495207583  0.5842738438343338   T   T   T
  0.3713386718362806  0.8624054466411419  0.3855842319139303   T   T   T
  0.4777194997563062  0.6676825312788831  0.3743730536883941   T   T   T
  0.3449811769824004  0.5195249654045381  0.5092078222984531   T   T   T
  0.2747418819467352  0.6041635656178617  0.4673054439797074   T   T   T
  0.4754427702474150  0.4288097976959616  0.3727571770154627   T   T   T
  0.4120837667898459  0.5293621958508096  0.3288259678901982   T   T   T
  0.8739517041784690  0.7886011720832844  0.5680692130021785   T   T   T
  0.8668011362535639  0.7874152547791498  0.5201594841222698   T   T   T
  0.4443874193181791  0.3658538648135831  0.4483375934098313   T   T   T
  0.5871827830152364  0.2503274401914823  0.4173416131344314   T   T   T
  0.6286792963818908  0.3132162096247398  0.6236897093762386   T   T   T
  0.5882481180739858  0.1872822133950802  0.6409712506539149   T   T   T
  0.3669835680880890  0.5137557279651510  0.6416113706523331   T   T   T
  0.2913074368928914  0.6825960536894803  0.6542931124555305   T   T   T
  0.5846682930277252  0.5852830066261936  0.4778272621504484   T   T   T
  0.5257080553625360  0.7121687353059206  0.4414267653585700   T   T   T
  0.7982174783896652  0.2709644164736229  0.4481064643879091   T   T   T
  0.7979916077563679  0.2559395653153609  0.4946141609042737   T   T   T
  0.6567289095488417  0.4731511772106323  0.3331626920944202   T   T   T
  0.8251437776374175  0.3318206446498097  0.3261692789477859   T   T   T
  0.5235713373800636  0.7496941621021226  0.5656394371169847   T   T   T
  0.4062995076083014  0.7237605611002245  0.5923415175868680   T   T   T
  0.8750371514321893  0.7687369106084995  0.4368751934050035   T   T   T
  1.0226272531757556  0.7881447181426746  0.4223052053306960   T   T   T
  1.1691672727125038  0.1796321767935385  0.5738423140855099   T   T   T
  0.3243500904929732  0.0399274885579467  0.5501370522044350   T   T   T
  0.9870893576934930  0.5429948488537080  0.4836239669197410   T   T   T
  0.8012191927172219  0.6306729536440048  0.4802563640372073   T   T   T
  0.0175131265163782  0.4987811958361238  0.3743429431829536   T   T   T
  0.8566086406273492  0.5471282211181714  0.3483612150831657   T   T   T
  0.3384969684174077  0.3201658761799727  0.2920060131740205   T   T   T
  0.2714448093360404  0.3692921347765205  0.3256583587535917   T   T   T
  0.4531510647354172  0.2592377561052995  0.2943072267397851   T   T   T
 
 -0.22931769E-02 -0.64760820E-03  0.12500006E-03
  0.13275372E-02 -0.30424284E-02  0.28377309E-03
  0.15333643E-02 -0.14394022E-02  0.83237277E-04
  0.18005487E-02  0.20783972E-02  0.44271016E-03
 -0.15981649E-02 -0.12190665E-02  0.40191744E-03
  0.15265385E-02 -0.49548949E-03  0.33457819E-02
  0.94372968E-03 -0.28005036E-03  0.20305508E-02
  0.19137085E-02  0.36160913E-03 -0.38476123E-03
 -0.15888698E-02  0.27127040E-02  0.45499160E-02
  0.31495999E-02  0.18199409E-02 -0.28225477E-02
  0.24887847E-03 -0.13610549E-02  0.11520716E-02
  0.13289472E-02  0.25813529E-02 -0.21462493E-02
  0.93717829E-03 -0.47842821E-02  0.11643851E-02
 -0.89739150E-03  0.10000794E-02  0.28603499E-02
  0.47960200E-03  0.26446535E-03 -0.16300182E-02
 -0.93590635E-03  0.11161239E-02 -0.28253715E-02
  0.33426324E-04 -0.17618796E-02  0.75129061E-04
  0.27851650E-02 -0.24993565E-02  0.15502130E-02
  0.33174790E-02  0.30139135E-02  0.25777413E-02
  0.26610522E-02 -0.40074559E-02  0.14521941E-02
  0.18961223E-02 -0.14368952E-02  0.73416519E-03
 -0.38755417E-03  0.30916535E-03 -0.15325842E-02
 -0.84668295E-03 -0.10178885E-02 -0.96649937E-03
  0.49534947E-02 -0.16553460E-02  0.24229970E-02
 -0.25091443E-04  0.54281731E-03  0.19436275E-03
 -0.74358911E-03  0.41127327E-03 -0.13312038E-02
  0.15489006E-02  0.11309680E-02  0.14040746E-02
 -0.31570003E-02 -0.10678332E-02 -0.11341696E-02
 -0.97074042E-03 -0.14699769E-02  0.10920974E-02
  0.26027194E-03  0.26888637E-03  0.79808749E-03
  0.65465414E-03 -0.28274593E-03  0.70908777E-04
  0.26516816E-03 -0.33465009E-03  0.27928046E-02
 -0.81972718E-04  0.14557285E-03 -0.80058364E-03
  0.79140834E-03  0.39596463E-02  0.15631715E-02
 -0.29337401E-02 -0.21836047E-02  0.13493350E-02
 -0.20376148E-02 -0.88457822E-03 -0.12710055E-02
 -0.13524915E-02  0.59479843E-02  0.54828222E-02
 -0.12455519E-02 -0.28993730E-02 -0.36462303E-02
  0.19060705E-02  0.30316174E-04 -0.16418509E-02
 -0.20222440E-02 -0.71411281E-04  0.28239462E-02
 -0.99589099E-03  0.29308492E-03 -0.68037797E-03
 -0.31318273E-02 -0.23366080E-02 -0.17591996E-02
  0.12128857E-02 -0.16949809E-02 -0.35190283E-03
 -0.53200102E-03 -0.23941063E-02 -0.82738704E-03
 -0.10805373E-02 -0.46167131E-02  0.12424086E-02
  0.58267670E-03  0.15505957E-02 -0.13774190E-02
  0.31618515E-02  0.52327075E-03  0.16630556E-02
  0.19138527E-02 -0.50907684E-03 -0.19445219E-02
  0.00000000E+00  0.00000000E+00  0.00000000E+00
  0.00000000E+00  0.00000000E+00  0.00000000E+00
  0.00000000E+00  0.00000000E+00  0.00000000E+00
  0.00000000E+00  0.00000000E+00  0.00000000E+00
  0.00000000E+00  0.00000000E+00  0.00000000E+00
  0.00000000E+00  0.00000000E+00  0.00000000E+00
  0.00000000E+00  0.00000000E+00  0.00000000E+00
  0.00000000E+00  0.00000000E+00  0.00000000E+00
  0.00000000E+00  0.00000000E+00  0.00000000E+00
  0.00000000E+00  0.00000000E+00  0.00000000E+00
  0.00000000E+00  0.00000000E+00  0.00000000E+00
  0.00000000E+00  0.00000000E+00  0.00000000E+00
  0.00000000E+00  0.00000000E+00  0.00000000E+00
  0.00000000E+00  0.00000000E+00  0.00000000E+00
  0.00000000E+00  0.00000000E+00  0.00000000E+00
  0.00000000E+00  0.00000000E+00  0.00000000E+00
  0.50524634E-02  0.86557891E-02  0.27247964E-03
  0.43535989E-02  0.28726865E-02  0.22694894E-02
  0.39646687E-03  0.24153001E-02  0.43662698E-02
 -0.24748820E-02 -0.19667093E-02  0.75014546E-04
  0.56699754E-02  0.74342732E-03  0.15630642E-02
 -0.11073981E-02 -0.23189272E-02  0.68974423E-03
 -0.13928443E-03 -0.52103912E-02  0.51015066E-02
  0.62582873E-02  0.25635734E-02  0.77373962E-03
 -0.32610864E-02 -0.12549566E-02 -0.55751332E-02
 -0.27399555E-03 -0.60068564E-03 -0.19212381E-02
 -0.42491690E-02  0.59767213E-02  0.32169469E-02
 -0.25866556E-02 -0.63461733E-03 -0.78575300E-03
  0.21469945E-02 -0.53538437E-02 -0.74055448E-02
  0.77480571E-02 -0.31595587E-02  0.58699833E-02
 -0.46528849E-02 -0.26324309E-02  0.69109032E-02
  0.22106734E-02 -0.13148963E-02 -0.38489590E-02
  0.54876196E-02 -0.22079590E-02  0.78420446E-02
 -0.14276280E-02  0.23207388E-02  0.59420063E-02
  0.53452544E-02 -0.63584738E-02 -0.78694813E-02
 -0.18753741E-02 -0.15629276E-02  0.12303607E-02
  0.62091616E-02 -0.50224826E-03  0.57643744E-02
 -0.14054913E-03  0.47478510E-02  0.58790201E-02
  0.91873260E-03  0.43361260E-02  0.74509840E-02
 -0.10461982E-01 -0.22569088E-03 -0.28413861E-02
  0.10562670E-01  0.22728637E-02  0.39805771E-02
  0.30023746E-02 -0.37145583E-04 -0.43292767E-02
  0.23209893E-02  0.76561163E-02 -0.25152811E-02
  0.32617442E-02 -0.38357680E-03 -0.26988744E-02
  0.36613895E-02  0.87967052E-03 -0.15564614E-02
  0.52264183E-02 -0.38330114E-03 -0.26361092E-02
  0.28261429E-02 -0.75355413E-03 -0.48750576E-04
 -0.79896650E-02  0.34300702E-02  0.87974722E-03
 -0.21775359E-02  0.27283722E-02 -0.42445955E-02
  0.99890503E-02 -0.21075497E-02 -0.99217362E-02
 -0.68189882E-02 -0.23141180E-01  0.13019028E-01
  0.16128196E-01  0.80333767E-02 -0.15212567E-02
  0.21914201E-01 -0.40000473E-03  0.71066193E-02
 -0.67353363E-02 -0.70360107E-02 -0.17822657E-02
  0.21842656E-01 -0.12912814E-01 -0.40455055E-02
 -0.79562103E-02  0.88667185E-02  0.24993739E-01
 -0.21244137E-02 -0.27384503E-02 -0.21562893E-01
  0.31348431E-01  0.87604490E-02 -0.10278409E-01
  0.27353586E-01 -0.22599033E-01  0.10868488E-01
  0.23148742E-01  0.21995767E-01  0.77676405E-03
  0.51748347E-02  0.33419785E-01  0.99930311E-02
 -0.93621085E-02 -0.18792078E-01 -0.14922222E-01
  0.16193050E-02 -0.23290332E-01 -0.16997568E-01
  0.29000027E-01 -0.16824354E-01  0.14440419E-02
  0.13816095E-02  0.72163170E-02 -0.12613793E-01
 -0.25960255E-02 -0.31024360E-01 -0.13359865E-02
 -0.28175996E-01  0.12575125E-01 -0.36924195E-01
 -0.70668923E-02  0.57950516E-02 -0.13468340E-01
  0.13904962E-01 -0.69383142E-03  0.27132985E-02
  0.43033844E-03 -0.19456502E-01 -0.30156533E-01
  0.12717932E-02  0.45811894E-02  0.12393686E-02
 -0.12663189E-01  0.34362135E-01  0.21242972E-01
 -0.16141592E-02  0.17181419E-01 -0.19426462E-02
 -0.22546917E-01  0.38576461E-01 -0.11615811E-01
  0.22594987E-01  0.19470802E-01  0.22463216E-02
 -0.55754070E-02 -0.33433608E-01 -0.10982954E-02
 -0.36749453E-01 -0.47747064E-02  0.26097089E-01
 -0.11240563E-01 -0.25210219E-01  0.86044557E-04
 -0.12562599E-01 -0.94961070E-02  0.89675567E-02
  0.22433658E-01  0.12848312E-01 -0.79196335E-02
 -0.82745157E-02  0.41383285E-01  0.15475778E-01
 -0.23339164E-01 -0.93295232E-02 -0.66998173E-02
  0.35706656E-01  0.90336517E-02 -0.34960218E-02
  0.28403271E-02  0.10748919E-01 -0.11110998E-01
 -0.27962771E-01  0.21321931E-01  0.83932058E-02
 -0.77379269E-02  0.16639358E-01 -0.10356532E-02
  0.22796517E-01 -0.84007077E-02  0.18661631E-01
 -0.43721349E-02 -0.23726544E-01  0.41570418E-02
  0.14065931E-01  0.21912620E-02 -0.95752020E-02
 -0.39839422E-02  0.12575137E-03 -0.88443564E-02
 -0.39233927E-01  0.33412937E-02 -0.78071899E-02
 -0.12874549E-01 -0.13236304E-01 -0.10869197E-03
  0.18651148E-01  0.20075011E-02  0.19401842E-01
 -0.67408805E-02  0.21636780E-02 -0.11507411E-01
 -0.17088082E-01 -0.29535802E-01 -0.31871838E-01
 -0.37765453E-02 -0.10169962E-01 -0.21185790E-01
  0.11661578E-01 -0.11225528E-01 -0.18333221E-01
  0.11447158E-02 -0.14084377E-01  0.13529877E-01
 -0.26291847E-01 -0.25227761E-01  0.64478184E-02
 -0.27224338E-02  0.24073511E-01  0.30733309E-02
 -0.22957826E-01  0.14580135E-01  0.69842811E-02
 -0.13073758E-01  0.10574494E-01 -0.21707366E-01
  0.49911389E-03  0.22697192E-01 -0.31173160E-01
  0.40966781E-02  0.56317003E-02  0.28117269E-01
 -0.91182113E-02  0.33151782E-02 -0.12468472E-01
 -0.20460679E-02  0.19808500E-02 -0.74742691E-02
 -0.51084214E-02  0.65251262E-03  0.12768277E-01
 -0.23080356E-01 -0.12920850E-01  0.13846503E-01
  0.14262262E-01  0.31589911E-01 -0.17756977E-01
 -0.75749215E-02 -0.80678526E-02 -0.60928441E-02
 -0.56161665E-02  0.11775552E-01 -0.52463391E-02
 -0.33345105E-02  0.38433361E-03 -0.54818963E-02
 
           1
   1.00000000000000     
 -0.63491120E-01 -0.12044671E-01 -0.12928347E-01 -0.51004611E-01
  0.83739456E+00  0.58641918E+00  0.12297752E+00
  0.34149590E+00  0.82143844E-01  0.12240016E+00
  0.84152935E+00  0.71127868E-01  0.12004063E+00
  0.34437972E+00  0.57420494E+00  0.12134522E+00
  0.59493425E+00  0.82805728E+00  0.12418935E+00
  0.85060377E+00  0.82540171E+00  0.12322700E+00
  0.82758293E-01  0.33686028E+00  0.12014968E+00
  0.83787496E+00  0.32332986E+00  0.12516472E+00
  0.58932874E+00  0.57639407E+00  0.12008073E+00
  0.93267027E-01  0.57687748E+00  0.12572954E+00
  0.72047256E-01  0.86671516E-01  0.12057290E+00
  0.58619421E+00  0.72593894E-01  0.12330139E+00
  0.33995583E+00  0.83053413E+00  0.12083998E+00
  0.91554750E-01  0.81824491E+00  0.12076592E+00
  0.34331948E+00  0.32300396E+00  0.12313311E+00
  0.58549027E+00  0.32506400E+00  0.12086340E+00
  0.92180085E+00  0.66363721E+00  0.18475056E+00
  0.92776550E+00  0.40426113E+00  0.18128437E+00
  0.67905532E+00  0.65432961E+00  0.18357849E+00
  0.16614137E+00  0.16654448E+00  0.18368313E+00
  0.93385389E+00  0.15187442E+00  0.18174226E+00
  0.93248260E+00  0.90116609E+00  0.18462045E+00
  0.41181803E+00  0.92746158E+00  0.18261210E+00
  0.43699033E+00  0.15640349E+00  0.18257300E+00
  0.67501251E+00  0.16469685E+00  0.18271976E+00
  0.17541398E+00  0.66211098E+00  0.18736540E+00
  0.42731096E+00  0.66745410E+00  0.18246738E+00
  0.41650975E+00  0.41730253E+00  0.18398818E+00
  0.67197366E+00  0.91586169E+00  0.18562493E+00
  0.18462774E+00  0.40009945E+00  0.18747023E+00
  0.67736188E+00  0.40695038E+00  0.18246285E+00
  0.17861073E+00  0.91027337E+00  0.18241149E+00
  0.66803612E-02  0.25382274E+00  0.24347630E+00
  0.51110671E+00  0.25004267E+00  0.24189518E+00
  0.99631098E+00  0.74302980E+00  0.25256027E+00
  0.50755553E+00  0.74051025E+00  0.24594754E+00
  0.75181301E+00  0.73239591E+00  0.24498408E+00
  0.99441840E-02  0.49077432E+00  0.24257674E+00
  0.75266610E+00  0.48930904E+00  0.25000628E+00
  0.25883258E+00  0.99521473E+00  0.24143773E+00
  0.23839260E-02  0.99562630E+00  0.24542206E+00
  0.51548750E+00  0.97639569E+00  0.24672325E+00
  0.24972908E+00  0.75249245E+00  0.24700459E+00
  0.74944237E+00  0.99619654E+00  0.24839926E+00
  0.26601678E+00  0.23596549E+00  0.25046302E+00
  0.75077009E+00  0.25612961E+00  0.24662642E+00
  0.24788067E+00  0.49312923E+00  0.25247463E+00
  0.51147170E+00  0.48804392E+00  0.24450251E+00
  0.99707247E+00  0.25585567E+00  0.59133030E-01
  0.49996180E+00  0.25008758E+00  0.59485450E-01
  0.99688416E+00  0.74769921E+00  0.59512373E-01
  0.50544748E+00  0.74768588E+00  0.59970682E-01
  0.75072198E+00  0.74863951E+00  0.59986924E-01
  0.99794108E+00  0.50140256E+00  0.59995446E-01
  0.75072730E+00  0.50143791E+00  0.60153940E-01
  0.24840774E+00  0.99896536E+00  0.60172356E-01
  0.26835402E-02  0.99893926E+00  0.60214114E-01
  0.50371792E+00  0.99792031E+00  0.60218779E-01
  0.24832215E+00  0.75337677E+00  0.60357182E-01
  0.74841370E+00  0.99788054E+00  0.60396599E-01
  0.24730947E+00  0.25437867E+00  0.60462558E-01
  0.74835618E+00  0.25434615E+00  0.60467837E-01
  0.24729220E+00  0.49894727E+00  0.60628548E-01
  0.50379605E+00  0.49891568E+00  0.60692701E-01
  0.34542630E+00  0.52297117E-01  0.28316096E+00
  0.83714651E+00  0.86357535E-01  0.28446565E+00
  0.36422656E+00  0.59578852E+00  0.28198277E+00
  0.51188559E-02  0.41461722E+00  0.58952606E+00
  0.70623147E+00  0.17861432E+00  0.53469952E+00
  0.19128316E+00  0.32677121E+00  0.40860288E+00
  0.71209180E-01  0.32354077E+00  0.48377389E+00
  0.94620900E+00  0.14825045E+00  0.35293905E+00
  0.39278133E+00  0.32794546E+00  0.55229495E+00
  0.97282179E+00  0.74060117E+00  0.30942715E+00
  0.79254493E+00  0.14264518E+00  0.41419292E+00
  0.25552628E+00  0.43565924E-01  0.36732454E+00
  0.94883356E+00  0.69354006E+00  0.61146987E+00
  0.21349542E+00  0.70621454E+00  0.41392478E+00
  0.64871991E+00  0.96224492E+00  0.63563999E+00
  0.51952349E+00  0.90555833E+00  0.52978554E+00
  0.73044907E+00  0.96145150E+00  0.34639581E+00
  0.73870378E+00  0.37343403E+00  0.58782988E+00
  0.43861872E+00  0.74977633E+00  0.39615818E+00
  0.36591552E+00  0.55167905E+00  0.48326821E+00
  0.48756176E+00  0.49733256E+00  0.35236214E+00
  0.82270922E+00  0.85704952E+00  0.54415014E+00
  0.47111688E+00  0.31883031E+00  0.42155355E+00
  0.54772789E+00  0.30330060E+00  0.64132523E+00
  0.28042651E+00  0.62315117E+00  0.63479508E+00
  0.58177121E+00  0.68238177E+00  0.46787434E+00
  0.79701228E+00  0.32682394E+00  0.47365609E+00
  0.75642885E+00  0.44720530E+00  0.32026735E+00
  0.51351499E+00  0.70846591E+00  0.59134444E+00
  0.90480967E+00  0.83513538E+00  0.41859864E+00
  0.20296913E+00  0.10990613E+00  0.54961183E+00
  0.89389612E+00  0.64435529E+00  0.48405893E+00
  0.92702476E+00  0.58835295E+00  0.35903608E+00
  0.90844463E+00  0.40419814E+00  0.58912288E+00
  0.18089387E-01  0.43385775E+00  0.56143648E+00
  0.59272704E+00  0.23048920E+00  0.52913974E+00
  0.75562988E+00  0.60539122E-01  0.53542893E+00
  0.15946890E+00  0.31506052E+00  0.43706801E+00
  0.30776344E+00  0.28072942E+00  0.41139915E+00
  0.98999514E+00  0.29769181E+00  0.47703560E+00
  0.13818245E+00  0.23220729E+00  0.50147056E+00
  0.94803817E+00  0.10040671E+00  0.32634055E+00
  0.57598549E-01  0.11929861E+00  0.35544691E+00
  0.45711206E+00  0.29739532E+00  0.57645748E+00
  0.34266263E+00  0.26689372E+00  0.55571376E+00
  0.97323297E+00  0.65009191E+00  0.32905240E+00
  0.87668297E+00  0.83825680E+00  0.31959860E+00
  0.85477822E+00  0.15320902E+00  0.39011139E+00
  0.84759664E+00  0.26890478E-01  0.41782801E+00
  0.23108307E+00  0.14390148E+00  0.38110525E+00
  0.29107522E+00  0.54611732E-01  0.34025534E+00
  0.56065040E-01  0.66919365E+00  0.61786114E+00
  0.97429634E+00  0.58078219E+00  0.60840058E+00
  0.22879317E+00  0.62109009E+00  0.39416418E+00
  0.29799414E+00  0.72639246E+00  0.40693834E+00
  0.57957656E+00  0.93601092E+00  0.62149182E+00
  0.74860820E+00  0.87175330E+00  0.62735131E+00
  0.62104841E+00  0.88437627E+00  0.53895077E+00
  0.52491243E+00  0.83283673E+00  0.50627127E+00
  0.72031197E+00  0.63941460E-01  0.34259939E+00
  0.77320688E+00  0.93321166E+00  0.37565880E+00
  0.72242897E+00  0.31063293E+00  0.56472724E+00
  0.65117342E+00  0.48008638E+00  0.58454548E+00
  0.37286633E+00  0.86391482E+00  0.38534434E+00
  0.47444689E+00  0.67254410E+00  0.37484183E+00
  0.34315470E+00  0.51842897E+00  0.50900488E+00
  0.27784397E+00  0.60522481E+00  0.46719955E+00
  0.47510037E+00  0.43007254E+00  0.37242061E+00
  0.40798649E+00  0.53186702E+00  0.32908021E+00
  0.87218710E+00  0.79055591E+00  0.56803784E+00
  0.86961384E+00  0.78642837E+00  0.52072477E+00
  0.44533626E+00  0.36306655E+00  0.44846352E+00
  0.58848511E+00  0.25058486E+00  0.41705157E+00
  0.62826659E+00  0.31323098E+00  0.62342180E+00
  0.58406029E+00  0.18767474E+00  0.64073476E+00
  0.36645122E+00  0.51220077E+00  0.64160808E+00
  0.29308704E+00  0.68283189E+00  0.65488082E+00
  0.58385540E+00  0.58553719E+00  0.47747869E+00
  0.52570444E+00  0.70869897E+00  0.44046133E+00
  0.79843063E+00  0.26976968E+00  0.44746472E+00
  0.79983740E+00  0.25462083E+00  0.49405882E+00
  0.65767266E+00  0.47149659E+00  0.33357253E+00
  0.82395074E+00  0.32885697E+00  0.32636459E+00
  0.52188033E+00  0.75252224E+00  0.56573253E+00
  0.40310742E+00  0.72547339E+00  0.59255308E+00
  0.87308593E+00  0.76997917E+00  0.43621765E+00
  0.21344838E-01  0.79081111E+00  0.42136093E+00
  0.16925326E+00  0.18029377E+00  0.57469402E+00
  0.32322770E+00  0.40316944E-01  0.54975937E+00
  0.98676484E+00  0.54322755E+00  0.48339756E+00
  0.80066115E+00  0.63074961E+00  0.48064313E+00
  0.15923933E-01  0.49726330E+00  0.37476237E+00
  0.85620411E+00  0.55083930E+00  0.34782333E+00
  0.33820021E+00  0.31921809E+00  0.29182145E+00
  0.27018176E+00  0.37067549E+00  0.32549944E+00
  0.45278924E+00  0.25928291E+00  0.29414117E+00
  0.00000000E+00  0.00000000E+00  0.00000000E+00
  0.00000000E+00  0.00000000E+00  0.00000000E+00
  0.00000000E+00  0.00000000E+00  0.00000000E+00
  0.00000000E+00  0.00000000E+00  0.00000000E+00
  0.00000000E+00  0.00000000E+00  0.00000000E+00
  0.00000000E+00  0.00000000E+00  0.00000000E+00
  0.00000000E+00  0.00000000E+00  0.00000000E+00
  0.00000000E+00  0.00000000E+00  0.00000000E+00
  0.00000000E+00  0.00000000E+00  0.00000000E+00
  0.00000000E+00  0.00000000E+00  0.00000000E+00
  0.00000000E+00  0.00000000E+00  0.00000000E+00
  0.00000000E+00  0.00000000E+00  0.00000000E+00
  0.00000000E+00  0.00000000E+00  0.00000000E+00
  0.00000000E+00  0.00000000E+00  0.00000000E+00
  0.00000000E+00  0.00000000E+00  0.00000000E+00
  0.00000000E+00  0.00000000E+00  0.00000000E+00
  0.00000000E+00  0.00000000E+00  0.00000000E+00
  0.00000000E+00  0.00000000E+00  0.00000000E+00
  0.00000000E+00  0.00000000E+00  0.00000000E+00
  0.00000000E+00  0.00000000E+00  0.00000000E+00
  0.00000000E+00  0.00000000E+00  0.00000000E+00
  0.00000000E+00  0.00000000E+00  0.00000000E+00
  0.00000000E+00  0.00000000E+00  0.00000000E+00
  0.00000000E+00  0.00000000E+00  0.00000000E+00
  0.00000000E+00  0.00000000E+00  0.00000000E+00
  0.00000000E+00  0.00000000E+00  0.00000000E+00
  0.00000000E+00  0.00000000E+00  0.00000000E+00
  0.00000000E+00  0.00000000E+00  0.00000000E+00
  0.00000000E+00  0.00000000E+00  0.00000000E+00
  0.00000000E+00  0.00000000E+00  0.00000000E+00
  0.00000000E+00  0.00000000E+00  0.00000000E+00
  0.00000000E+00  0.00000000E+00  0.00000000E+00
  0.00000000E+00  0.00000000E+00  0.00000000E+00
  0.00000000E+00  0.00000000E+00  0.00000000E+00
  0.00000000E+00  0.00000000E+00  0.00000000E+00
  0.00000000E+00  0.00000000E+00  0.00000000E+00
  0.00000000E+00  0.00000000E+00  0.00000000E+00
  0.00000000E+00  0.00000000E+00  0.00000000E+00
  0.00000000E+00  0.00000000E+00  0.00000000E+00
  0.00000000E+00  0.00000000E+00  0.00000000E+00
  0.00000000E+00  0.00000000E+00  0.00000000E+00
  0.00000000E+00  0.00000000E+00  0.00000000E+00
  0.00000000E+00  0.00000000E+00  0.00000000E+00
  0.00000000E+00  0.00000000E+00  0.00000000E+00