 Layer\(8)                              
   1.00000000000000     
    10.1184997559000003    0.0000000000000000    0.0000000000000000
    -5.0592498779000001    8.7628778367999995    0.0000000000000000
     0.0000000000000000    0.0000000000000000   30.4844000000000008
   Cu   O    H    C    H    C    O    O    H 
    64    30    60     1     1     1     1     1     1
Selective dynamics
Direct
  0.4139196330862987  0.0836775792024369  0.1164293271709808   T   T   T
  0.9282438003185426  0.5882587127748988  0.1113571364477666   T   T   T
  0.6761383898135240  0.3397470232644428  0.1137942943084507   T   T   T
  0.1758293754613631  0.8472482237487361  0.1176377522148457   T   T   T
  0.1769470918600135  0.5835586215240074  0.1136902892661660   T   T   T
  0.4229061190416337  0.3358257103223425  0.1148606892939160   T   T   T
  0.1729298919920707  0.0873985221903293  0.1151315795697083   T   T   T
  0.4243964589948384  0.8367075182818892  0.1151649547789279   T   T   T
  0.9295315578741603  0.3370059247075539  0.1136399654317810   T   T   T
  0.1741034925574001  0.3395724332604658  0.1133792008696104   T   T   T
  0.6685404479422059  0.0910122703252632  0.1127022009408984   T   T   T
  0.6677754746329900  0.8372500423712180  0.1140595360103583   T   T   T
  0.6796135508248557  0.5843678038385206  0.1142246894867925   T   T   T
  0.4256715632363703  0.5826904682709277  0.1145626748548449   T   T   T
  0.9235495931511171  0.8371072867577158  0.1137686310817693   T   T   T
  0.9233338979877321  0.0850364339678720  0.1140563588725291   T   T   T
  0.3330366803368944  0.1689184670724108  0.1798894342446417   T   T   T
  0.8478559508907151  0.4302369499743497  0.1779319057468182   T   T   T
  0.0957927750938427  0.6697890200473945  0.1803059024691711   T   T   T
  0.3362564241969807  0.9211496599437466  0.1818091498133538   T   T   T
  0.5871312956299226  0.1709004203465385  0.1809975101502121   T   T   T
  0.5805993070999880  0.4113726524692874  0.1817490969089079   T   T   T
  0.0952751828709173  0.4157250717333268  0.1817891986306774   T   T   T
  0.8409483097732995  0.6634101314910960  0.1798255936973748   T   T   T
  0.0798663881350586  0.9186017238551298  0.1854739640546052   T   T   T
  0.3413399793194132  0.4134059545958431  0.1797373161741386   T   T   T
  0.3402014553244183  0.6683124339844878  0.1818671846233759   T   T   T
  0.0764091317157977  0.1678043901268625  0.1777048251671828   T   T   T
  0.5906076438426821  0.9252455572674710  0.1803847346949326   T   T   T
  0.8326748175343839  0.1709663275839085  0.1812393149601406   T   T   T
  0.5949102510183516  0.6667393596760793  0.1801780597733848   T   T   T
  0.8357965465237879  0.9296624402426840  0.1841016618461331   T   T   T
  0.5062076440143566  0.2536247375041545  0.2519208747945473   T   T   T
  0.2479783809740243  0.0014069693600633  0.2480292745345483   T   T   T
  0.9981101747968805  0.7438784009062316  0.2575003680215420   T   T   T
  0.4876439779836040  0.9868370857065293  0.2482046580606989   T   T   T
  0.0039487440393731  0.4985430361623670  0.2483007233794401   T   T   T
  0.7614879252956571  0.5110592708992876  0.2476582777099702   T   T   T
  0.2488346808318016  0.7529454272399829  0.2473241632386691   T   T   T
  0.7541629416606349  0.2667329788658148  0.2473679052466951   T   T   T
  0.2689386031352500  0.2561207992349119  0.2466425884855458   T   T   T
  0.2587056543028574  0.5104591018609576  0.2472633262864077   T   T   T
  0.0191639407768522  0.2669711732994547  0.2557474558579374   T   T   T
  0.5096323088321884  0.5075493722020358  0.2522198008591092   T   T   T
  0.4953517341285180  0.7444857304945572  0.2490386850081280   T   T   T
  0.0099372011661367  0.0054592914017824  0.2527177592001389   T   T   T
  0.7338424991088520  0.0133972852431254  0.2563371282472440   T   T   T
  0.7613308451214541  0.7563123498127993  0.2514267959279466   T   T   T
  0.5051699799999980  0.2552200000000013  0.0459221600000035   F   F   F
  0.2551900300000014  0.0052499999999966  0.0459221600000035   F   F   F
  0.0052099999999982  0.7552400000000006  0.0459221600000035   F   F   F
  0.5051599700000011  0.0052700000000030  0.0459221600000035   F   F   F
  0.0051299799999995  0.5051999900000013  0.0459221600000035   F   F   F
  0.7552299800000029  0.5052699700000005  0.0459221600000035   F   F   F
  0.2551200099999988  0.7552599699999973  0.0459221600000035   F   F   F
  0.7550999899999979  0.2552900000000022  0.0459221600000035   F   F   F
  0.2552500099999975  0.2551599999999965  0.0459221600000035   F   F   F
  0.2551399900000035  0.5051699500000026  0.0459221600000035   F   F   F
  0.0052599999999998  0.2552700000000030  0.0459221600000035   F   F   F
  0.5051800000000028  0.5051699500000026  0.0459221600000035   F   F   F
  0.5051100100000028  0.7552000000000021  0.0459221600000035   F   F   F
  0.0051800000000028  0.0052200000000013  0.0459221600000035   F   F   F
  0.7551699999999997  0.0052400000000006  0.0459221600000035   F   F   F
  0.7551899899999981  0.7551799800000012  0.0459221600000035   F   F   F
  0.7428131450073550  0.8323682381283370  0.3458734738358734   T   T   T
  0.1491248208795155  0.7741996889352487  0.3348673019644856   T   T   T
  0.7161781647369678  0.5019501685690004  0.3706906012098694   T   T   T
  0.0765099744612079  0.9065052165472277  0.4007781475605829   T   T   T
  0.3349314467218143  0.8490469586688387  0.5831154041207079   T   T   T
  0.8671609251547494  0.8228675607058271  0.4693798727372256   T   T   T
  0.4730692031187996  0.9684293816351788  0.3489447739496677   T   T   T
  0.9086671954175227  0.0905954290398131  0.5157680014885453   T   T   T
  0.1469052402675874  0.5174113739018273  0.3424288320516002   T   T   T
  0.3439944672454568  0.9630242253375940  0.4375649903768551   T   T   T
  0.3267057836139704  0.1869543736018264  0.5690623126502476   T   T   T
  0.5961241867751804  0.2942991165880005  0.6070677903574093   T   T   T
  0.1538155565877347  0.6461500470358507  0.4557924353468037   T   T   T
  0.7671375510078404  0.2667994343901686  0.5439215551617325   T   T   T
  0.5800728935781587  0.1481950249773066  0.6839744861549468   T   T   T
  0.3395109544650950  0.6618552377444997  0.5286171055415312   T   T   T
  0.5734853566437406  0.8757998494593794  0.6770105745249182   T   T   T
  0.1743126139406953  0.2205763210474022  0.4544205381075501   T   T   T
  0.7655577718662998  0.6092313192650600  0.5713689356941150   T   T   T
  0.8255460052185971  0.4792501348169062  0.4879502364427355   T   T   T
  0.7340654126546212  0.0671012496858406  0.4122425120818622   T   T   T
  0.7270932854433352  0.2608727740099193  0.3214455578299739   T   T   T
  0.4366899729916282  0.5709630376724513  0.3792975644963719   T   T   T
  0.5090391474556084  0.1449484931506129  0.5095337105371294   T   T   T
  0.0142072710073224  0.3637449508811045  0.4073580037862906   T   T   T
  0.7475891676686689  0.8559759567393309  0.6080199973150076   T   T   T
  0.4983690466473966  0.3798901112200961  0.4513289141520675   T   T   T
  0.5530135677360830  0.6713890037489608  0.4757730751327409   T   T   T
  0.0290679883041327  0.8880020880287158  0.5952696241615741   T   T   T
  0.1867160608719281  0.3699136456044432  0.5714684333544999   T   T   T
  0.7992520065782637  0.9289600790485124  0.3295427693017209   T   T   T
  0.6358532523433628  0.7756353211893852  0.3368969716354128   T   T   T
  0.1456458351234988  0.6774032791024962  0.3417671652075894   T   T   T
  0.0741473399466371  0.7816339910419028  0.3540208852496741   T   T   T
  0.7794309826334920  0.5272000521644222  0.4714261244378105   T   T   T
  0.6937224422786875  0.4378638610664667  0.3969235582507910   T   T   T
  0.0109585174371513  0.1308301783183269  0.3339923362484798   T   T   T
  0.9893653185586113  0.8663936629704223  0.4222564844524050   T   T   T
  0.3983266463354906  0.9595262172492359  0.5762592943893025   T   T   T
  0.2336058072028091  0.8307047869250914  0.5911737751929207   T   T   T
  0.7551145908507838  0.7736572369369463  0.4731401938330944   T   T   T
  0.8979370899632696  0.9131818847734653  0.4876896464903314   T   T   T
  0.3597904949337589  0.9193604601781741  0.3434199552411457   T   T   T
  0.4968072920757124  0.8893803531226780  0.3541225521526078   T   T   T
  0.0038263186879575  0.1684325949863550  0.5026329926001365   T   T   T
  0.8632766963724009  0.1481196269733141  0.5287791069787340   T   T   T
  0.1319098705592096  0.4505801168041982  0.3168906672731382   T   T   T
  0.0805362807063512  0.4465039853836724  0.3653379947538086   T   T   T
  0.2562827765826889  0.9677284580072785  0.4263446597029596   T   T   T
  0.4241016509202905  0.0007490605925850  0.4159584708486420   T   T   T
  0.2315837667662826  0.0890742588842581  0.5712216696746467   T   T   T
  0.3767881164430638  0.1646619847132227  0.5432620617647518   T   T   T
  0.4910093991302067  0.2410097484584604  0.5957234172642387   T   T   T
  0.5870658967093854  0.2435795456154522  0.6365041920953174   T   T   T
  0.1988987271243756  0.7545992579023182  0.4485108966142053   T   T   T
  0.2287012270067668  0.6401607997881573  0.4740259888945939   T   T   T
  0.7266670205488835  0.2893921499630662  0.5695027507919723   T   T   T
  0.8089481039662061  0.3630418559497641  0.5252806336346526   T   T   T
  0.6479109798707334  0.2045009841776116  0.7087475236407000   T   T   T
  0.5874873057686646  0.0539942139667073  0.6815687719445663   T   T   T
  0.3073266135777354  0.5643734376074401  0.5421596132893911   T   T   T
  0.3450955988134534  0.7409442142660057  0.5500615023602167   T   T   T
  0.6454418920977033  0.8718946306058768  0.6557398003560628   T   T   T
  0.4855279815633706  0.8310612791297992  0.6581563440330894   T   T   T
  0.1576616727105483  0.1182866757941233  0.4502044814890380   T   T   T
  0.1159155196991631  0.2453438896627116  0.4335855040152346   T   T   T
  0.8013289693566961  0.5798789703862629  0.5441601807471613   T   T   T
  0.6916075621266817  0.5206203842022655  0.5876664472685305   T   T   T
  0.0817258572138341  0.0028044987237598  0.3889956618682354   T   T   T
  0.9320446099551307  0.5551778051503459  0.4832280256195316   T   T   T
  0.7343539421406173  0.9925369128494971  0.3917181983707446   T   T   T
  0.7647596677772714  0.0579609100726006  0.4411260381054501   T   T   T
  0.6434177167500513  0.5412613166258774  0.3689000568074390   T   T   T
  0.7181589038697773  0.3468933502898140  0.3295946017744504   T   T   T
  0.3394952560584444  0.5572033794311274  0.3642022743970542   T   T   T
  0.4730343132243614  0.6502804891783158  0.4027076047636723   T   T   T
  0.6161749146709289  0.1718916197805219  0.5141179711643035   T   T   T
  0.4555842975911432  0.0775356851641964  0.4831648750226136   T   T   T
  0.9058968359290950  0.2801280553129800  0.4031203118553954   T   T   T
  0.0090478167017152  0.4433057833149441  0.4258995375024345   T   T   T
  0.7058359230634558  0.9077286586489032  0.5925437812247936   T   T   T
  0.7320670752150205  0.7709371145414924  0.5871169298454968   T   T   T
  0.4960437404576399  0.3276162607151186  0.4785966944621704   T   T   T
  0.3883207532391736  0.3233269955389071  0.4433234147109701   T   T   T
  0.4977246890683015  0.5606122310577832  0.4706294263873165   T   T   T
  0.4871374252874172  0.7023416762718924  0.4933009107765295   T   T   T
  0.9507927890755385  0.9148657378787699  0.5981622070788347   T   T   T
  0.9616611184813743  0.7791289445930699  0.5871932233053144   T   T   T
  0.1328574955653369  0.3481749429338941  0.6007390861480614   T   T   T
  0.2585815370197688  0.3330959460943754  0.5752320445299201   T   T   T
  0.3098791950005138  0.2567076926471052  0.3539870703356709   T   T   T
  0.4325540696670390  0.3059267571640522  0.3541773321521611   T   T   T
  0.2274333989300847  0.2238895931323079  0.3523405708552983   T   T   T
  0.0801337325058514  0.1506822367536081  0.3595249801612762   T   T   T
  0.9148150412302152  0.0904037350050249  0.2921461024164821   T   T   T
  0.6482159368852702  0.1607703236846559  0.3335358952606250   T   T   T
 
 -0.15615632E-02  0.22336221E-02  0.58080883E-03
  0.78079076E-03  0.51029221E-02 -0.43938958E-03
 -0.65852230E-03  0.55494752E-03 -0.70991263E-03
 -0.26267416E-03  0.34740998E-02  0.18421134E-02
 -0.27751581E-02 -0.19460547E-02 -0.12994570E-02
  0.74872662E-03  0.40842011E-03  0.65708444E-03
 -0.49947577E-04 -0.21165150E-02  0.39454536E-03
 -0.99183004E-04 -0.11006790E-02  0.55673150E-03
  0.18053731E-02  0.98948331E-03 -0.29897604E-02
 -0.72077556E-03 -0.31477028E-02  0.13533755E-02
  0.60305057E-03  0.36830305E-03 -0.67798467E-03
  0.22507384E-02 -0.18337858E-02  0.19105256E-02
 -0.38945865E-02 -0.19010794E-02 -0.87419663E-04
  0.23735245E-02  0.33481444E-02 -0.45165009E-03
  0.69257971E-03 -0.98393930E-03  0.13892481E-02
  0.34433917E-03  0.22761703E-02 -0.24349988E-02
  0.23876831E-02 -0.22280754E-02 -0.43207565E-03
  0.18584084E-02  0.65307273E-03 -0.38579867E-03
  0.96569372E-03  0.56342728E-03  0.18226807E-02
 -0.36005846E-03 -0.60374151E-03 -0.11534722E-02
  0.18347802E-03  0.45768543E-03  0.54113121E-04
  0.14399603E-02 -0.49369800E-03  0.29358454E-02
  0.12529530E-02 -0.68856709E-03 -0.28122234E-03
  0.18339137E-02 -0.39251112E-03 -0.25708867E-02
 -0.19893445E-02  0.16359389E-02  0.28380873E-02
  0.32017291E-02  0.33364620E-02 -0.13983068E-02
 -0.10923975E-02  0.14467325E-02 -0.12078893E-02
 -0.49470906E-03 -0.50645238E-03 -0.71738865E-03
  0.21000428E-03  0.20337709E-03 -0.70423198E-04
  0.76817412E-03 -0.52326069E-03 -0.46667488E-03
  0.25450520E-03 -0.22774516E-02  0.12144951E-02
 -0.91920669E-03 -0.19776017E-03 -0.21164262E-02
 -0.32312011E-02 -0.65119188E-03 -0.18070165E-02
  0.43856961E-03 -0.14224995E-02 -0.15419173E-02
 -0.71094661E-03 -0.14766561E-02 -0.12375793E-02
 -0.14108135E-05 -0.19931282E-02 -0.17162533E-02
  0.10200284E-02 -0.40211529E-03 -0.69737080E-04
  0.22972747E-02  0.97215545E-03  0.14287858E-02
  0.37068873E-02 -0.90831767E-03 -0.10983267E-02
 -0.44601707E-03 -0.66554908E-03 -0.22696384E-03
 -0.19668778E-02  0.10114044E-02  0.21557060E-02
 -0.46161530E-03  0.41005522E-02  0.50565005E-03
 -0.10371727E-02 -0.53344126E-03 -0.12975793E-02
  0.12368075E-02  0.11203300E-03 -0.43663154E-03
  0.36008323E-02 -0.10680258E-02  0.13969610E-02
  0.11463487E-04  0.98479548E-03  0.10656889E-02
  0.20947634E-02  0.34650584E-02  0.13529319E-02
  0.80823772E-03 -0.14997966E-03  0.15083428E-03
  0.00000000E+00  0.00000000E+00  0.00000000E+00
  0.00000000E+00  0.00000000E+00  0.00000000E+00
  0.00000000E+00  0.00000000E+00  0.00000000E+00
  0.00000000E+00  0.00000000E+00  0.00000000E+00
  0.00000000E+00  0.00000000E+00  0.00000000E+00
  0.00000000E+00  0.00000000E+00  0.00000000E+00
  0.00000000E+00  0.00000000E+00  0.00000000E+00
  0.00000000E+00  0.00000000E+00  0.00000000E+00
  0.00000000E+00  0.00000000E+00  0.00000000E+00
  0.00000000E+00  0.00000000E+00  0.00000000E+00
  0.00000000E+00  0.00000000E+00  0.00000000E+00
  0.00000000E+00  0.00000000E+00  0.00000000E+00
  0.00000000E+00  0.00000000E+00  0.00000000E+00
  0.00000000E+00  0.00000000E+00  0.00000000E+00
  0.00000000E+00  0.00000000E+00  0.00000000E+00
  0.00000000E+00  0.00000000E+00  0.00000000E+00
 -0.31182745E-02  0.71865740E-02 -0.34057208E-02
  0.27427116E-02 -0.32342569E-03  0.14270333E-02
 -0.14946884E-02 -0.22980772E-02 -0.27858106E-02
  0.17175609E-02  0.48077790E-02  0.56214310E-03
 -0.31905075E-02  0.21760647E-02 -0.51032606E-02
  0.23714480E-02  0.18113585E-02  0.40499103E-03
  0.44260420E-02 -0.15599306E-02 -0.64691539E-04
 -0.21989577E-02  0.51703480E-02  0.75828339E-03
 -0.57486356E-02 -0.40348464E-02 -0.50681403E-02
  0.28315728E-02  0.11845199E-02 -0.97539220E-02
  0.43963143E-02 -0.97408619E-02  0.19648477E-02
 -0.39896481E-02  0.14709130E-02 -0.78336870E-03
  0.21900099E-02 -0.27363046E-02  0.49959312E-02
  0.97628750E-03  0.29801574E-02 -0.84981366E-03
  0.14748165E-02 -0.38257538E-02 -0.48634307E-02
 -0.48052402E-02  0.52574944E-02 -0.45708353E-03
  0.28367010E-02 -0.41567579E-02 -0.46400315E-02
  0.97149154E-02  0.82256568E-02 -0.73678194E-03
 -0.70157861E-03 -0.60129949E-03 -0.38159208E-02
 -0.43654655E-02 -0.70858474E-04  0.35493678E-02
  0.10982566E-02 -0.69873029E-02 -0.43584565E-03
  0.48214595E-02  0.27253770E-02  0.32162388E-02
  0.28093500E-02 -0.60522191E-02 -0.36396897E-02
  0.43999302E-03 -0.11784882E-02 -0.47645573E-02
 -0.67366110E-03 -0.79880239E-03  0.44586980E-02
  0.39295031E-02  0.22418179E-02  0.40023078E-02
  0.10563442E-01 -0.30454100E-02  0.18866480E-01
  0.25815490E-02 -0.21101637E-03 -0.17129379E-02
 -0.14228565E-02  0.17453482E-02  0.54194577E-02
  0.12190054E-01  0.56631144E-03  0.73722145E-02
  0.21366056E-01  0.45261057E-02  0.18970507E-01
 -0.76738429E-02  0.24789485E-01 -0.24484102E-02
 -0.28970681E-01 -0.28852943E-01  0.78997289E-02
 -0.83057064E-02 -0.12051571E-01 -0.18975753E-02
  0.14453784E-02  0.76836873E-02  0.88888113E-02
  0.26772903E-01 -0.17761220E-01 -0.59953465E-02
  0.33183124E-01 -0.14243602E-01  0.67421043E-02
 -0.12745784E-01  0.19481853E-01  0.22701836E-01
  0.73013704E-02  0.48760323E-02 -0.81454331E-02
 -0.18035437E-01  0.21405507E-01 -0.15708009E-01
  0.49946651E-03  0.97804021E-02 -0.42181410E-02
  0.93701313E-03 -0.55796208E-03 -0.95964154E-02
 -0.20242123E-01  0.16081186E-01  0.27086515E-01
 -0.10677002E-01  0.20857207E-02 -0.89132284E-02
  0.11338485E-01  0.20500782E-02  0.15581753E-01
 -0.23643629E-01 -0.21403580E-01 -0.39272606E-02
 -0.53936607E-02  0.17480573E-01 -0.24356118E-01
  0.18682330E-01  0.27585768E-02 -0.18840561E-02
 -0.25550257E-02  0.14780169E-01  0.13546881E-01
  0.64486627E-02  0.65833734E-02  0.30247902E-01
  0.17672856E-02 -0.38577824E-02  0.79465127E-02
  0.53886174E-02 -0.24797738E-01 -0.67661506E-03
  0.96453595E-02  0.21171500E-01 -0.22653111E-01
  0.86505395E-02 -0.34605452E-01 -0.85812530E-02
 -0.13143707E-01 -0.74413517E-02  0.93465726E-02
  0.85224162E-02 -0.11432845E-01 -0.74400705E-02
  0.10669807E-01 -0.14243746E-01  0.70283223E-02
 -0.11442777E-01  0.11409005E-02  0.20443257E-02
 -0.95450249E-02  0.15018213E-02  0.44203694E-02
  0.10017795E-01 -0.79154050E-02 -0.27498311E-01
 -0.11529796E-01 -0.14150914E-01 -0.20322686E-01
 -0.43085597E-03  0.29890587E-01 -0.72347239E-02
  0.24592247E-01 -0.39819472E-02  0.12505500E-01
 -0.18735686E-02  0.87902075E-02  0.78083003E-02
  0.12918942E-01  0.11744394E-01 -0.71025940E-02
 -0.72727752E-03 -0.96394272E-02 -0.15769821E-01
  0.39208475E-01  0.27742994E-01  0.94961092E-02
 -0.30781199E-02 -0.17064919E-01 -0.12152238E-01
 -0.16486842E-01 -0.33530585E-01 -0.20003257E-01
 -0.10837124E-01  0.19154070E-02 -0.19952136E-01
 -0.71422907E-02 -0.35112468E-01  0.10068484E-02
  0.52800247E-01 -0.50575657E-02 -0.14152235E-01
 -0.72761912E-02 -0.38916036E-01 -0.18704424E-01
  0.13909373E-01  0.47287864E-02 -0.21442784E-01
  0.12527463E-01 -0.33134280E-01 -0.61034205E-03
  0.44407211E-02 -0.27883669E-02  0.32762021E-01
  0.11513655E-01  0.35330975E-02  0.14290104E-01
  0.21920874E-02 -0.52478650E-02 -0.56118687E-03
 -0.12714185E-01  0.15180577E-01 -0.19922001E-01
 -0.16997478E-01 -0.17933798E-01  0.29233980E-01
 -0.59019338E-02 -0.71189527E-02  0.10824479E-01
 -0.16085256E-01  0.71050780E-02 -0.64114367E-02
 -0.31462148E-02  0.16774761E-01  0.12940067E-01
  0.55169194E-02  0.77603969E-02  0.19624621E-01
  0.52047291E-01  0.17749878E-02 -0.53639908E-02
  0.64690893E-02 -0.90657078E-02  0.14710883E-01
 -0.63581323E-02 -0.15764876E-01  0.77509741E-02
  0.13818024E-01 -0.42689389E-02  0.12671097E-02
  0.55491202E-02 -0.50448128E-01  0.14995783E-02
  0.96244053E-02  0.40050162E-03 -0.56578886E-02
 -0.46694052E-03  0.13385242E-02  0.85685689E-02
 -0.23195736E-02  0.32732304E-01  0.28762517E-01
  0.19089723E-03  0.23263011E-02 -0.95297048E-03
 -0.34037884E-02  0.10280527E-01 -0.22556569E-02
  0.10217417E-01  0.78546122E-02 -0.46906966E-02
 -0.47240422E-02 -0.11153560E-01 -0.66410728E-02
 
           1
   1.00000000000000     
  0.51974854E+00  0.12689870E-01  0.12340875E-01  0.50723316E+00
  0.41391963E+00  0.83677579E-01  0.11642933E+00
  0.92824380E+00  0.58825871E+00  0.11135714E+00
  0.67613839E+00  0.33974702E+00  0.11379429E+00
  0.17582938E+00  0.84724822E+00  0.11763775E+00
  0.17694709E+00  0.58355862E+00  0.11369029E+00
  0.42290612E+00  0.33582571E+00  0.11486069E+00
  0.17292989E+00  0.87398522E-01  0.11513158E+00
  0.42439646E+00  0.83670752E+00  0.11516495E+00
  0.92953156E+00  0.33700592E+00  0.11363997E+00
  0.17410349E+00  0.33957243E+00  0.11337920E+00
  0.66854045E+00  0.91012270E-01  0.11270220E+00
  0.66777547E+00  0.83725004E+00  0.11405954E+00
  0.67961355E+00  0.58436780E+00  0.11422469E+00
  0.42567156E+00  0.58269047E+00  0.11456267E+00
  0.92354959E+00  0.83710729E+00  0.11376863E+00
  0.92333390E+00  0.85036434E-01  0.11405636E+00
  0.33303668E+00  0.16891847E+00  0.17988943E+00
  0.84785595E+00  0.43023695E+00  0.17793191E+00
  0.95792775E-01  0.66978902E+00  0.18030590E+00
  0.33625642E+00  0.92114966E+00  0.18180915E+00
  0.58713130E+00  0.17090042E+00  0.18099751E+00
  0.58059931E+00  0.41137265E+00  0.18174910E+00
  0.95275183E-01  0.41572507E+00  0.18178920E+00
  0.84094831E+00  0.66341013E+00  0.17982559E+00
  0.79866388E-01  0.91860172E+00  0.18547396E+00
  0.34133998E+00  0.41340595E+00  0.17973732E+00
  0.34020146E+00  0.66831243E+00  0.18186718E+00
  0.76409132E-01  0.16780439E+00  0.17770483E+00
  0.59060764E+00  0.92524556E+00  0.18038473E+00
  0.83267482E+00  0.17096633E+00  0.18123931E+00
  0.59491025E+00  0.66673936E+00  0.18017806E+00
  0.83579655E+00  0.92966244E+00  0.18410166E+00
  0.50620764E+00  0.25362474E+00  0.25192087E+00
  0.24797838E+00  0.14069694E-02  0.24802927E+00
  0.99811017E+00  0.74387840E+00  0.25750037E+00
  0.48764398E+00  0.98683709E+00  0.24820466E+00
  0.39487440E-02  0.49854304E+00  0.24830072E+00
  0.76148793E+00  0.51105927E+00  0.24765828E+00
  0.24883468E+00  0.75294543E+00  0.24732416E+00
  0.75416294E+00  0.26673298E+00  0.24736791E+00
  0.26893860E+00  0.25612080E+00  0.24664259E+00
  0.25870565E+00  0.51045910E+00  0.24726333E+00
  0.19163941E-01  0.26697117E+00  0.25574746E+00
  0.50963231E+00  0.50754937E+00  0.25221980E+00
  0.49535173E+00  0.74448573E+00  0.24903869E+00
  0.99372012E-02  0.54592914E-02  0.25271776E+00
  0.73384250E+00  0.13397285E-01  0.25633713E+00
  0.76133085E+00  0.75631235E+00  0.25142680E+00
  0.50516998E+00  0.25522000E+00  0.45922160E-01
  0.25519003E+00  0.52500000E-02  0.45922160E-01
  0.52100000E-02  0.75524000E+00  0.45922160E-01
  0.50515997E+00  0.52700000E-02  0.45922160E-01
  0.51299800E-02  0.50519999E+00  0.45922160E-01
  0.75522998E+00  0.50526997E+00  0.45922160E-01
  0.25512001E+00  0.75525997E+00  0.45922160E-01
  0.75509999E+00  0.25529000E+00  0.45922160E-01
  0.25525001E+00  0.25516000E+00  0.45922160E-01
  0.25513999E+00  0.50516995E+00  0.45922160E-01
  0.52600000E-02  0.25527000E+00  0.45922160E-01
  0.50518000E+00  0.50516995E+00  0.45922160E-01
  0.50511001E+00  0.75520000E+00  0.45922160E-01
  0.51800000E-02  0.52200000E-02  0.45922160E-01
  0.75517000E+00  0.52400000E-02  0.45922160E-01
  0.75518999E+00  0.75517998E+00  0.45922160E-01
  0.74281315E+00  0.83236824E+00  0.34587347E+00
  0.14912482E+00  0.77419969E+00  0.33486730E+00
  0.71617816E+00  0.50195017E+00  0.37069060E+00
  0.76509974E-01  0.90650522E+00  0.40077815E+00
  0.33493145E+00  0.84904696E+00  0.58311540E+00
  0.86716093E+00  0.82286756E+00  0.46937987E+00
  0.47306920E+00  0.96842938E+00  0.34894477E+00
  0.90866720E+00  0.90595429E-01  0.51576800E+00
  0.14690524E+00  0.51741137E+00  0.34242883E+00
  0.34399447E+00  0.96302423E+00  0.43756499E+00
  0.32670578E+00  0.18695437E+00  0.56906231E+00
  0.59612419E+00  0.29429912E+00  0.60706779E+00
  0.15381556E+00  0.64615005E+00  0.45579244E+00
  0.76713755E+00  0.26679943E+00  0.54392156E+00
  0.58007289E+00  0.14819502E+00  0.68397449E+00
  0.33951095E+00  0.66185524E+00  0.52861711E+00
  0.57348536E+00  0.87579985E+00  0.67701057E+00
  0.17431261E+00  0.22057632E+00  0.45442054E+00
  0.76555777E+00  0.60923132E+00  0.57136894E+00
  0.82554601E+00  0.47925013E+00  0.48795024E+00
  0.73406541E+00  0.67101250E-01  0.41224251E+00
  0.72709329E+00  0.26087277E+00  0.32144556E+00
  0.43668997E+00  0.57096304E+00  0.37929756E+00
  0.50903915E+00  0.14494849E+00  0.50953371E+00
  0.14207271E-01  0.36374495E+00  0.40735800E+00
  0.74758917E+00  0.85597596E+00  0.60802000E+00
  0.49836905E+00  0.37989011E+00  0.45132891E+00
  0.55301357E+00  0.67138900E+00  0.47577308E+00
  0.29067988E-01  0.88800209E+00  0.59526962E+00
  0.18671606E+00  0.36991365E+00  0.57146843E+00
  0.79925201E+00  0.92896008E+00  0.32954277E+00
  0.63585325E+00  0.77563532E+00  0.33689697E+00
  0.14564584E+00  0.67740328E+00  0.34176717E+00
  0.74147340E-01  0.78163399E+00  0.35402089E+00
  0.77943098E+00  0.52720005E+00  0.47142612E+00
  0.69372244E+00  0.43786386E+00  0.39692356E+00
  0.10958517E-01  0.13083018E+00  0.33399234E+00
  0.98936532E+00  0.86639366E+00  0.42225648E+00
  0.39832665E+00  0.95952622E+00  0.57625929E+00
  0.23360581E+00  0.83070479E+00  0.59117378E+00
  0.75511459E+00  0.77365724E+00  0.47314019E+00
  0.89793709E+00  0.91318188E+00  0.48768965E+00
  0.35979049E+00  0.91936046E+00  0.34341996E+00
  0.49680729E+00  0.88938035E+00  0.35412255E+00
  0.38263187E-02  0.16843259E+00  0.50263299E+00
  0.86327670E+00  0.14811963E+00  0.52877911E+00
  0.13190987E+00  0.45058012E+00  0.31689067E+00
  0.80536281E-01  0.44650399E+00  0.36533799E+00
  0.25628278E+00  0.96772846E+00  0.42634466E+00
  0.42410165E+00  0.74906059E-03  0.41595847E+00
  0.23158377E+00  0.89074259E-01  0.57122167E+00
  0.37678812E+00  0.16466198E+00  0.54326206E+00
  0.49100940E+00  0.24100975E+00  0.59572342E+00
  0.58706590E+00  0.24357955E+00  0.63650419E+00
  0.19889873E+00  0.75459926E+00  0.44851090E+00
  0.22870123E+00  0.64016080E+00  0.47402599E+00
  0.72666702E+00  0.28939215E+00  0.56950275E+00
  0.80894810E+00  0.36304186E+00  0.52528063E+00
  0.64791098E+00  0.20450098E+00  0.70874752E+00
  0.58748731E+00  0.53994214E-01  0.68156877E+00
  0.30732661E+00  0.56437344E+00  0.54215961E+00
  0.34509560E+00  0.74094421E+00  0.55006150E+00
  0.64544189E+00  0.87189463E+00  0.65573980E+00
  0.48552798E+00  0.83106128E+00  0.65815634E+00
  0.15766167E+00  0.11828668E+00  0.45020448E+00
  0.11591552E+00  0.24534389E+00  0.43358550E+00
  0.80132897E+00  0.57987897E+00  0.54416018E+00
  0.69160756E+00  0.52062038E+00  0.58766645E+00
  0.81725857E-01  0.28044987E-02  0.38899566E+00
  0.93204461E+00  0.55517781E+00  0.48322803E+00
  0.73435394E+00  0.99253691E+00  0.39171820E+00
  0.76475967E+00  0.57960910E-01  0.44112604E+00
  0.64341772E+00  0.54126132E+00  0.36890006E+00
  0.71815890E+00  0.34689335E+00  0.32959460E+00
  0.33949526E+00  0.55720338E+00  0.36420227E+00
  0.47303431E+00  0.65028049E+00  0.40270760E+00
  0.61617491E+00  0.17189162E+00  0.51411797E+00
  0.45558430E+00  0.77535685E-01  0.48316488E+00
  0.90589684E+00  0.28012806E+00  0.40312031E+00
  0.90478167E-02  0.44330578E+00  0.42589954E+00
  0.70583592E+00  0.90772866E+00  0.59254378E+00
  0.73206708E+00  0.77093711E+00  0.58711693E+00
  0.49604374E+00  0.32761626E+00  0.47859669E+00
  0.38832075E+00  0.32332700E+00  0.44332341E+00
  0.49772469E+00  0.56061223E+00  0.47062943E+00
  0.48713743E+00  0.70234168E+00  0.49330091E+00
  0.95079279E+00  0.91486574E+00  0.59816221E+00
  0.96166112E+00  0.77912894E+00  0.58719322E+00
  0.13285750E+00  0.34817494E+00  0.60073909E+00
  0.25858154E+00  0.33309595E+00  0.57523204E+00
  0.30987920E+00  0.25670769E+00  0.35398707E+00
  0.43255407E+00  0.30592676E+00  0.35417733E+00
  0.22743340E+00  0.22388959E+00  0.35234057E+00
  0.80133733E-01  0.15068224E+00  0.35952498E+00
  0.91481504E+00  0.90403735E-01  0.29214610E+00
  0.64821594E+00  0.16077032E+00  0.33353590E+00
  0.00000000E+00  0.00000000E+00  0.00000000E+00
  0.00000000E+00  0.00000000E+00  0.00000000E+00
  0.00000000E+00  0.00000000E+00  0.00000000E+00
  0.00000000E+00  0.00000000E+00  0.00000000E+00
  0.00000000E+00  0.00000000E+00  0.00000000E+00
  0.00000000E+00  0.00000000E+00  0.00000000E+00
  0.00000000E+00  0.00000000E+00  0.00000000E+00
  0.00000000E+00  0.00000000E+00  0.00000000E+00
  0.00000000E+00  0.00000000E+00  0.00000000E+00
  0.00000000E+00  0.00000000E+00  0.00000000E+00
  0.00000000E+00  0.00000000E+00  0.00000000E+00
  0.00000000E+00  0.00000000E+00  0.00000000E+00
  0.00000000E+00  0.00000000E+00  0.00000000E+00
  0.00000000E+00  0.00000000E+00  0.00000000E+00
  0.00000000E+00  0.00000000E+00  0.00000000E+00
  0.00000000E+00  0.00000000E+00  0.00000000E+00
  0.00000000E+00  0.00000000E+00  0.00000000E+00
  0.00000000E+00  0.00000000E+00  0.00000000E+00
  0.00000000E+00  0.00000000E+00  0.00000000E+00
  0.00000000E+00  0.00000000E+00  0.00000000E+00
  0.00000000E+00  0.00000000E+00  0.00000000E+00
  0.00000000E+00  0.00000000E+00  0.00000000E+00
  0.00000000E+00  0.00000000E+00  0.00000000E+00
  0.00000000E+00  0.00000000E+00  0.00000000E+00
  0.00000000E+00  0.00000000E+00  0.00000000E+00
  0.00000000E+00  0.00000000E+00  0.00000000E+00
  0.00000000E+00  0.00000000E+00  0.00000000E+00
  0.00000000E+00  0.00000000E+00  0.00000000E+00
  0.00000000E+00  0.00000000E+00  0.00000000E+00
  0.00000000E+00  0.00000000E+00  0.00000000E+00
  0.00000000E+00  0.00000000E+00  0.00000000E+00
  0.00000000E+00  0.00000000E+00  0.00000000E+00
  0.00000000E+00  0.00000000E+00  0.00000000E+00
  0.00000000E+00  0.00000000E+00  0.00000000E+00
  0.00000000E+00  0.00000000E+00  0.00000000E+00
  0.00000000E+00  0.00000000E+00  0.00000000E+00
  0.00000000E+00  0.00000000E+00  0.00000000E+00
  0.00000000E+00  0.00000000E+00  0.00000000E+00
  0.00000000E+00  0.00000000E+00  0.00000000E+00
  0.00000000E+00  0.00000000E+00  0.00000000E+00
  0.00000000E+00  0.00000000E+00  0.00000000E+00
  0.00000000E+00  0.00000000E+00  0.00000000E+00
  0.00000000E+00  0.00000000E+00  0.00000000E+00