1/32_ML_O            
   1.00000000000000     
     9.8291997910000006    0.0000000000000000    0.0000000000000000
     4.9145998955000003    8.5123367178000002    0.0000000000000000
     0.0000000000000000    0.0000000000000000   19.0128002167000005
   Ni   O 
    64     1
Selective dynamics
Direct
  0.8327397700000034  0.5848465560000022  0.2711432870000010   F   F   F
  0.3327867980000008  0.0844697879999998  0.2704246639999965   F   F   F
  0.8330972790000004  0.0844843389999994  0.2705219090000028   F   F   F
  0.3327105939999981  0.5848667619999972  0.2707228960000023   F   F   F
  0.5829190019999970  0.8349167109999982  0.2711634930000031   F   F   F
  0.8327777980000022  0.8347151279999991  0.2711151239999978   F   F   F
  0.0826775880000028  0.3346015210000033  0.2708706559999996   F   F   F
  0.8330727219999972  0.3345142300000035  0.2709999679999981   F   F   F
  0.5830215809999970  0.5844401120000029  0.2713987529999997   F   F   F
  0.0826841149999993  0.5845832230000028  0.2711662050000001   F   F   F
  0.0827012580000002  0.0848529559999989  0.2705956100000009   F   F   F
  0.5829693680000005  0.0844429140000003  0.2714003030000001   F   F   F
  0.3330761189999976  0.8346145750000034  0.2709240020000010   F   F   F
  0.0825572310000027  0.8344835640000028  0.2708239849999998   F   F   F
  0.3327263890000012  0.3345220980000008  0.2714989779999968   F   F   F
  0.5831073519999990  0.3344676489999969  0.2715477650000011   F   F   F
  0.9162696439016240  0.6676311594502652  0.3762816131902969   T   T   T
  0.9168252488996002  0.4178158469128636  0.3759802034226518   T   T   T
  0.6663891412094594  0.6682122752392819  0.3760780729542343   T   T   T
  0.1671218098423382  0.1671078471523137  0.3763665692461284   T   T   T
  0.9170325806994961  0.1669756744435446  0.3759538311543529   T   T   T
  0.9164678686716260  0.9174896998317192  0.3761174202394368   T   T   T
  0.4158024501788377  0.9186446302740154  0.3766105943689654   T   T   T
  0.4158190279335727  0.1670707798400682  0.3768436001266773   T   T   T
  0.6668345802165129  0.1667773793584630  0.3762078930987807   T   T   T
  0.1663348140753949  0.6675160835574464  0.3761037023721558   T   T   T
  0.4157965024707728  0.6681190977357198  0.3759616184560837   T   T   T
  0.4158443630565890  0.4177657934968915  0.3761219216864198   T   T   T
  0.6648139521051768  0.9183045954759065  0.3777144702963156   T   T   T
  0.1669017388182129  0.4161524808249514  0.3776894902623962   T   T   T
  0.6666179097353979  0.4174643833558405  0.3764777224905426   T   T   T
  0.1671484477142274  0.9182375821391099  0.3772225925680036   T   T   T
  0.9944204745900737  0.2530823650822607  0.4808582578744273   T   T   T
  0.5029771726361897  0.2530356664493429  0.4810016941548147   T   T   T
 -0.0000062488015418  0.7501016144342187  0.4819158979491567   T   T   T
  0.5029766024454458  0.7443581616979568  0.4809481910446246   T   T   T
  0.7506736038719961  0.7496080650417106  0.4819476392267185   T   T   T
  0.9992327561295354  0.5011358918985799  0.4818815397755380   T   T   T
  0.7501058220946276  0.5001418101500279  0.4819724026381519   T   T   T
  0.2477495350990999  0.9978134248918485  0.4868633996336044   T   T   T
 -0.0004965227517910 -0.0001851140064150  0.4816831174226828   T   T   T
  0.5045250773048710  0.9978301407951689  0.4873018309866111   T   T   T
  0.2498325654291855  0.7493680756769781  0.4816805680058154   T   T   T
  0.7510432465554537 -0.0002256602024070  0.4819944739127485   T   T   T
  0.2476089701106308  0.2546676067042976  0.4871658197389659   T   T   T
  0.7501747154128405  0.2500236119187983  0.4820394186740491   T   T   T
  0.2497263266232148  0.5010402243536464  0.4818884853357265   T   T   T
  0.5000277644630051  0.5001352225251452  0.4820383162759540   T   T   T
  0.9970725180000031  0.2558556800000034  0.1637004020000035   F   F   F
  0.4999617639999983  0.2500875890000032  0.1643123180000003   F   F   F
  0.9968841080000033  0.7476992010000032  0.1643590629999991   F   F   F
  0.5054475669999974  0.7476858500000034  0.1651548450000035   F   F   F
  0.7507219310000011  0.7486395239999979  0.1651830520000033   F   F   F
  0.9979411360000014  0.5014025569999987  0.1651978490000019   F   F   F
  0.7507272960000009  0.5014379019999993  0.1654730440000023   F   F   F
  0.2484077510000020  0.9989653230000002  0.1655050219999978   F   F   F
  0.0026835649999981  0.9989392760000015  0.1655775309999967   F   F   F
  0.5037178990000015  0.9979203339999998  0.1655856369999995   F   F   F
  0.2483221740000019  0.7533767819999966  0.1658259479999984   F   F   F
  0.7484136819999989  0.9978805780000002  0.1658943890000018   F   F   F
  0.2473094610000004  0.2543786760000017  0.1660089189999994   F   F   F
  0.7483561640000005  0.2543461619999974  0.1660180840000010   F   F   F
  0.2472922059999973  0.4989472629999980  0.1662971379999973   F   F   F
  0.5037960410000011  0.4989156720000025  0.1664085239999977   F   F   F
  0.3330688362701643  0.0832531171771426  0.5455306381438817   T   T   T
 
  0.00000000E+00  0.00000000E+00  0.00000000E+00
  0.00000000E+00  0.00000000E+00  0.00000000E+00
  0.00000000E+00  0.00000000E+00  0.00000000E+00
  0.00000000E+00  0.00000000E+00  0.00000000E+00
  0.00000000E+00  0.00000000E+00  0.00000000E+00
  0.00000000E+00  0.00000000E+00  0.00000000E+00
  0.00000000E+00  0.00000000E+00  0.00000000E+00
  0.00000000E+00  0.00000000E+00  0.00000000E+00
  0.00000000E+00  0.00000000E+00  0.00000000E+00
  0.00000000E+00  0.00000000E+00  0.00000000E+00
  0.00000000E+00  0.00000000E+00  0.00000000E+00
  0.00000000E+00  0.00000000E+00  0.00000000E+00
  0.00000000E+00  0.00000000E+00  0.00000000E+00
  0.00000000E+00  0.00000000E+00  0.00000000E+00
  0.00000000E+00  0.00000000E+00  0.00000000E+00
  0.00000000E+00  0.00000000E+00  0.00000000E+00
  0.00000000E+00  0.00000000E+00  0.00000000E+00
  0.00000000E+00  0.00000000E+00  0.00000000E+00
  0.00000000E+00  0.00000000E+00  0.00000000E+00
  0.00000000E+00  0.00000000E+00  0.00000000E+00
  0.00000000E+00  0.00000000E+00  0.00000000E+00
  0.00000000E+00  0.00000000E+00  0.00000000E+00
  0.00000000E+00  0.00000000E+00  0.00000000E+00
  0.00000000E+00  0.00000000E+00  0.00000000E+00
  0.00000000E+00  0.00000000E+00  0.00000000E+00
  0.00000000E+00  0.00000000E+00  0.00000000E+00
  0.00000000E+00  0.00000000E+00  0.00000000E+00
  0.00000000E+00  0.00000000E+00  0.00000000E+00
  0.00000000E+00  0.00000000E+00  0.00000000E+00
  0.00000000E+00  0.00000000E+00  0.00000000E+00
  0.00000000E+00  0.00000000E+00  0.00000000E+00
  0.00000000E+00  0.00000000E+00  0.00000000E+00
  0.00000000E+00  0.00000000E+00  0.00000000E+00
  0.00000000E+00  0.00000000E+00  0.00000000E+00
  0.00000000E+00  0.00000000E+00  0.00000000E+00
  0.00000000E+00  0.00000000E+00  0.00000000E+00
  0.00000000E+00  0.00000000E+00  0.00000000E+00
  0.00000000E+00  0.00000000E+00  0.00000000E+00
  0.00000000E+00  0.00000000E+00  0.00000000E+00
  0.00000000E+00  0.00000000E+00  0.00000000E+00
  0.00000000E+00  0.00000000E+00  0.00000000E+00
  0.00000000E+00  0.00000000E+00  0.00000000E+00
  0.00000000E+00  0.00000000E+00  0.00000000E+00
  0.00000000E+00  0.00000000E+00  0.00000000E+00
  0.00000000E+00  0.00000000E+00  0.00000000E+00
  0.00000000E+00  0.00000000E+00  0.00000000E+00
  0.00000000E+00  0.00000000E+00  0.00000000E+00
  0.00000000E+00  0.00000000E+00  0.00000000E+00
  0.00000000E+00  0.00000000E+00  0.00000000E+00
  0.00000000E+00  0.00000000E+00  0.00000000E+00
  0.00000000E+00  0.00000000E+00  0.00000000E+00
  0.00000000E+00  0.00000000E+00  0.00000000E+00
  0.00000000E+00  0.00000000E+00  0.00000000E+00
  0.00000000E+00  0.00000000E+00  0.00000000E+00
  0.00000000E+00  0.00000000E+00  0.00000000E+00
  0.00000000E+00  0.00000000E+00  0.00000000E+00
  0.00000000E+00  0.00000000E+00  0.00000000E+00
  0.00000000E+00  0.00000000E+00  0.00000000E+00
  0.00000000E+00  0.00000000E+00  0.00000000E+00
  0.00000000E+00  0.00000000E+00  0.00000000E+00
  0.00000000E+00  0.00000000E+00  0.00000000E+00
  0.00000000E+00  0.00000000E+00  0.00000000E+00
  0.00000000E+00  0.00000000E+00  0.00000000E+00
  0.00000000E+00  0.00000000E+00  0.00000000E+00
  0.00000000E+00  0.00000000E+00  0.00000000E+00
