 Layer\(8)                              
   1.00000000000000     
    10.1184997559000003    0.0000000000000000    0.0000000000000000
    -5.0592498779000001    8.7628778367999995    0.0000000000000000
     0.0000000000000000    0.0000000000000000   30.4843997954999999
   Cu   O    H    C 
    64    32    62     2
Direct
  0.3960359406749441  0.0603981805684893  0.1145019566803707
  0.8958090962417246  0.5717794864716302  0.1145367995558316
  0.6661147274131841  0.3156845634618569  0.1124965212399703
  0.1514353956748703  0.8264838708455953  0.1133899357579923
  0.1653466452310852  0.5774418190856075  0.1155823934515481
  0.4003449115042029  0.3221867635249293  0.1108579731182354
  0.1473701669109181  0.0772604908001281  0.1118527069693161
  0.4031546627065988  0.8343192583726318  0.1148870232223954
  0.9078537374220551  0.3189766900384351  0.1116315241996135
  0.1587535719501265  0.3383346538191684  0.1145984153050972
  0.6548830420176737  0.0666948533103316  0.1115910094593180
  0.6585836113779880  0.8254636137150306  0.1155243593790843
  0.6461300043365112  0.5713952303032078  0.1118409781615151
  0.4144354943777345  0.5836509064687859  0.1144287280169947
  0.9068342659545892  0.8315439991757948  0.1096337939614647
  0.9054742887822289  0.0775104195101418  0.1120293487614129
  0.3310675820376147  0.1697372080719834  0.1773177188545700
  0.8470246307169483  0.4145030485077723  0.1784987260935889
  0.0836529657656768  0.6708356439664103  0.1798692653974954
  0.3342331872893478  0.9123560904073463  0.1814917892768612
  0.5706187652128266  0.1464630908468478  0.1802952134143006
  0.5813037524009452  0.4057765284109571  0.1767917258901010
  0.0906450879356099  0.4219275173192664  0.1818756403005053
  0.8294282136988261  0.6693405657550019  0.1768343376228953
  0.0711918863174629  0.9041655353438351  0.1778193834885207
  0.3355219831027114  0.4215767334437349  0.1767255429774245
  0.3481472748403069  0.6799382061640595  0.1809341913815183
  0.0696366888450697  0.1663210645272861  0.1785368033082608
  0.5790210194316208  0.9071879822867613  0.1797402699014444
  0.8311901595208723  0.1631132380099383  0.1750842873170140
  0.5847580231107076  0.6568908416999137  0.1806432071052287
  0.8331181735481266  0.9099163808512385  0.1779876696659782
  0.4850193183420692  0.2489950693934984  0.2473928669887124
  0.2442332633776745 -0.0004085728684515  0.2435303126745970
  0.0033901917908003  0.7538085810948544  0.2511403759669503
  0.5035828126132541 -0.0000312462709113  0.2490172650758087
 -0.0002617720538591  0.4989848189940809  0.2511769603717927
  0.7444312292144022  0.4907583325198058  0.2370791869756339
  0.2588661156593358  0.7627699345044407  0.2523554708670956
  0.7486597984337341  0.2488612732156351  0.2490478684831644
  0.2437355196594352  0.2501731881491361  0.2414668075014827
  0.2515187210678520  0.4917578654688328  0.2509435229045802
  0.9915419797141047  0.2597150019127903  0.2469493894547101
  0.4965507430499239  0.4937835465995470  0.2458689680047066
  0.5015747067410293  0.7493377197664773  0.2462793867625898
  0.9950929931904798  1.0038334913285920  0.2523793326080880
  0.7484903494480338  0.9996390641182250  0.2439509635917385
  0.7354151426959509  0.7432861071896684  0.2481981838480303
  0.4973168213499167  0.2438944378024273  0.0472478867941014
  0.2291672661525348 -0.0154716853741194  0.0431885962791042
 -0.0148077432662267  0.7412996284026471  0.0458453629740154
  0.4783644304826906 -0.0209824178213646  0.0453500685449892
 -0.0184452753374653  0.4818054058167860  0.0475742982507264
  0.7352455600044039  0.4831206762007109  0.0442973133361289
  0.2468585956238298  0.7365528816667798  0.0434679070108322
  0.7267391566279914  0.2321029419063571  0.0468082059402320
  0.2250865094670967  0.2342863488052217  0.0429757972296904
  0.2391578396670671  0.4947330873852043  0.0485334252174749
 -0.0104603750897967  0.2452812544384735  0.0404299577866575
  0.4803988114231215  0.4803068768401214  0.0411751422591165
  0.4777698123897746  0.7307797378259516  0.0482469597782772
  0.9863568129085448  0.9924827775874658  0.0427857930775700
  0.7423182603984302  0.9950066070770852  0.0436944251037170
  0.7340193029747473  0.7351547114988728  0.0459305183077914
  1.0099975797531715  1.0221802242559612  0.3336766759977133
  0.3186609605880227  0.3022007439256572  0.3865700672124667
  0.5566996878208075  0.0972569741786780  0.3340459329841893
  0.5875782348281163  0.5020227550008023  0.4305821476264901
  0.8538101530771992  0.1973593608089368  0.5874927170389409
  0.2596629777329506  0.7338198456040804  0.3627859123467294
  0.9000837999772795  0.4541517580477575  0.3995628013759194
  0.1062859422752984  0.6793619898791560  0.5212108838981044
  0.6805302387798685  0.3422043761808789  0.4703589032767786
  0.9905854896775937  0.2636173872122111  0.3634999083775141
  0.3033766144818422  0.1946169630401230  0.5601597755112151
  0.6576012577170449  0.6944436220358330  0.5386229937265404
  0.9700798167044793  0.3550059323211577  0.5059743118537088
  0.1992446173960918  0.0099584796687472  0.4701032885913200
  0.3334578932846555  0.8749978763927233  0.5867105934327402
  0.2041150071785502  0.3064432121341590  0.4943753690459578
  0.0279299683758008  0.7502310698479079  0.6405649880401538
  0.3077075113780574  0.5000740523861402  0.3248912653126787
  1.0203488647061030 -0.0054134443118633  0.5960742237418218
  0.4485426765854219  0.5974993760618419  0.4838968897820211
  0.3062656261497750  0.7525858455255102  0.4498504991288145
  0.2054041042539030  0.9607861168932162  0.3826088387566317
  0.7923339015029236  1.0210486331084132  0.4161849853914829
  0.5945902766108127  0.2323717016236065  0.5878291901197494
  0.8418694489976906  0.7848910269861806  0.4128293991711676
  0.6317964641394336  0.9487066167841681  0.5510725717936528
  0.5748389017372993  0.8089821348007658  0.3392579743408717
  0.5904357036650961  1.0435508513369387  0.4666947167725117
  0.9300377215079959  0.8271676674153658  0.5047141684812073
  0.7336385265905782  0.5476397196260233  0.6011534047611037
  0.9355729120764940  0.5997455463934680  0.3010060591377503
  0.7941280990970248  0.7271468440888175  0.3097483624000205
  0.9678164998031994  0.0974936327752175  0.3404010232823725
  0.9248552454266697  0.9190599300716907  0.3247755552035376
  0.4278178018962375  0.3740614183869121  0.3951512073886877
  0.3019059262396872  0.1993433822012550  0.3806734542617550
  0.5686129439457412  0.0077084904088598  0.3266670494608240
  0.4640286112570090  0.0607375602523778  0.3514741198234468
  0.6244978154589620  0.4379720781585483  0.4451251975083632
  0.5319560448510261  0.5402811456438480  0.4495492440828149
  0.7782079613854579  0.0933847940695919  0.5776630204311333
  0.9302905326131158  0.1769083773985416  0.6005731684967910
  0.2262377268136185  0.8114996145569416  0.3622263283124174
  0.2377294420121260  0.6608130814761947  0.3403477906399617
  0.8799967699225550  0.5224198004458405  0.3821726270268862
  0.8146558857469802  0.3941206812142336  0.4192121887203190
  0.1871323277964992  0.7445396335058319  0.5415815882511084
  1.0440963077948324  0.7265620683574003  0.5194625480433294
  0.7508198832536526  0.3949407553464462  0.4964277586804340
  0.6450787652846548  0.2311451972250503  0.4742375544388358
  0.0979409084106955  0.3099614805543215  0.3741606439444448
  0.9495008741749930  0.3325353993874763  0.3723618943971950
  0.4165801380457711  0.2523948339993504  0.5618721290064946
  0.2754495965109995  0.2536434243779820  0.5400282951667779
  0.5717232482926590  0.6623558739323168  0.5152732847098392
  0.6648332069601390  0.7912836820502311  0.5518340362673313
  1.0134462867464331  0.4653599512473070  0.5108670689106158
  0.9329586949388528  0.3205424680661962  0.5376486089293968
  0.2932374800098802  0.0140425476695776  0.4830437154405686
  0.1221441114401527  0.9706036052057884  0.4933035980331965
  0.3839533319096149  0.9841500123149882  0.5887776294514377
  0.2532978152115476  0.8361629357872862  0.6098070362664940
  1.1095290304399150  0.3150039445478753  0.4950594229808670
  0.2019102988838996  0.2354932732537456  0.4703305710191527
  0.9452168608118294  0.6828614019892216  0.6213902301030869
  0.0363040711687971  0.8497463297010841  0.6313316343721829
  0.4085876768981211  0.5999218007621258  0.3278603083849916
  0.3240978009598231  0.4199479764421377  0.3376911229805724
  0.9777835826404923  0.9462389646950355  0.5678595749139510
  0.1302173616448837  0.0490845849887832  0.5871211829753299
  0.4123508594717018  0.6621831433997325  0.4722081402770077
  0.3582997090254066  0.4908297291562144  0.4863583429320516
  0.2101209939420385  0.7167544016701464  0.4649287242374003
  0.2898238844103697  0.7410919335555823  0.4169595597896349
  0.1296765772568412  0.9804835330834279  0.3712403143226703
  0.2057952231873298  0.9713816891690524  0.4156852470797588
  0.8362037830098729  0.9474134294751334  0.4192085286072676
  0.8737485984455491  1.1140304536290921  0.4043807000250225
  0.6540172731978565  0.3378539379387704  0.5960487995577356
  0.6748439868383530  0.2094097922468242  0.5891901510972638
  0.8788586450100533  0.7711035262594645  0.3867197976771209
  0.7480885972832293  0.6843357282531617  0.4164396938003801
  0.6384952493645802  0.9938354235124665  0.5218006921688789
  0.5319585299528965  0.9214607855172066  0.5654152542670574
  0.6460583126254037  0.7735513520056407  0.3300623932196050
  0.6246447464527655  0.8667635183837665  0.3667391663786178
  0.4942183794332607  0.9495186771843996  0.4585182139018359
  0.6713874493649529  1.0363820400730390  0.4455108963225237
  0.9125754633918940  0.8083977673932998  0.4741047634448686
  0.8240369918341128  0.7793621543954927  0.5181381665142296
  0.7083007915132901  0.5834674152154304  0.6290569966753912
  0.6834763213060802  0.5756380952860650  0.5772687581493399
  0.6087710932267999  0.4750324509880501  0.3459678246893687
  0.7414977064559601  0.4062383166626435  0.3388019644230436
  0.7998510166710826  0.5944401728034421  0.3200353360027461
  0.7236778537529792  0.5041749917609017  0.3371561978588196
 
 -0.33215995E-02  0.28695565E-02  0.27763960E-02
 -0.35165557E-02 -0.10732761E-02 -0.18258989E-02
  0.40526281E-03 -0.64951110E-03 -0.95694205E-03
  0.24355652E-02  0.21853625E-05 -0.17501624E-02
  0.69652489E-03  0.41507457E-02 -0.21585112E-03
 -0.10615233E-02 -0.29659253E-02  0.28252470E-02
  0.36960435E-02 -0.28502182E-02  0.44153153E-02
  0.27828979E-02 -0.13951622E-02 -0.71703175E-03
  0.41175367E-03  0.41147282E-03 -0.55906441E-03
 -0.21625926E-02 -0.12940870E-02 -0.54666791E-03
  0.29621693E-02 -0.18359110E-03  0.14939688E-02
  0.17961398E-02 -0.58452189E-03 -0.23115235E-02
  0.49168628E-03 -0.58170006E-03 -0.33027367E-02
 -0.55918361E-03  0.13691512E-02  0.15709496E-02
  0.14284093E-02 -0.95689976E-03  0.75953056E-03
 -0.31354907E-02 -0.15909050E-02  0.15064863E-02
 -0.12138130E-02  0.36909940E-02  0.24607789E-02
  0.95935981E-04 -0.14517736E-02  0.24653373E-04
  0.39934932E-02 -0.31222252E-02 -0.32950040E-02
 -0.16284271E-02  0.33512658E-03 -0.20532188E-02
  0.98546441E-03  0.41889495E-02  0.20436516E-02
 -0.15495038E-02  0.61173260E-03 -0.55975305E-03
 -0.13002125E-02 -0.13140519E-02 -0.20716510E-03
  0.14145439E-03  0.97442918E-03  0.10236191E-02
  0.76833240E-03 -0.18099479E-02  0.23927043E-02
 -0.95422773E-03 -0.22926956E-02 -0.17126330E-02
  0.18827057E-02  0.18399751E-02  0.30765529E-02
  0.23956675E-03  0.17922336E-02  0.68415300E-03
  0.11820147E-02 -0.10428673E-02  0.41914859E-02
  0.17998081E-02  0.92803512E-03  0.12156095E-02
 -0.21416942E-02 -0.26660553E-02  0.30581387E-03
  0.15024610E-02 -0.63370939E-03 -0.12817765E-02
 -0.11922673E-02  0.26853795E-03  0.48524511E-03
  0.16953556E-02  0.73906487E-03  0.23028174E-02
 -0.33516753E-03  0.37994754E-02 -0.22619545E-02
  0.32272900E-02  0.13021294E-02 -0.51540776E-02
  0.27607881E-02 -0.11786939E-02  0.18154419E-02
 -0.90524728E-03 -0.82048344E-03 -0.96570224E-04
 -0.45866981E-02 -0.34053876E-02 -0.68092443E-03
  0.35654729E-02 -0.15579768E-02 -0.11519274E-02
 -0.65149093E-04 -0.58732367E-03  0.22501756E-02
 -0.42736077E-03  0.26115807E-02  0.21637584E-02
 -0.24970690E-02 -0.36338298E-03  0.14570397E-02
  0.64407409E-03  0.59155069E-03  0.35712534E-02
 -0.19476755E-02  0.81325525E-03 -0.52615953E-03
 -0.16229022E-02  0.41283948E-03 -0.20630183E-02
 -0.15024616E-02 -0.31747001E-03  0.11765777E-02
  0.73425448E-03  0.56788237E-03 -0.12081453E-02
 -0.32172853E-02 -0.29057270E-02 -0.18316287E-02
 -0.16297217E-03  0.26089608E-03 -0.19937937E-02
 -0.84513985E-03 -0.19989809E-02 -0.62749558E-04
 -0.69483730E-03  0.13952086E-02  0.30421078E-02
 -0.57142561E-03 -0.45347048E-03 -0.24943256E-02
  0.14205900E-02  0.16191310E-03  0.79420362E-03
  0.15041156E-02 -0.14382820E-03  0.38902150E-02
 -0.27395949E-02 -0.73767142E-03 -0.58426787E-03
  0.63843255E-03  0.26213018E-03 -0.14647020E-02
  0.48670183E-03  0.27407696E-02  0.28275430E-02
 -0.17714478E-02 -0.63543434E-03 -0.40020729E-02
 -0.43182786E-02  0.96191439E-03 -0.77413657E-03
  0.40254890E-03  0.13335189E-02 -0.18893247E-02
  0.63727472E-03 -0.24722793E-02 -0.26280745E-02
 -0.11589204E-02 -0.12080256E-02  0.79548194E-03
  0.23601585E-02 -0.80704692E-03  0.73709846E-03
 -0.14107769E-03  0.14245558E-02  0.61546533E-03
  0.31247898E-02 -0.20872050E-02 -0.56637743E-02
  0.41081510E-02 -0.43742513E-03  0.57231047E-02
 -0.35469023E-03  0.28378611E-02  0.28226629E-02
  0.69851742E-02  0.48990621E-02  0.14305505E-02
  0.42903156E-02  0.38589306E-02 -0.30226657E-02
  0.16153440E-02 -0.32243355E-02  0.26270801E-02
 -0.14471566E-02 -0.57621513E-02 -0.22775617E-02
  0.13304922E-01 -0.31020269E-02 -0.88927880E-04
 -0.36020999E-02  0.35001821E-02 -0.77946983E-02
 -0.95517244E-03  0.61208619E-02  0.36290528E-03
  0.47601719E-02  0.86492872E-03 -0.13737547E-02
  0.12775579E-02 -0.14812620E-02 -0.48266412E-03
 -0.27197236E-02 -0.25917456E-02 -0.59747354E-02
 -0.25984620E-03  0.30117967E-04  0.20364954E-02
 -0.25084243E-02  0.12933813E-02 -0.63134270E-02
  0.50770756E-02 -0.71533344E-02 -0.36930647E-02
 -0.19311707E-02  0.24048170E-03  0.84299645E-03
 -0.79629592E-02  0.48540522E-02 -0.48698332E-03
 -0.26176166E-02 -0.14967306E-02  0.32987514E-02
  0.51325968E-02  0.77330610E-02 -0.13053562E-01
  0.32499822E-02  0.79612305E-02  0.28337073E-03
  0.67391316E-03  0.38086967E-02  0.12700798E-02
 -0.66090946E-02  0.48825864E-02  0.25599376E-02
 -0.39827364E-02  0.30363887E-02 -0.23650973E-02
  0.11567847E-02  0.58285216E-02  0.18879724E-02
 -0.28751183E-02 -0.29524734E-02 -0.24880679E-02
 -0.21944474E-02  0.78818225E-02  0.40776410E-02
 -0.24551394E-02 -0.15729531E-02 -0.54967089E-02
 -0.60236897E-02 -0.31354580E-02  0.22471293E-02
  0.35008473E-02  0.25594348E-02 -0.32724338E-03
  0.92499624E-02 -0.21981161E-02  0.98055843E-03
 -0.12053574E-01 -0.17661345E-01 -0.10463761E-01
 -0.45897288E-02  0.97710293E-02 -0.50875156E-02
 -0.63993993E-02 -0.22176057E-01  0.32446810E-01
  0.12289784E-02 -0.24579904E-02 -0.10243797E-01
 -0.12225872E-01 -0.13922784E-01 -0.16694657E-01
 -0.23419163E-01  0.47018713E-02 -0.18408735E-01
  0.31828319E-02  0.11116701E-01  0.73292696E-02
 -0.26410424E-01  0.92799339E-02 -0.11035294E-01
  0.21545438E-01  0.38794492E-02  0.13938296E-01
  0.21332807E-01 -0.13819416E-01 -0.26044481E-01
 -0.16820684E-01  0.15760666E-01 -0.81292111E-02
 -0.11012465E-03 -0.13954312E-01  0.11761298E-01
  0.70036481E-02  0.13420260E-01  0.25634601E-01
 -0.60901714E-02  0.17121882E-01  0.18388044E-01
 -0.11659407E-01 -0.23219837E-02 -0.11998352E-02
 -0.16854573E-01 -0.10187849E-01 -0.75628871E-02
 -0.92460935E-03 -0.10919009E-01  0.12022401E-01
  0.20004104E-01  0.49045824E-02  0.21430711E-01
 -0.33420080E-01  0.32959289E-02  0.34737344E-03
  0.18211537E-01  0.44500114E-03  0.18540206E-01
 -0.29716608E-01  0.33243141E-02  0.38815162E-02
 -0.25529407E-01 -0.92563243E-03  0.12611413E-01
  0.24562252E-02  0.16423679E-01 -0.15226332E-01
  0.16273571E-01 -0.34949449E-02 -0.32308469E-02
 -0.34539554E-01 -0.15343781E-01  0.10960153E-01
  0.57768699E-02  0.18784219E-02 -0.26881912E-01
  0.67603016E-02  0.17446692E-01 -0.24601424E-01
  0.18131438E-01 -0.97666774E-02  0.74967710E-02
 -0.31361423E-01 -0.12419222E-01  0.15508565E-01
 -0.10331828E-01  0.18201030E-01  0.13866962E-02
  0.30323202E-02  0.95569895E-02  0.29796909E-02
 -0.19159396E-01  0.19317422E-02 -0.80954455E-02
 -0.22139590E-01 -0.22752707E-01  0.22510256E-01
 -0.20365834E-01 -0.33416952E-02 -0.22975407E-01
  0.13422987E-01 -0.13505891E-01 -0.29361122E-01
  0.10122286E-01 -0.28090052E-02 -0.53984592E-02
 -0.18475900E-01 -0.71810685E-02  0.19591703E-01
 -0.24753798E-02 -0.83935114E-02 -0.49989241E-02
 -0.10796452E-01  0.25059125E-02  0.74685736E-02
  0.13650532E-01 -0.11960224E-01  0.11690732E-01
 -0.20728429E-01 -0.87810422E-02  0.93932098E-02
  0.53814737E-02  0.52171832E-02  0.32553412E-02
 -0.28370156E-01 -0.14228044E-01 -0.43190989E-01
 -0.11775985E-02 -0.26429918E-01  0.73831620E-02
 -0.71842720E-02  0.17310325E-01 -0.17444161E-01
  0.24587397E-01  0.13809656E-01 -0.15651228E-02
 -0.20911957E-01  0.91096558E-02 -0.31147895E-02
 -0.12770257E-01 -0.20775025E-01 -0.75982457E-02
  0.23641030E-02  0.13558203E-01 -0.13654573E-01
  0.42205508E-02 -0.20888662E-01  0.35119387E-02
  0.82593609E-02 -0.70442490E-02 -0.77097422E-02
  0.81915919E-02  0.17030889E-02 -0.31350206E-04
 -0.10402412E-01 -0.16248772E-01 -0.94859452E-02
  0.15811159E-01 -0.41439907E-02  0.57282934E-02
 -0.59685029E-03 -0.21397870E-03 -0.17720102E-01
  0.10101076E-01  0.21852643E-01  0.12101693E-02
 -0.15169376E-01  0.76285886E-02 -0.22215728E-01
  0.21944037E-01 -0.20415758E-02  0.85117339E-02
  0.99036133E-03  0.52703423E-04  0.39245716E-02
  0.32897515E-02  0.77096167E-02  0.23506715E-01
  0.11068397E-01 -0.49432476E-02  0.85085227E-02
  0.82563323E-02 -0.28218699E-01  0.34001641E-02
  0.59704059E-02  0.51449464E-03  0.47760277E-02
  0.37235454E-02 -0.45810231E-02 -0.59684292E-02
 
           1
   1.00000000000000     
  0.16747102E+00 -0.93247322E-02 -0.90254278E-02  0.17664610E+00
  0.39587140E+00  0.60725648E-01  0.11459303E+00
  0.89540032E+00  0.57165701E+00  0.11447690E+00
  0.66611772E+00  0.31561044E+00  0.11246513E+00
  0.15167622E+00  0.82648412E+00  0.11333252E+00
  0.16565232E+00  0.57791549E+00  0.11557531E+00
  0.40007077E+00  0.32184830E+00  0.11095065E+00
  0.14757281E+00  0.76935230E-01  0.11199755E+00
  0.40335009E+00  0.83416005E+00  0.11486350E+00
  0.90791791E+00  0.31902365E+00  0.11161318E+00
  0.15846601E+00  0.33818698E+00  0.11458048E+00
  0.65516531E+00  0.66673902E-01  0.11164002E+00
  0.65872777E+00  0.82539691E+00  0.11544853E+00
  0.64614541E+00  0.57132885E+00  0.11173264E+00
  0.41445835E+00  0.58380715E+00  0.11448026E+00
  0.90692083E+00  0.83143480E+00  0.10965871E+00
  0.90507364E+00  0.77328869E-01  0.11207877E+00
  0.33115823E+00  0.17015842E+00  0.17739844E+00
  0.84695128E+00  0.41433738E+00  0.17849953E+00
  0.83869488E-01  0.67047934E+00  0.17976118E+00
  0.33409137E+00  0.91239433E+00  0.18142444E+00
  0.57095517E+00  0.14694112E+00  0.18036225E+00
  0.58118552E+00  0.40584634E+00  0.17677336E+00
  0.90441611E-01  0.42177756E+00  0.18186884E+00
  0.82949779E+00  0.66945177E+00  0.17686792E+00
  0.71164546E-01  0.90395899E+00  0.17789787E+00
  0.33529686E+00  0.42131510E+00  0.17666936E+00
  0.34843833E+00  0.68014818E+00  0.18103511E+00
  0.69762628E-01  0.16652559E+00  0.17855925E+00
  0.57907833E+00  0.90706897E+00  0.17987777E+00
  0.83142099E+00  0.16321914E+00  0.17512416E+00
  0.58439424E+00  0.65658660E+00  0.18065324E+00
  0.83323050E+00  0.90984406E+00  0.17794562E+00
  0.48491681E+00  0.24902571E+00  0.24740878E+00
  0.24444298E+00  0.99967577E+00  0.24360585E+00
  0.35738614E-02  0.75424217E+00  0.25106618E+00
  0.50397606E+00  0.11734982E-03  0.24884819E+00
  0.99994382E+00  0.49885031E+00  0.25123651E+00
  0.74429495E+00  0.49066470E+00  0.23707602E+00
  0.25821851E+00  0.76238132E+00  0.25233313E+00
  0.74892327E+00  0.24868348E+00  0.24901008E+00
  0.24369557E+00  0.25010616E+00  0.24154062E+00
  0.25162550E+00  0.49205589E+00  0.25101450E+00
  0.99127446E+00  0.25967353E+00  0.24699719E+00
  0.49664815E+00  0.49385105E+00  0.24598612E+00
  0.50142862E+00  0.74943053E+00  0.24626213E+00
  0.99495616E+00  0.38806036E-02  0.25231166E+00
  0.74832375E+00  0.99960284E+00  0.24398956E+00
  0.73552011E+00  0.74335091E+00  0.24815855E+00
  0.49683306E+00  0.24356284E+00  0.47187803E-01
  0.22916605E+00  0.98455809E+00  0.43123193E-01
  0.98499467E+00  0.74107151E+00  0.45843305E-01
  0.47837537E+00  0.97917680E+00  0.45449861E-01
  0.98147238E+00  0.48175366E+00  0.47492475E-01
  0.73539519E+00  0.48313915E+00  0.44323366E-01
  0.24699904E+00  0.73653647E+00  0.43595520E-01
  0.72642631E+00  0.23201876E+00  0.46789040E-01
  0.22516456E+00  0.23431626E+00  0.42927750E-01
  0.23936233E+00  0.49504586E+00  0.48626179E-01
  0.98932830E+00  0.24520874E+00  0.40298675E-01
  0.48002693E+00  0.48041665E+00  0.41149748E-01
  0.47788568E+00  0.73093192E+00  0.48184983E-01
  0.98627873E+00  0.99220065E+00  0.42699583E-01
  0.74213480E+00  0.99486875E+00  0.43720520E-01
  0.73420651E+00  0.73506261E+00  0.45954698E-01
  0.10064921E-01  0.22342791E-01  0.33369687E+00
  0.31885069E+00  0.30196256E+00  0.38638427E+00
  0.55708073E+00  0.97207056E-01  0.33423367E+00
  0.58770511E+00  0.50234661E+00  0.43067474E+00
  0.85478003E+00  0.19791843E+00  0.58753964E+00
  0.26030717E+00  0.73426022E+00  0.36268676E+00
  0.90005947E+00  0.45378380E+00  0.39964898E+00
  0.10581414E+00  0.67870443E+00  0.52113617E+00
  0.68166815E+00  0.34185038E+00  0.47035599E+00
  0.99042921E+00  0.26401682E+00  0.36324421E+00
  0.30363147E+00  0.19531546E+00  0.56017168E+00
  0.65812105E+00  0.69454233E+00  0.53857793E+00
  0.97012156E+00  0.35483689E+00  0.50595848E+00
  0.19882795E+00  0.96627155E-02  0.46990730E+00
  0.33343393E+00  0.87500131E+00  0.58677740E+00
  0.20394090E+00  0.30659081E+00  0.49416827E+00
  0.28023569E-01  0.74941475E+00  0.64044384E+00
  0.30753038E+00  0.50010150E+00  0.32491892E+00
  0.19838861E-01  0.99514049E+00  0.59605825E+00
  0.44819858E+00  0.59732857E+00  0.48400510E+00
  0.30721411E+00  0.75346833E+00  0.44942229E+00
  0.20617956E+00  0.96169463E+00  0.38261813E+00
  0.79261782E+00  0.21483273E-01  0.41622665E+00
  0.59421570E+00  0.23292889E+00  0.58791317E+00
  0.84164909E+00  0.78523753E+00  0.41275182E+00
  0.63224336E+00  0.94937175E+00  0.55113450E+00
  0.57438629E+00  0.80864521E+00  0.33917636E+00
  0.59066856E+00  0.44450307E-01  0.46682848E+00
  0.92970533E+00  0.82698817E+00  0.50453386E+00
  0.73286431E+00  0.54728191E+00  0.60122712E+00
  0.93606494E+00  0.60003762E+00  0.30099532E+00
  0.79491684E+00  0.72689600E+00  0.30978053E+00
  0.96561752E+00  0.95478160E-01  0.34005777E+00
  0.92495917E+00  0.92017498E+00  0.32460867E+00
  0.42592002E+00  0.37153074E+00  0.39621558E+00
  0.30188713E+00  0.19906288E+00  0.38033742E+00
  0.56661026E+00  0.61196535E-02  0.32611940E+00
  0.46198241E+00  0.61274127E-01  0.35087025E+00
  0.62544668E+00  0.43924069E+00  0.44536562E+00
  0.52987543E+00  0.54134015E+00  0.44918725E+00
  0.78055863E+00  0.93827508E-01  0.57812025E+00
  0.93161031E+00  0.17533134E+00  0.59971881E+00
  0.22547464E+00  0.81329819E+00  0.36195966E+00
  0.23692234E+00  0.65922065E+00  0.34073360E+00
  0.88145468E+00  0.52395129E+00  0.38301354E+00
  0.81503096E+00  0.39607459E+00  0.41981538E+00
  0.18584755E+00  0.74427465E+00  0.54154223E+00
  0.41849282E-01  0.72539945E+00  0.51921446E+00
  0.75010548E+00  0.39369470E+00  0.49682214E+00
  0.64733560E+00  0.23170490E+00  0.47494056E+00
  0.94826101E-01  0.31033760E+00  0.37417204E+00
  0.95132609E+00  0.33258618E+00  0.37297008E+00
  0.41383296E+00  0.25277420E+00  0.56199946E+00
  0.27287374E+00  0.25353779E+00  0.54044200E+00
  0.57290311E+00  0.66423011E+00  0.51477381E+00
  0.66624209E+00  0.79088485E+00  0.55172805E+00
  0.91572823E-02  0.46360895E+00  0.51122660E+00
  0.93363680E+00  0.32075683E+00  0.53676678E+00
  0.29490108E+00  0.16033525E-01  0.48223670E+00
  0.12337875E+00  0.96948905E+00  0.49354952E+00
  0.38014529E+00  0.98273276E+00  0.58928637E+00
  0.25331526E+00  0.83824000E+00  0.60985252E+00
  0.11037402E+00  0.31609457E+00  0.49515717E+00
  0.20012702E+00  0.23571372E+00  0.47006501E+00
  0.94173059E+00  0.68026491E+00  0.62212865E+00
  0.34100665E-01  0.84936498E+00  0.63057796E+00
  0.40914362E+00  0.59838054E+00  0.32689716E+00
  0.32493790E+00  0.41962742E+00  0.33751403E+00
  0.97554789E+00  0.94541948E+00  0.56850225E+00
  0.12949380E+00  0.48126736E-01  0.58695720E+00
  0.41142684E+00  0.66246911E+00  0.47245314E+00
  0.35896634E+00  0.48946486E+00  0.48674184E+00
  0.20757139E+00  0.71575233E+00  0.46523686E+00
  0.29065342E+00  0.74168731E+00  0.41706635E+00
  0.12606095E+00  0.97885986E+00  0.36982349E+00
  0.20417078E+00  0.96836557E+00  0.41592744E+00
  0.83648148E+00  0.94938884E+00  0.41863630E+00
  0.87696651E+00  0.11560638E+00  0.40432936E+00
  0.65247035E+00  0.33889351E+00  0.59594662E+00
  0.67239652E+00  0.20703899E+00  0.58894090E+00
  0.87986590E+00  0.77265076E+00  0.38627188E+00
  0.74731383E+00  0.68195196E+00  0.41655490E+00
  0.63890958E+00  0.99303155E+00  0.52154778E+00
  0.53286527E+00  0.92165514E+00  0.56541423E+00
  0.64410312E+00  0.77169708E+00  0.32975122E+00
  0.62597089E+00  0.86629062E+00  0.36692708E+00
  0.49414718E+00  0.94949426E+00  0.45793693E+00
  0.67363261E+00  0.38875815E-01  0.44555059E+00
  0.91151157E+00  0.80926832E+00  0.47337601E+00
  0.82608921E+00  0.77912917E+00  0.51841738E+00
  0.70840168E+00  0.58347343E+00  0.62918574E+00
  0.68424135E+00  0.57651790E+00  0.57803986E+00
  0.60958291E+00  0.47446834E+00  0.34624694E+00
  0.74070354E+00  0.40301806E+00  0.33891350E+00
  0.80047042E+00  0.59449889E+00  0.32019201E+00
  0.72378446E+00  0.50365222E+00  0.33696041E+00
  0.00000000E+00  0.00000000E+00  0.00000000E+00
  0.00000000E+00  0.00000000E+00  0.00000000E+00
  0.00000000E+00  0.00000000E+00  0.00000000E+00
  0.00000000E+00  0.00000000E+00  0.00000000E+00
  0.00000000E+00  0.00000000E+00  0.00000000E+00
  0.00000000E+00  0.00000000E+00  0.00000000E+00
  0.00000000E+00  0.00000000E+00  0.00000000E+00
  0.00000000E+00  0.00000000E+00  0.00000000E+00
  0.00000000E+00  0.00000000E+00  0.00000000E+00
  0.00000000E+00  0.00000000E+00  0.00000000E+00
  0.00000000E+00  0.00000000E+00  0.00000000E+00
  0.00000000E+00  0.00000000E+00  0.00000000E+00
  0.00000000E+00  0.00000000E+00  0.00000000E+00
  0.00000000E+00  0.00000000E+00  0.00000000E+00
  0.00000000E+00  0.00000000E+00  0.00000000E+00
  0.00000000E+00  0.00000000E+00  0.00000000E+00
  0.00000000E+00  0.00000000E+00  0.00000000E+00
  0.00000000E+00  0.00000000E+00  0.00000000E+00
  0.00000000E+00  0.00000000E+00  0.00000000E+00
  0.00000000E+00  0.00000000E+00  0.00000000E+00
  0.00000000E+00  0.00000000E+00  0.00000000E+00
  0.00000000E+00  0.00000000E+00  0.00000000E+00
  0.00000000E+00  0.00000000E+00  0.00000000E+00
  0.00000000E+00  0.00000000E+00  0.00000000E+00
  0.00000000E+00  0.00000000E+00  0.00000000E+00
  0.00000000E+00  0.00000000E+00  0.00000000E+00
  0.00000000E+00  0.00000000E+00  0.00000000E+00
  0.00000000E+00  0.00000000E+00  0.00000000E+00
  0.00000000E+00  0.00000000E+00  0.00000000E+00
  0.00000000E+00  0.00000000E+00  0.00000000E+00
  0.00000000E+00  0.00000000E+00  0.00000000E+00
  0.00000000E+00  0.00000000E+00  0.00000000E+00
  0.00000000E+00  0.00000000E+00  0.00000000E+00
  0.00000000E+00  0.00000000E+00  0.00000000E+00
  0.00000000E+00  0.00000000E+00  0.00000000E+00
  0.00000000E+00  0.00000000E+00  0.00000000E+00
  0.00000000E+00  0.00000000E+00  0.00000000E+00
  0.00000000E+00  0.00000000E+00  0.00000000E+00
  0.00000000E+00  0.00000000E+00  0.00000000E+00
  0.00000000E+00  0.00000000E+00  0.00000000E+00
  0.00000000E+00  0.00000000E+00  0.00000000E+00
  0.00000000E+00  0.00000000E+00  0.00000000E+00
  0.00000000E+00  0.00000000E+00  0.00000000E+00
  0.00000000E+00  0.00000000E+00  0.00000000E+00
  0.00000000E+00  0.00000000E+00  0.00000000E+00
  0.00000000E+00  0.00000000E+00  0.00000000E+00
  0.00000000E+00  0.00000000E+00  0.00000000E+00
  0.00000000E+00  0.00000000E+00  0.00000000E+00
  0.00000000E+00  0.00000000E+00  0.00000000E+00
  0.00000000E+00  0.00000000E+00  0.00000000E+00
  0.00000000E+00  0.00000000E+00  0.00000000E+00
  0.00000000E+00  0.00000000E+00  0.00000000E+00
  0.00000000E+00  0.00000000E+00  0.00000000E+00
  0.00000000E+00  0.00000000E+00  0.00000000E+00
  0.00000000E+00  0.00000000E+00  0.00000000E+00
  0.00000000E+00  0.00000000E+00  0.00000000E+00
  0.00000000E+00  0.00000000E+00  0.00000000E+00
  0.00000000E+00  0.00000000E+00  0.00000000E+00
  0.00000000E+00  0.00000000E+00  0.00000000E+00
  0.00000000E+00  0.00000000E+00  0.00000000E+00
  0.00000000E+00  0.00000000E+00  0.00000000E+00
  0.00000000E+00  0.00000000E+00  0.00000000E+00
  0.00000000E+00  0.00000000E+00  0.00000000E+00
  0.00000000E+00  0.00000000E+00  0.00000000E+00
  0.00000000E+00  0.00000000E+00  0.00000000E+00
  0.00000000E+00  0.00000000E+00  0.00000000E+00
  0.00000000E+00  0.00000000E+00  0.00000000E+00
  0.00000000E+00  0.00000000E+00  0.00000000E+00
  0.00000000E+00  0.00000000E+00  0.00000000E+00
  0.00000000E+00  0.00000000E+00  0.00000000E+00
  0.00000000E+00  0.00000000E+00  0.00000000E+00
  0.00000000E+00  0.00000000E+00  0.00000000E+00
  0.00000000E+00  0.00000000E+00  0.00000000E+00
  0.00000000E+00  0.00000000E+00  0.00000000E+00
  0.00000000E+00  0.00000000E+00  0.00000000E+00
  0.00000000E+00  0.00000000E+00  0.00000000E+00
  0.00000000E+00  0.00000000E+00  0.00000000E+00
  0.00000000E+00  0.00000000E+00  0.00000000E+00
  0.00000000E+00  0.00000000E+00  0.00000000E+00
  0.00000000E+00  0.00000000E+00  0.00000000E+00
  0.00000000E+00  0.00000000E+00  0.00000000E+00
  0.00000000E+00  0.00000000E+00  0.00000000E+00
  0.00000000E+00  0.00000000E+00  0.00000000E+00
  0.00000000E+00  0.00000000E+00  0.00000000E+00