 Ni\(1\1\1)                             
   1.00000000000000     
     9.8291997910000006    0.0000000000000000    0.0000000000000000
     4.9145998955000003    8.5123367178000002    0.0000000000000000
     0.0000000000000000    0.0000000000000000   19.0128002167000005
   Ni   O    C    O    H    C    H 
    64     3     1     2     1     1     1
Selective dynamics
Direct
  0.8345918955055968  0.5838033884380230  0.2717923281315239   T   T   T
  0.3346824408432886  0.0833042465973420  0.2701331705995337   T   T   T
  0.8347498783593766  0.0841113892191590  0.2702519648550818   T   T   T
  0.3343852274645703  0.5841083290679198  0.2704735078714321   T   T   T
  0.5845997178774204  0.8336181070300795  0.2707333908240113   T   T   T
  0.8350079653579656  0.8335533183075332  0.2706766621002519   T   T   T
  0.0844361324729421  0.3340987286095041  0.2716849290860296   T   T   T
  0.8348238147728497  0.3344985681860428  0.2716264790700119   T   T   T
  0.5850794857010320  0.5838340008865439  0.2716336834706521   T   T   T
  0.0845156950035190  0.5838461790722228  0.2711862005306630   T   T   T
  0.0843938370210299  0.0846607164588357  0.2710014614863332   T   T   T
  0.5847325022849310  0.0835913785981160  0.2712986619141626   T   T   T
  0.3347014413591795  0.8341665613177961  0.2708387495392206   T   T   T
  0.0845485491865777  0.8338350250663321  0.2705371200376561   T   T   T
  0.3345545647259651  0.3339262083174793  0.2712630493013737   T   T   T
  0.5848685524414425  0.3338548307622743  0.2711522020649098   T   T   T
  0.9192530650157028  0.6664333192198099  0.3757978865163485   T   T   T
  0.9187287345970582  0.4172333209559241  0.3779488043070031   T   T   T
  0.6693108616529001  0.6651764388548376  0.3762502254112167   T   T   T
  0.1679921576862692  0.1667623821774697  0.3770731235656838   T   T   T
  0.9192147720390169  0.1665876177409880  0.3763553788950170   T   T   T
  0.9186585765231451  0.9174956764845188  0.3752677658158886   T   T   T
  0.4182831147135436  0.9167447503517594  0.3760995849088393   T   T   T
  0.4181342281050608  0.1662047282289117  0.3755156735938125   T   T   T
  0.6698637303991561  0.1660606273974430  0.3752358869566949   T   T   T
  0.1693928673734736  0.6670952527546821  0.3756781582508323   T   T   T
  0.4183574987748415  0.6669047534681616  0.3761384323007048   T   T   T
  0.4187793534107829  0.4172558573591059  0.3756400256004920   T   T   T
  0.6678156369439515  0.9173926686864865  0.3770833672538573   T   T   T
  0.1686810140871308  0.4166360954859866  0.3782285342416458   T   T   T
  0.6688243522795483  0.4162492984884452  0.3779397879217037   T   T   T
  0.1683469063432533  0.9175106443296843  0.3782781682609648   T   T   T
 -0.0021887021647441  0.2563293014345204  0.4853952507506261   T   T   T
  0.5035418007869420  0.2481341126349227  0.4787066206678454   T   T   T
  0.0007113378296307  0.7499374569500576  0.4786795331844250   T   T   T
  0.5081358153535083  0.7463206806628848  0.4802727829481844   T   T   T
  0.7513131292661447  0.7501147054654945  0.4795005566814467   T   T   T
  0.0059100973530377  0.5039782791971928  0.4850676042203053   T   T   T
  0.7524697657713506  0.4995748132169803  0.4861966926169697   T   T   T
  0.2493413118054045 -0.0005201372337662  0.4858331402539748   T   T   T
  0.0056229760021807  0.9976155404740970  0.4855016525767276   T   T   T
  0.5051070730654721 -0.0036554854699704  0.4858011215571806   T   T   T
  0.2512758049762411  0.7538501323863420  0.4855274289230405   T   T   T
  0.7496649368125777  0.9951661470621271  0.4845921041361783   T   T   T
  0.2533635398001204  0.2513584692693816  0.4841325787798748   T   T   T
  0.7491817149453976  0.2488524125574948  0.4838312650769549   T   T   T
  0.2543136705050354  0.4980022846725126  0.4843040158017185   T   T   T
  0.5059738300055999  0.4982394761821500  0.4856621650701745   T   T   T
  0.9970724670000024  0.2558556729999992  0.1637003960000030   F   F   F
  0.4999617989999976  0.2500875830000027  0.1643123180000003   F   F   F
  0.9968841629999972  0.7476992069999966  0.1643590660000029   F   F   F
  0.5054474789999972  0.7476858750000019  0.1651548480000002   F   F   F
  0.7507219769999978  0.7486395119999969  0.1651830500000031   F   F   F
  0.9979410790000003  0.5014025589999989  0.1651978470000017   F   F   F
  0.7507272960000009  0.5014379059999996  0.1654730480000026   F   F   F
  0.2484077359999972  0.9989653640000000  0.1655050250000016   F   F   F
  0.0026835399999996  0.9989392600000002  0.1655775309999967   F   F   F
  0.5037179199999997  0.9979203070000011  0.1655856309999990   F   F   F
  0.2483221529999966  0.7533767729999994  0.1658259459999982   F   F   F
  0.7484137009999969  0.9978805350000002  0.1658943890000018   F   F   F
  0.2473094730000014  0.2543786680000011  0.1660089160000027   F   F   F
  0.7483561820000020  0.2543461500000035  0.1660180820000008   F   F   F
  0.2472921950000000  0.4989472700000022  0.1662971330000005   F   F   F
  0.5037960519999984  0.4989156760000029  0.1664085250000014   F   F   F
  0.3350686675737328  0.0836826539674054  0.5452048795086925   T   T   T
  0.8355249198522325  0.0755726948266759  0.5443675545260875   T   T   T
  0.3358330628165685  0.5843365209861021  0.5450149391441343   T   T   T
  0.9388519675021147  0.4361097768576270  0.6105443481447638   T   T   T
  0.0052839422352529  0.5110713104379189  0.5890952190966564   T   T   T
 -0.0651988563818401  0.4147007548937027  0.6802329681718198   T   T   T
 -0.0096262794954858  0.4621633396041266  0.7033735732860942   T   T   T
  0.8677240450654981  0.3706762019329618  0.5657025108708431   T   T   T
  0.8200241833926297  0.3093294553933544  0.5964918905509969   T   T   T
 
  0.00000000E+00  0.00000000E+00  0.00000000E+00
  0.00000000E+00  0.00000000E+00  0.00000000E+00
  0.00000000E+00  0.00000000E+00  0.00000000E+00
  0.00000000E+00  0.00000000E+00  0.00000000E+00
  0.00000000E+00  0.00000000E+00  0.00000000E+00
  0.00000000E+00  0.00000000E+00  0.00000000E+00
  0.00000000E+00  0.00000000E+00  0.00000000E+00
  0.00000000E+00  0.00000000E+00  0.00000000E+00
  0.00000000E+00  0.00000000E+00  0.00000000E+00
  0.00000000E+00  0.00000000E+00  0.00000000E+00
  0.00000000E+00  0.00000000E+00  0.00000000E+00
  0.00000000E+00  0.00000000E+00  0.00000000E+00
  0.00000000E+00  0.00000000E+00  0.00000000E+00
  0.00000000E+00  0.00000000E+00  0.00000000E+00
  0.00000000E+00  0.00000000E+00  0.00000000E+00
  0.00000000E+00  0.00000000E+00  0.00000000E+00
  0.00000000E+00  0.00000000E+00  0.00000000E+00
  0.00000000E+00  0.00000000E+00  0.00000000E+00
  0.00000000E+00  0.00000000E+00  0.00000000E+00
  0.00000000E+00  0.00000000E+00  0.00000000E+00
  0.00000000E+00  0.00000000E+00  0.00000000E+00
  0.00000000E+00  0.00000000E+00  0.00000000E+00
  0.00000000E+00  0.00000000E+00  0.00000000E+00
  0.00000000E+00  0.00000000E+00  0.00000000E+00
  0.00000000E+00  0.00000000E+00  0.00000000E+00
  0.00000000E+00  0.00000000E+00  0.00000000E+00
  0.00000000E+00  0.00000000E+00  0.00000000E+00
  0.00000000E+00  0.00000000E+00  0.00000000E+00
  0.00000000E+00  0.00000000E+00  0.00000000E+00
  0.00000000E+00  0.00000000E+00  0.00000000E+00
  0.00000000E+00  0.00000000E+00  0.00000000E+00
  0.00000000E+00  0.00000000E+00  0.00000000E+00
  0.00000000E+00  0.00000000E+00  0.00000000E+00
  0.00000000E+00  0.00000000E+00  0.00000000E+00
  0.00000000E+00  0.00000000E+00  0.00000000E+00
  0.00000000E+00  0.00000000E+00  0.00000000E+00
  0.00000000E+00  0.00000000E+00  0.00000000E+00
  0.00000000E+00  0.00000000E+00  0.00000000E+00
  0.00000000E+00  0.00000000E+00  0.00000000E+00
  0.00000000E+00  0.00000000E+00  0.00000000E+00
  0.00000000E+00  0.00000000E+00  0.00000000E+00
  0.00000000E+00  0.00000000E+00  0.00000000E+00
  0.00000000E+00  0.00000000E+00  0.00000000E+00
  0.00000000E+00  0.00000000E+00  0.00000000E+00
  0.00000000E+00  0.00000000E+00  0.00000000E+00
  0.00000000E+00  0.00000000E+00  0.00000000E+00
  0.00000000E+00  0.00000000E+00  0.00000000E+00
  0.00000000E+00  0.00000000E+00  0.00000000E+00
  0.00000000E+00  0.00000000E+00  0.00000000E+00
  0.00000000E+00  0.00000000E+00  0.00000000E+00
  0.00000000E+00  0.00000000E+00  0.00000000E+00
  0.00000000E+00  0.00000000E+00  0.00000000E+00
  0.00000000E+00  0.00000000E+00  0.00000000E+00
  0.00000000E+00  0.00000000E+00  0.00000000E+00
  0.00000000E+00  0.00000000E+00  0.00000000E+00
  0.00000000E+00  0.00000000E+00  0.00000000E+00
  0.00000000E+00  0.00000000E+00  0.00000000E+00
  0.00000000E+00  0.00000000E+00  0.00000000E+00
  0.00000000E+00  0.00000000E+00  0.00000000E+00
  0.00000000E+00  0.00000000E+00  0.00000000E+00
  0.00000000E+00  0.00000000E+00  0.00000000E+00
  0.00000000E+00  0.00000000E+00  0.00000000E+00
  0.00000000E+00  0.00000000E+00  0.00000000E+00
  0.00000000E+00  0.00000000E+00  0.00000000E+00
  0.00000000E+00  0.00000000E+00  0.00000000E+00
  0.00000000E+00  0.00000000E+00  0.00000000E+00
  0.00000000E+00  0.00000000E+00  0.00000000E+00
  0.00000000E+00  0.00000000E+00  0.00000000E+00
  0.00000000E+00  0.00000000E+00  0.00000000E+00
  0.00000000E+00  0.00000000E+00  0.00000000E+00
  0.00000000E+00  0.00000000E+00  0.00000000E+00
  0.00000000E+00  0.00000000E+00  0.00000000E+00
  0.00000000E+00  0.00000000E+00  0.00000000E+00
