Fe                                      
   1.00000000000000     
    11.2207002639999995    0.0000000000000000    0.0000000000000000
     0.0000000000000000    7.9341998100000000    0.0000000000000000
     0.0000000000000000    0.0000000000000000   15.9506998061999994
   Fe   C    O 
    64     1     1
Selective dynamics
Direct
  0.0000000000000000  0.2500000000000000  0.0000000000000000   F   F   F
  0.2500000000000000  0.2500000000000000  0.0000000000000000   F   F   F
  0.0000000000000000  0.0000000000000000  0.1243600000000029   F   F   F
  0.2500000000000000  0.0000000000000000  0.1243600000000029   F   F   F
 -0.0000038012327515  0.2501765448218504  0.2510110614946672   T   T   T
  0.2502073649324583  0.2506285605642321  0.2507468992416014   T   T   T
 -0.0000037470911692  0.0019187037362084  0.3755931932374277   T   T   T
  0.2497821412238389  0.0015649799184566  0.3747637190765746   T   T   T
  0.1250000000000000  0.0000000000000000  0.0000000000000000   F   F   F
  0.3750000000000000  0.0000000000000000  0.0000000000000000   F   F   F
  0.1250000000000000  0.2500000000000000  0.1243600000000029   F   F   F
  0.3750000000000000  0.2500000000000000  0.1243600000000029   F   F   F
  0.1252362220658480  0.0011191933629128  0.2503850154659032   T   T   T
  0.3751271698701256  0.0003678580166865  0.2506609210294429   T   T   T
  0.1248489652290192  0.2515373319467138  0.3753795300209092   T   T   T
  0.3756308866727069  0.2509422216729189  0.3749784521533782   T   T   T
  0.5000000000000000  0.2500000000000000  0.0000000000000000   F   F   F
  0.7500000000000000  0.2500000000000000  0.0000000000000000   F   F   F
  0.5000000000000000  0.0000000000000000  0.1243600000000029   F   F   F
  0.7500000000000000  0.0000000000000000  0.1243600000000029   F   F   F
  0.4999982056735698  0.2504248871559931  0.2504359309101177   T   T   T
  0.7497873816505588  0.2506286730650764  0.2507473966497376   T   T   T
  0.4999937873284067  0.0000489290783137  0.3758188671663353   T   T   T
  0.7502038788243059  0.0015618819186868  0.3747644034086977   T   T   T
  0.6250000000000000  0.0000000000000000  0.0000000000000000   F   F   F
  0.8750000000000000  0.0000000000000000  0.0000000000000000   F   F   F
  0.6250000000000000  0.2500000000000000  0.1243600000000029   F   F   F
  0.8750000000000000  0.2500000000000000  0.1243600000000029   F   F   F
  0.6248651100387325  0.0003649998345639  0.2506598435887084   T   T   T
  0.8747548089711814  0.0011234433894760  0.2503856147825730   T   T   T
  0.6243572044287327  0.2509380342885195  0.3749805294786556   T   T   T
  0.8751428508231698  0.2515339083384047  0.3753793223624755   T   T   T
  0.0000000000000000  0.7500000000000000  0.0000000000000000   F   F   F
  0.2500000000000000  0.7500000000000000  0.0000000000000000   F   F   F
  0.0000000000000000  0.5000000000000000  0.1243600000000029   F   F   F
  0.2500000000000000  0.5000000000000000  0.1243600000000029   F   F   F
 -0.0000050374369665  0.7507176306302492  0.2496847187381229   T   T   T
  0.2495201125439307  0.7503373831638711  0.2512215431306939   T   T   T
 -0.0000051537388121  0.5003031416106488  0.3753183537554989   T   T   T
  0.2502552950464723  0.5013278466762542  0.3752014820920163   T   T   T
  0.1250000000000000  0.5000000000000000  0.0000000000000000   F   F   F
  0.3750000000000000  0.5000000000000000  0.0000000000000000   F   F   F
  0.1250000000000000  0.7500000000000000  0.1243600000000029   F   F   F
  0.3750000000000000  0.7500000000000000  0.1243600000000029   F   F   F
  0.1248986182510440  0.4999565629162693  0.2505529167950381   T   T   T
  0.3750134171755853  0.5008071526904787  0.2505554810824296   T   T   T
  0.1250232923663803  0.7512382724460934  0.3751340571873389   T   T   T
  0.3736892247237194  0.7510049394661221  0.3756344967071149   T   T   T
  0.5000000000000000  0.7500000000000000  0.0000000000000000   F   F   F
  0.7500000000000000  0.7500000000000000  0.0000000000000000   F   F   F
  0.5000000000000000  0.5000000000000000  0.1243600000000029   F   F   F
  0.7500000000000000  0.5000000000000000  0.1243600000000029   F   F   F
  0.4999960668769129  0.7504314768266452  0.2510428700635904   T   T   T
  0.7504670048055168  0.7503407989625371  0.2512187658758685   T   T   T
  0.4999921802820889  0.5018324944920211  0.3750812707069580   T   T   T
  0.7497285084793619  0.5013205230836605  0.3752026987615757   T   T   T
  0.6250000000000000  0.5000000000000000  0.0000000000000000   F   F   F
  0.8750000000000000  0.5000000000000000  0.0000000000000000   F   F   F
  0.6250000000000000  0.7500000000000000  0.1243600000000029   F   F   F
  0.8750000000000000  0.7500000000000000  0.1243600000000029   F   F   F
  0.6249812339870559  0.5008104501695141  0.2505543839266826   T   T   T
  0.8750899398101303  0.4999549149231343  0.2505549881543779   T   T   T
  0.6262975853212019  0.7510012673944829  0.3756359668274047   T   T   T
  0.8749583546806603  0.7512375999522459  0.3751294230478052   T   T   T
 -0.0000111934093527  0.8086488930581517  0.4600948687109412   T   T   T
 -0.0000176513347649  0.8018877035261062  0.5354826493296828   T   T   T
 
  0.00000000E+00  0.00000000E+00  0.00000000E+00
  0.00000000E+00  0.00000000E+00  0.00000000E+00
  0.00000000E+00  0.00000000E+00  0.00000000E+00
  0.00000000E+00  0.00000000E+00  0.00000000E+00
  0.00000000E+00  0.00000000E+00  0.00000000E+00
  0.00000000E+00  0.00000000E+00  0.00000000E+00
  0.00000000E+00  0.00000000E+00  0.00000000E+00
  0.00000000E+00  0.00000000E+00  0.00000000E+00
  0.00000000E+00  0.00000000E+00  0.00000000E+00
  0.00000000E+00  0.00000000E+00  0.00000000E+00
  0.00000000E+00  0.00000000E+00  0.00000000E+00
  0.00000000E+00  0.00000000E+00  0.00000000E+00
  0.00000000E+00  0.00000000E+00  0.00000000E+00
  0.00000000E+00  0.00000000E+00  0.00000000E+00
  0.00000000E+00  0.00000000E+00  0.00000000E+00
  0.00000000E+00  0.00000000E+00  0.00000000E+00
  0.00000000E+00  0.00000000E+00  0.00000000E+00
  0.00000000E+00  0.00000000E+00  0.00000000E+00
  0.00000000E+00  0.00000000E+00  0.00000000E+00
  0.00000000E+00  0.00000000E+00  0.00000000E+00
  0.00000000E+00  0.00000000E+00  0.00000000E+00
  0.00000000E+00  0.00000000E+00  0.00000000E+00
  0.00000000E+00  0.00000000E+00  0.00000000E+00
  0.00000000E+00  0.00000000E+00  0.00000000E+00
  0.00000000E+00  0.00000000E+00  0.00000000E+00
  0.00000000E+00  0.00000000E+00  0.00000000E+00
  0.00000000E+00  0.00000000E+00  0.00000000E+00
  0.00000000E+00  0.00000000E+00  0.00000000E+00
  0.00000000E+00  0.00000000E+00  0.00000000E+00
  0.00000000E+00  0.00000000E+00  0.00000000E+00
  0.00000000E+00  0.00000000E+00  0.00000000E+00
  0.00000000E+00  0.00000000E+00  0.00000000E+00
  0.00000000E+00  0.00000000E+00  0.00000000E+00
  0.00000000E+00  0.00000000E+00  0.00000000E+00
  0.00000000E+00  0.00000000E+00  0.00000000E+00
  0.00000000E+00  0.00000000E+00  0.00000000E+00
  0.00000000E+00  0.00000000E+00  0.00000000E+00
  0.00000000E+00  0.00000000E+00  0.00000000E+00
  0.00000000E+00  0.00000000E+00  0.00000000E+00
  0.00000000E+00  0.00000000E+00  0.00000000E+00
  0.00000000E+00  0.00000000E+00  0.00000000E+00
  0.00000000E+00  0.00000000E+00  0.00000000E+00
  0.00000000E+00  0.00000000E+00  0.00000000E+00
  0.00000000E+00  0.00000000E+00  0.00000000E+00
  0.00000000E+00  0.00000000E+00  0.00000000E+00
  0.00000000E+00  0.00000000E+00  0.00000000E+00
  0.00000000E+00  0.00000000E+00  0.00000000E+00
  0.00000000E+00  0.00000000E+00  0.00000000E+00
  0.00000000E+00  0.00000000E+00  0.00000000E+00
  0.00000000E+00  0.00000000E+00  0.00000000E+00
  0.00000000E+00  0.00000000E+00  0.00000000E+00
  0.00000000E+00  0.00000000E+00  0.00000000E+00
  0.00000000E+00  0.00000000E+00  0.00000000E+00
  0.00000000E+00  0.00000000E+00  0.00000000E+00
  0.00000000E+00  0.00000000E+00  0.00000000E+00
  0.00000000E+00  0.00000000E+00  0.00000000E+00
  0.00000000E+00  0.00000000E+00  0.00000000E+00
  0.00000000E+00  0.00000000E+00  0.00000000E+00
  0.00000000E+00  0.00000000E+00  0.00000000E+00
  0.00000000E+00  0.00000000E+00  0.00000000E+00
  0.00000000E+00  0.00000000E+00  0.00000000E+00
  0.00000000E+00  0.00000000E+00  0.00000000E+00
  0.00000000E+00  0.00000000E+00  0.00000000E+00
  0.00000000E+00  0.00000000E+00  0.00000000E+00
  0.00000000E+00  0.00000000E+00  0.00000000E+00
  0.00000000E+00  0.00000000E+00  0.00000000E+00
