 POSCAR-Ni3(PO4)2-H2O                   
   1.00000000000000     
    11.6148996353000005    0.0000000000000000    0.0000000000000000
     0.0000000000000000    9.3666000365999995    0.0000000000000000
     0.0000000000000000    0.0000000000000000   33.0127983093000026
   Ni   P    O    H    K 
    24    16    94    60     1
Selective dynamics
Direct
  0.1346800000000000  0.0081200000000000  0.0493699990000000   F   F   F
  0.3563960960873457  0.2703605518195706  0.3406677211026836   T   T   T
  0.3786087434760461  0.5027900113031413  0.1880570911297398   T   T   T
  0.1218944671704736  0.2578661721787058  0.2003800229497271   T   T   T
  0.2440659120549163  0.0066037646761288  0.2709529783530394   T   T   T
  0.2592799900000000  0.2515699900000000  0.1184900100000000   F   F   F
  0.6346799700000000  0.0081200000000000  0.0493699990000000   F   F   F
  0.8912535449750199  0.2268237020983858  0.3445172954835118   T   T   T
  0.8732614394895664  0.4924811792418108  0.1857411011096108   T   T   T
  0.6241875387284329  0.2495029291959066  0.2043879134817812   T   T   T
  0.7341395673285488  0.9911618578594810  0.2690873265102546   T   T   T
  0.7592800100000000  0.2515699900000000  0.1184900100000000   F   F   F
  0.1346800000000000  0.5081200200000000  0.0493699990000000   F   F   F
  0.3717097613380275  0.7793207556741342  0.3357482499873318   T   T   T
  0.3763662284759025 -0.0098111239161233  0.1854956398143053   T   T   T
  0.1183609358487301  0.7407612028046359  0.2021985691101812   T   T   T
  0.2410544349061527  0.5074081842207150  0.2744990997571139   T   T   T
  0.2592799900000000  0.7515700100000000  0.1184900100000000   F   F   F
  0.6346799700000000  0.5081200200000000  0.0493699990000000   F   F   F
  0.8596905503835397  0.7143225186442297  0.3397983131382174   T   T   T
  0.8743075620615284  0.9921706218863138  0.1892338533073245   T   T   T
  0.6226955161395660  0.7422579402833627  0.2038135440362386   T   T   T
  0.7521480406252192  0.4998014055653227  0.2771036576847941   T   T   T
  0.7592800100000000  0.7515700100000000  0.1184900100000000   F   F   F
  0.1112067077994549  0.3025870256894949  0.3009666589516859   T   T   T
  0.3856599900000000  0.0401900000000000  0.0895700010000000   F   F   F
  0.3722854212805048  0.2177282523268004  0.2428454500550370   T   T   T
  0.1295624770502649  0.4616819979014438  0.1469911677401492   T   T   T
  0.6239490294100890  0.2849432606248637  0.3040533674487372   T   T   T
  0.8856599900000000  0.0401900000000000  0.0895700010000000   F   F   F
  0.8749392520059868  0.2097355980529732  0.2440356066100489   T   T   T
  0.6329742410395824  0.4618081248527651  0.1464615036002842   T   T   T
  0.1238503457462341  0.8010140581207492  0.3076707751463537   T   T   T
  0.3856599900000000  0.5401899700000000  0.0895700010000000   F   F   F
  0.3723876614814458  0.7218087316004236  0.2408567163488511   T   T   T
  0.1220337491605325  0.9672888398147199  0.1466504198276770   T   T   T
  0.6423519105826132  0.7815439244431365  0.3050446382017354   T   T   T
  0.8856599900000000  0.5401899700000000  0.0895700010000000   F   F   F
  0.8773149085722954  0.7091140516096315  0.2419677120016241   T   T   T
  0.6247364070636346  0.9685126975547881  0.1473038809357451   T   T   T
 -0.0054457804022102  0.3595202629365385  0.3206724111005940   T   T   T
  0.1195318380862741  0.3704687610921341  0.2575291696073002   T   T   T
  0.1297257674154819  0.1298482656318976  0.1504125631915774   T   T   T
  0.2095411561670179  0.3776349290967117  0.3246675935799646   T   T   T
  0.4870899800000000  0.1014900000000000  0.0656600030000000   F   F   F
  0.3806325486075405  0.0993921405386222  0.1349915422623375   T   T   T
  0.3531683871193027  0.3768555052976479  0.2395004826202446   T   T   T
  0.2789900000000000  0.1186700000000000  0.0689899970000000   F   F   F
  0.4826110086032037  0.1615767339866655  0.2242453549664265   T   T   T
  0.3484856086864385  0.1649071042168702  0.2881598185027711   T   T   T
  0.3773300200000000  0.3781200100000000  0.0875900020000000   F   F   F
  0.2680456338465065  0.1349621622059487  0.2210237262706290   T   T   T
  0.0233142487025169  0.4172011325997687  0.1713228844728483   T   T   T
  0.1380500000000000  0.4057100200000000  0.1037800000000000   F   F   F
  0.1199956938320187  0.1397406826531660  0.3012737480176093   T   T   T
  0.2411449803828463  0.3773506700464400  0.1680317086265388   T   T   T
  0.5226550043860237  0.3357564173970330  0.3307203981958990   T   T   T
  0.6243133514095084  0.3613650462974735  0.2624334062665984   T   T   T
  0.6389661558974540  0.1302345097720134  0.1514938733053068   T   T   T
  0.7324656277765251  0.3465983255774944  0.3255203405502369   T   T   T
  0.9870900200000000  0.1014900000000000  0.0656600030000000   F   F   F
  0.8804802663568860  0.1031980960366979  0.1333545317250572   T   T   T
  0.8686528182808875  0.3709467569135296  0.2409624420654478   T   T   T
  0.7789900000000000  0.1186700000000000  0.0689899970000000   F   F   F
  0.9779456219244899  0.1453158121792354  0.2192566194079396   T   T   T
  0.8783708406751162  0.1433508069214529  0.2873453987962983   T   T   T
  0.8773299800000000  0.3781200100000000  0.0875900020000000   F   F   F
  0.7616505165611384  0.1376748196686347  0.2240662849638727   T   T   T
  0.5283933928996630  0.4031890967154400  0.1708786300668358   T   T   T
  0.6380500000000000  0.4057100200000000  0.1037800000000000   F   F   F
  0.6264181405873703  0.1235791803333426  0.2968027899162481   T   T   T
  0.7398979329936376  0.3769533988282006  0.1684982160526348   T   T   T
  0.0119793304769501  0.8363040045136854  0.3349497398239790   T   T   T
  0.1177851865087590  0.8469647938923213  0.2617109554541732   T   T   T
  0.1435870553374515  0.6336481545473348  0.1472483802815805   T   T   T
  0.2267393904677135  0.8925423471094893  0.3247271960332950   T   T   T
  0.4870899800000000  0.6014900100000000  0.0656600030000000   F   F   F
  0.3845532826780663  0.6066092777320735  0.1330673381420025   T   T   T
  0.3612478390258593  0.8852913983370070  0.2365065089203051   T   T   T
  0.2789900000000000  0.6186699700000000  0.0689899970000000   F   F   F
  0.4749296806111483  0.6519494078758586  0.2179462290513438   T   T   T
  0.3738897035508729  0.6659177427922830  0.2858691240218760   T   T   T
  0.3773300200000000  0.8781199600000000  0.0875900020000000   F   F   F
  0.2668060706624700  0.6421390250968583  0.2215914776508756   T   T   T
  0.0182993482381069  0.9107117526174465  0.1704714994723249   T   T   T
  0.1380500000000000  0.9057099900000000  0.1037800000000000   F   F   F
  0.1525893793990379  0.6403998443789903  0.3137615944380380   T   T   T
  0.2281073920099962  0.8923821447434396  0.1692175317365621   T   T   T
  0.5375661367027038  0.8442145592955469  0.3328228419427987   T   T   T
  0.6230629348654271  0.8319201224813406  0.2608062684745213   T   T   T
  0.6474642289229489  0.6290800976438468  0.1498151669580566   T   T   T
  0.7538470794559573  0.8668929681629024  0.3207653573721777   T   T   T
  0.9870900200000000  0.6014900100000000  0.0656600030000000   F   F   F
  0.8815100430188083  0.6060111015257441  0.1328468829449154   T   T   T
  0.8717571458554837  0.8677610872613853  0.2416043223529830   T   T   T
  0.7789900000000000  0.6186699700000000  0.0689899970000000   F   F   F
  0.9723883507533662  0.6531565732331568  0.2143838412853549   T   T   T
  0.8808782561354591  0.6436291685764552  0.2859290717621188   T   T   T
  0.8773299800000000  0.8781199600000000  0.0875900020000000   F   F   F
  0.7607544828106741  0.6424868684354543  0.2220708616956718   T   T   T
  0.5174278406843573  0.9055939453496292  0.1693723955106062   T   T   T
  0.6380500000000000  0.9057099900000000  0.1037800000000000   F   F   F
  0.6543127734425060  0.6229021163100303  0.3106082290442927   T   T   T
  0.7274147639281102  0.8773617149549963  0.1706210723089762   T   T   T
  0.0133589548054116  0.0943256754302023  0.3681142788721868   T   T   T
  0.9864669635954019  0.0868657001548880  0.5430368000694010   T   T   T
  0.4887806376690911  0.5564823793949210  0.3731484804392244   T   T   T
  0.2698302996210805  0.4398144402920960  0.4784397398245513   T   T   T
  0.9067180969273314  0.7119078002131564  0.5448506109372245   T   T   T
  0.0338517731338837  0.4344493028373878  0.4425745933029882   T   T   T
  0.2850956655151322  0.1100660035531946  0.3730963393373722   T   T   T
  0.3126588538702426  0.4262313838544851  0.3905199835130802   T   T   T
  0.7942425994367750  0.4296625899176220  0.5462759719734319   T   T   T
  0.6878047780192540  0.8216670878708341  0.5309228142950121   T   T   T
  0.6136498481045551  0.7646759848357444  0.4465598569825202   T   T   T
  0.5055335947991362  0.6805352043182674  0.5598909728286203   T   T   T
  0.7143299778541234  0.4005000596270311  0.4003508687238971   T   T   T
  0.5622688667059137  0.0534843493123904  0.3765793246362359   T   T   T
  0.5626717545299026  0.4897310452750381  0.4522021109137251   T   T   T
  0.7830203593928911  0.0823991030068699  0.3736775157450773   T   T   T
  0.3333353508186415  0.7775577849279561  0.3963077359283936   T   T   T
 -0.0058203162388182  0.5659836849751081  0.3668219901999355   T   T   T
  0.1093472238536976  0.6445597057232990  0.5678976205691717   T   T   T
  0.6331906795598607  1.1087865244776174  0.5168407293677951   T   T   T
  0.1772054175979261 -0.0380264111162628  0.5155184558841518   T   T   T
  0.8238428640533657  0.0392559533937605  0.4616233945261319   T   T   T
  0.5799620013369566  0.3987593264118369  0.5302436143070293   T   T   T
  0.7875024182421164  0.6789579865957314  0.3964411326464844   T   T   T
  0.9022661616531731  0.2793542693457526  0.4897795862257585   T   T   T
  0.2960961011662116  0.7007138205579363  0.5242053103881086   T   T   T
  0.9297931140835229  0.7484826745037457  0.4640623274581330   T   T   T
  0.1174149782393864  0.8316146985580165  0.4178340122329882   T   T   T
  0.3424558785077086  0.1490959829351028  0.5050857859960403   T   T   T
  0.4239556757715728  1.0051135527812571  0.4350274336928194   T   T   T
  0.0579338537296540  0.0993004900591325  0.3404066818021714   T   T   T
  0.9937282494143724  0.9861228162678258  0.3634727884991114   T   T   T
  0.9192181716598834  1.0341291680493370  0.5551686683465917   T   T   T
  0.9522458587686625  0.1546863376385199  0.5237800471057600   T   T   T
  0.5172466853748006  0.6402511272489158  0.3598138495299162   T   T   T
  0.5147666622948729  0.4753494087875724  0.3546611254077956   T   T   T
  0.2950168350536899  0.3486203265195958  0.4907073196936231   T   T   T
  0.2835973571007952  0.4246289770700196  0.4477321028968267   T   T   T
  0.9222101791058804  0.7003527790491657  0.5156746893920277   T   T   T
  0.9821161018838861  0.7000289109276217  0.5592292191257847   T   T   T
  0.0181769806535406  0.4896994128722578  0.4183640445470020   T   T   T
  0.1030222562486937  0.4782020008103117  0.4549422971277734   T   T   T
  0.2613600766490445  0.0287113521404366  0.3554776506717548   T   T   T
  0.3295325346906002  0.0723488702290352  0.3956969182751547   T   T   T
  0.2455986666432207  0.4379282618693924  0.3722903962787389   T   T   T
  0.3707227881287690  0.5060499341502283  0.3880360470987631   T   T   T
  0.8240078942347074  0.5261986679124958  0.5501870754346543   T   T   T
  0.7151691036786643  0.4414372056862237  0.5371494918302315   T   T   T
  0.7688496154714403  0.7922407620744668  0.5415409636645077   T   T   T
  0.6859117293334561  0.7749969516486985  0.5051007139845755   T   T   T
  0.5785048407216945  0.6677557978693032  0.4467748416748487   T   T   T
  0.5456405685588168  0.8242856386848635  0.4436190034334280   T   T   T
  0.5749991620161089  0.7321514046676286  0.5497176443801931   T   T   T
  0.5219039816555676  0.5795123939546321  0.5554166385223003   T   T   T
  0.7508340195976826  0.3172844242962477  0.4123771994864354   T   T   T
  0.6983727871990700  0.3775898056524084  0.3697706504816366   T   T   T
  0.5241725895594025  0.1141782369828203  0.3565081417993701   T   T   T
  0.5638260477118566  0.9641670400499903  0.3575323807469027   T   T   T
  0.6206496665638602  0.4496742910666163  0.4324314089155933   T   T   T
  0.4898792377376603  0.4737964727245143  0.4379513570493687   T   T   T
  0.6941454611128862  0.1006632496542876  0.3768079223756327   T   T   T
  0.7775248414021678  0.9910986538802987  0.3553191332797347   T   T   T
  0.3753994430592181  0.8440183868665997  0.4135890731713067   T   T   T
  0.2493659409859084  0.7978305111985059  0.4029504274981983   T   T   T
  0.0732653121593325  0.5930451117446628  0.3534713100825800   T   T   T
  0.9923901066631062  0.4752796094485789  0.3505256443960126   T   T   T
  0.1067496996912840  0.5524325673609409  0.5804995962885473   T   T   T
  0.1892230086708284  0.6694013810931178  0.5607655538673062   T   T   T
  0.6373537124669952  1.0119688301653773  0.5268171926397375   T   T   T
  0.6869312411253125  1.1046704312312439  0.4940236505019575   T   T   T
  0.1120755173858246  0.0002982505627254  0.5325652423522433   T   T   T
  0.2009898671592082  0.8608462939628572  0.5218159266890462   T   T   T
  0.8713873055280187  0.1224664073877677  0.4687760501249701   T   T   T
  0.8180014529543937  0.0464467539310755  0.4317764862661293   T   T   T
  0.5601422823299800  0.4190700324756599  0.5021132575284069   T   T   T
  0.5883392115979749  0.2945431786452625  0.5295145397328586   T   T   T
  0.7884975742892399  0.5706162453667735  0.4010056656197766   T   T   T
  0.7161650708118521  0.7266284472218294  0.4082413332743568   T   T   T
  0.8628323653845947  0.3382676176726432  0.5122915050317222   T   T   T
 -0.0447079751140615  0.3466643913989791  0.4769580696193739   T   T   T
  0.3804911440242121  0.7012373850038024  0.5339088065072247   T   T   T
  0.2942602032054160  0.6196958383217330  0.5042335817256561   T   T   T
  0.8745987212965103  0.7028893322896822  0.4452583637272710   T   T   T
  0.8896406152006260  0.8492284482553366  0.4680211223150541   T   T   T
  0.0550576828867554  0.7863727075461158  0.4366412549433386   T   T   T
  0.0749180587022824  0.8190197343464416  0.3920148922969763   T   T   T
  0.2946335404149993  0.0699381868256413  0.5162887490232466   T   T   T
  0.4145507107587272  0.1296157560590150  0.5184867652777617   T   T   T
  0.4774724487910214  0.0458925579812140  0.4133449820849484   T   T   T
  0.4105344421845363  0.0618169597605358  0.4594164917127528   T   T   T
  0.1031261475435967  0.1238028914172025  0.4412071259320356   T   T   T
 
  0.00000000E+00  0.00000000E+00  0.00000000E+00
  0.14961574E-02  0.60556841E-03 -0.11003639E-02
  0.19446498E-02 -0.13501742E-02  0.15132393E-02
  0.15282024E-02  0.30666344E-02  0.27750671E-03
 -0.16297680E-02 -0.14202794E-02 -0.45381762E-03
  0.00000000E+00  0.00000000E+00  0.00000000E+00
  0.00000000E+00  0.00000000E+00  0.00000000E+00
  0.43641629E-02 -0.28378915E-02 -0.68948703E-03
 -0.34049058E-02  0.11432116E-02 -0.17752317E-02
 -0.36433120E-02 -0.11359071E-02  0.11249498E-02
 -0.69652145E-03 -0.36721519E-02  0.36789983E-02
  0.00000000E+00  0.00000000E+00  0.00000000E+00
  0.00000000E+00  0.00000000E+00  0.00000000E+00
 -0.15380235E-02 -0.35389967E-02  0.87520288E-03
  0.21143299E-02  0.12425310E-02 -0.21996018E-02
 -0.13660506E-02 -0.69611215E-05 -0.41031247E-02
 -0.67214799E-03 -0.16684077E-02 -0.76747175E-03
  0.00000000E+00  0.00000000E+00  0.00000000E+00
  0.00000000E+00  0.00000000E+00  0.00000000E+00
 -0.24989755E-02 -0.20246796E-02 -0.20305376E-02
 -0.55081456E-02  0.60076856E-02 -0.27151913E-02
  0.95243290E-03 -0.19544484E-02  0.27422087E-02
 -0.28989369E-02  0.21074080E-02 -0.18654349E-02
  0.00000000E+00  0.00000000E+00  0.00000000E+00
  0.19160475E-03 -0.30805756E-02  0.29414225E-02
  0.00000000E+00  0.00000000E+00  0.00000000E+00
 -0.16907198E-02 -0.13967547E-02  0.36895393E-02
 -0.33497862E-02  0.94723568E-03  0.27190593E-02
 -0.17086327E-02  0.66152722E-03 -0.71006539E-03
  0.00000000E+00  0.00000000E+00  0.00000000E+00
 -0.29907799E-03  0.10874968E-02 -0.18541948E-02
  0.30134438E-03  0.16232123E-02 -0.28334779E-02
  0.32419823E-03 -0.10805415E-04 -0.12272407E-02
  0.00000000E+00  0.00000000E+00  0.00000000E+00
  0.29275429E-03  0.71079282E-03  0.45186155E-02
  0.40622679E-03  0.20330367E-02  0.58597812E-02
  0.11263891E-02  0.53509259E-02 -0.97286404E-03
  0.00000000E+00  0.00000000E+00  0.00000000E+00
  0.20834621E-02  0.65967804E-02  0.12362976E-02
 -0.41879627E-02  0.23085428E-03 -0.52986504E-02
  0.24284530E-02 -0.37340662E-02 -0.64865878E-02
  0.65669858E-02  0.88841029E-03 -0.56753681E-04
 -0.86413836E-02  0.47846985E-02 -0.58482579E-02
 -0.80183976E-02 -0.32388466E-02  0.54393074E-02
  0.00000000E+00  0.00000000E+00  0.00000000E+00
 -0.26465692E-02  0.74180649E-02  0.38429365E-02
  0.82405391E-03  0.15675815E-02 -0.10378516E-02
  0.00000000E+00  0.00000000E+00  0.00000000E+00
  0.88360240E-02 -0.93659614E-02  0.70897144E-02
  0.33099182E-02 -0.65158551E-02 -0.28798900E-02
  0.00000000E+00  0.00000000E+00  0.00000000E+00
 -0.30996345E-02  0.20836278E-02 -0.66215986E-03
  0.29284821E-02  0.38910319E-03  0.71454236E-02
  0.00000000E+00  0.00000000E+00  0.00000000E+00
 -0.21541265E-02  0.77555219E-03 -0.86854693E-03
 -0.65430610E-03 -0.51671379E-02  0.13073605E-02
 -0.73057401E-04 -0.12346498E-02  0.37927384E-02
 -0.21887967E-02  0.70261207E-02 -0.30018644E-02
 -0.85445703E-03  0.10595202E-02  0.44696249E-02
 -0.98366747E-03 -0.36154277E-03 -0.11996591E-01
  0.00000000E+00  0.00000000E+00  0.00000000E+00
 -0.99600731E-02  0.59541328E-02  0.97276390E-02
  0.42503042E-02 -0.25985748E-02  0.36494463E-02
  0.00000000E+00  0.00000000E+00  0.00000000E+00
 -0.51659939E-02  0.45569191E-02  0.22839502E-02
 -0.34177709E-02 -0.10464407E-02 -0.14883789E-02
  0.00000000E+00  0.00000000E+00  0.00000000E+00
 -0.29054203E-02 -0.16191499E-02  0.38559463E-02
 -0.43224182E-02  0.45082987E-02  0.21866545E-02
  0.00000000E+00  0.00000000E+00  0.00000000E+00
  0.47724869E-02  0.48161241E-02 -0.21161574E-02
  0.14645992E-02 -0.18192247E-02 -0.11737463E-02
  0.21241916E-02  0.11604549E-01 -0.91411491E-02
 -0.18064881E-02 -0.70704583E-02  0.72696485E-03
 -0.25801018E-02  0.16767820E-02  0.99792620E-03
 -0.66389181E-02  0.13478409E-02 -0.21781481E-03
  0.00000000E+00  0.00000000E+00  0.00000000E+00
 -0.45407447E-02 -0.20707903E-02 -0.26435289E-02
 -0.96579604E-02 -0.43571261E-02 -0.46935446E-02
  0.00000000E+00  0.00000000E+00  0.00000000E+00
  0.42531905E-02  0.58161020E-02  0.42631482E-02
 -0.10597187E-02 -0.38899654E-02  0.70691612E-02
  0.00000000E+00  0.00000000E+00  0.00000000E+00
  0.24965055E-02  0.22958191E-03 -0.45599605E-02
 -0.57290961E-02  0.61412443E-02 -0.17876669E-02
  0.00000000E+00  0.00000000E+00  0.00000000E+00
 -0.19536709E-02 -0.29194989E-02 -0.86660384E-02
  0.77525419E-03 -0.68119162E-02  0.13207099E-02
  0.10669995E-02 -0.91083613E-03 -0.25781168E-02
  0.26354855E-02 -0.63940432E-02  0.73995958E-02
 -0.71499353E-02 -0.21911881E-03  0.13741414E-02
 -0.77767497E-02 -0.26210863E-02 -0.31164660E-02
  0.00000000E+00  0.00000000E+00  0.00000000E+00
  0.60328880E-03  0.34656500E-02 -0.56590391E-02
  0.93265158E-04 -0.26925342E-02  0.22885576E-02
  0.00000000E+00  0.00000000E+00  0.00000000E+00
 -0.65559714E-02 -0.23190480E-02 -0.90757130E-02
  0.60793728E-02 -0.55773519E-03 -0.23837305E-02
  0.00000000E+00  0.00000000E+00  0.00000000E+00
 -0.23505536E-02 -0.14249553E-03 -0.29451132E-02
  0.14152027E-02  0.11348942E-02 -0.10446371E-01
  0.00000000E+00  0.00000000E+00  0.00000000E+00
  0.24558690E-02 -0.43422466E-03  0.89950599E-03
  0.33102513E-02  0.57938106E-02 -0.74766208E-03
  0.49950146E-02  0.24858817E-02  0.69326795E-03
  0.10896187E-02 -0.59326700E-02  0.56645779E-02
  0.28421966E-02  0.18319900E-03 -0.20551173E-03
 -0.19840369E-02 -0.26499100E-02  0.60514161E-02
 -0.20616812E-02 -0.81637289E-03  0.19584060E-02
 -0.60464555E-02 -0.11669751E-02  0.72087018E-03
 -0.87768038E-03 -0.34394577E-02  0.25787912E-02
  0.24614022E-03  0.89547111E-03 -0.44498396E-03
  0.43607178E-04  0.17341612E-02  0.50996106E-03
 -0.10784437E-02  0.70383344E-02 -0.36363701E-02
  0.26933838E-02  0.56213501E-02 -0.30840705E-02
  0.24457639E-03 -0.69774113E-02 -0.17323128E-02
  0.20017546E-02 -0.63226041E-04 -0.10302377E-01
 -0.20124957E-02 -0.10436498E-01  0.11941081E-01
  0.21229152E-02 -0.18555123E-02 -0.29636207E-02
 -0.81509668E-03 -0.29469901E-02 -0.13561064E-02
  0.10302819E-02 -0.38733857E-02 -0.81624368E-03
  0.10071826E-01 -0.15610409E-02 -0.14469602E-02
 -0.54477699E-03 -0.78033571E-02  0.94400568E-03
  0.15865485E-02 -0.30037794E-02  0.52694048E-02
 -0.10732425E-02 -0.11447157E-02 -0.98991368E-03
 -0.64431557E-03  0.37567520E-02 -0.17066128E-02
 -0.12433488E-02  0.66287851E-03  0.57702697E-02
 -0.33354082E-04 -0.55698126E-02  0.32606084E-02
  0.18966346E-02 -0.67731502E-03  0.57512380E-02
  0.69172918E-02 -0.44889741E-02  0.32892441E-02
  0.33774481E-03  0.18374807E-02  0.16628484E-02
  0.50543195E-02 -0.30151832E-02 -0.21607806E-02
  0.49639455E-03 -0.23758414E-02 -0.11836219E-02
 -0.53288029E-03 -0.50725525E-02  0.42998261E-02
 -0.10005852E-02  0.67114391E-02 -0.52574875E-02
  0.34529392E-02  0.11550846E-01 -0.80546813E-02
  0.29799232E-01 -0.11106865E-02  0.17320483E-01
 -0.44948717E-02 -0.58438799E-02  0.14706893E-01
  0.14718921E-01 -0.12475361E-01  0.71367992E-02
 -0.21300102E-02  0.20493059E-02 -0.62105703E-02
 -0.69849847E-02 -0.44870339E-02 -0.15898477E-01
  0.79655787E-02  0.42109491E-02  0.82689694E-02
 -0.21186122E-01  0.34525955E-01 -0.19542289E-01
  0.20438110E-02 -0.33668415E-02 -0.24180977E-01
 -0.60508390E-02  0.77250636E-02 -0.17455313E-01
  0.34482821E-01  0.17022061E-02  0.41266230E-02
  0.29646813E-01  0.10452329E-01 -0.16699707E-01
 -0.10743045E-01 -0.24198384E-02  0.66357885E-02
  0.24854611E-02 -0.26511944E-01 -0.10634770E-01
  0.10296078E-01  0.51761272E-02 -0.18422614E-01
  0.31071904E-01  0.23230776E-01  0.17636421E-01
  0.48383210E-02 -0.16240061E-01  0.21057899E-01
 -0.20431173E-01 -0.33198030E-02  0.99401489E-02
 -0.12936492E-01 -0.30822644E-02 -0.83310739E-02
  0.37687503E-02 -0.20171814E-01 -0.11262379E-04
  0.24438893E-02  0.63928740E-03 -0.15323622E-02
 -0.47046873E-02 -0.80797542E-02 -0.18519269E-01
 -0.21438086E-01 -0.16457344E-01 -0.10786681E-01
 -0.15680492E-01  0.12136938E-01  0.99617922E-02
 -0.17345537E-01  0.37431488E-01 -0.16355642E-02
 -0.49710810E-01  0.44675432E-02  0.30287523E-01
 -0.31301261E-01 -0.12949756E-01 -0.80610704E-02
 -0.10546715E-01  0.14410483E-01  0.77171384E-02
 -0.25983129E-02 -0.35681090E-02 -0.16888599E-01
 -0.14245160E-01 -0.23754783E-01 -0.25893854E-01
  0.46185306E-04  0.18048878E-01 -0.14457987E-01
 -0.66783891E-02  0.16391169E-01  0.16306516E-01
 -0.27318058E-02  0.90641798E-05  0.23125357E-02
 -0.67218335E-02  0.18588566E-01  0.17968925E-01
 -0.32460699E-02 -0.17754754E-01 -0.79780280E-02
 -0.80050334E-02  0.28380361E-02  0.80010132E-02
 -0.68386612E-02 -0.20285932E-01  0.22126633E-01
 -0.94157959E-02  0.28893241E-01  0.18889974E-02
  0.72374463E-02 -0.13866055E-01 -0.18193699E-02
 -0.23600733E-01 -0.11573483E-01  0.26366363E-01
 -0.45189033E-02 -0.12046978E-01 -0.31332205E-01
  0.82660002E-02  0.21394086E-03  0.16976166E-01
  0.10091591E-01 -0.13850980E-01  0.15238209E-01
  0.26290078E-02 -0.13923228E-01  0.41523345E-04
  0.75516627E-02 -0.21910155E-02  0.90026803E-02
 -0.22183485E-01 -0.19501349E-01 -0.77651725E-02
 -0.74394209E-03 -0.12017902E-01 -0.35010151E-02
 -0.17365272E-02 -0.23100925E-02 -0.16621605E-01
  0.95406795E-02 -0.11690465E-01  0.13476966E-01
 -0.20092775E-01 -0.86438550E-02  0.23382798E-01
 -0.24812650E-01 -0.82860984E-02  0.12604148E-01
 -0.86797817E-02  0.12395559E-02  0.49366097E-02
  0.98202687E-02 -0.64998984E-02 -0.29847636E-02
  0.13210026E-01  0.25274983E-01 -0.26049307E-01
  0.24753567E-01  0.66945441E-02  0.99741086E-02
  0.88411261E-02  0.15138288E-01 -0.10021474E-01
  0.33102287E-01 -0.10140136E-01 -0.19432582E-01
  0.75057180E-02 -0.22067522E-01  0.18797524E-01
 -0.67689227E-02  0.34157797E-01 -0.17065864E-01
 -0.13922031E-02  0.32522333E-02 -0.26806921E-02
 
           1
   1.00000000000000     
  0.11836842E+01  0.13917899E-02  0.14766321E-03  0.11829144E+01
  0.13468000E+00  0.81200000E-02  0.49369999E-01
  0.35652491E+00  0.27042520E+00  0.34063439E+00
  0.37877617E+00  0.50264586E+00  0.18810293E+00
  0.12202604E+00  0.25819357E+00  0.20038843E+00
  0.24392560E+00  0.64521323E-02  0.27093923E+00
  0.25927999E+00  0.25156999E+00  0.11849001E+00
  0.63467997E+00  0.81200000E-02  0.49369999E-01
  0.89162928E+00  0.22652072E+00  0.34449641E+00
  0.87296829E+00  0.49260323E+00  0.18568733E+00
  0.62387386E+00  0.24938166E+00  0.20442199E+00
  0.73407960E+00  0.99076981E+00  0.26919877E+00
  0.75928001E+00  0.25156999E+00  0.11849001E+00
  0.13468000E+00  0.50812002E+00  0.49369999E-01
  0.37157734E+00  0.77894292E+00  0.33577476E+00
  0.37654826E+00  0.99032153E+00  0.18542901E+00
  0.11824332E+00  0.74076046E+00  0.20207428E+00
  0.24099657E+00  0.50723006E+00  0.27447585E+00
  0.25927999E+00  0.75157001E+00  0.11849001E+00
  0.63467997E+00  0.50812002E+00  0.49369999E-01
  0.85947540E+00  0.71410636E+00  0.33973681E+00
  0.87383333E+00  0.99281202E+00  0.18915161E+00
  0.62277752E+00  0.74204928E+00  0.20389661E+00
  0.75189845E+00  0.50002640E+00  0.27704715E+00
  0.75928001E+00  0.75157001E+00  0.11849001E+00
  0.11122320E+00  0.30225814E+00  0.30105576E+00
  0.38565999E+00  0.40190000E-01  0.89570001E-01
  0.37213986E+00  0.21757913E+00  0.24295721E+00
  0.12927407E+00  0.46178313E+00  0.14707353E+00
  0.62380192E+00  0.28501389E+00  0.30403186E+00
  0.88565999E+00  0.40190000E-01  0.89570001E-01
  0.87491350E+00  0.20985170E+00  0.24397944E+00
  0.63300019E+00  0.46198142E+00  0.14637567E+00
  0.12387826E+00  0.80101290E+00  0.30763360E+00
  0.38565999E+00  0.54018997E+00  0.89570001E-01
  0.37241287E+00  0.72188462E+00  0.24099359E+00
  0.12206872E+00  0.96750589E+00  0.14682792E+00
  0.64244889E+00  0.78211520E+00  0.30501517E+00
  0.88565999E+00  0.54018997E+00  0.89570001E-01
  0.87749429E+00  0.70981834E+00  0.24200516E+00
  0.62437584E+00  0.96853734E+00  0.14714338E+00
  0.99476330E+00  0.35912161E+00  0.32047592E+00
  0.12009723E+00  0.37056361E+00  0.25752745E+00
  0.12898178E+00  0.13035909E+00  0.15023541E+00
  0.20885080E+00  0.37728914E+00  0.32483236E+00
  0.48708998E+00  0.10149000E+00  0.65660003E-01
  0.38040469E+00  0.10018411E+00  0.13510795E+00
  0.35323934E+00  0.37702286E+00  0.23946904E+00
  0.27899000E+00  0.11867000E+00  0.68989997E-01
  0.48337176E+00  0.16057680E+00  0.22446011E+00
  0.34877058E+00  0.16421146E+00  0.28807258E+00
  0.37733002E+00  0.37812001E+00  0.87590002E-01
  0.26777877E+00  0.13518462E+00  0.22100367E+00
  0.23566380E-01  0.41724267E+00  0.17153933E+00
  0.13805000E+00  0.40571002E+00  0.10378000E+00
  0.11981023E+00  0.13982348E+00  0.30124744E+00
  0.24108865E+00  0.37679901E+00  0.16807131E+00
  0.52264871E+00  0.33562460E+00  0.33083529E+00
  0.62412490E+00  0.36211517E+00  0.26234248E+00
  0.63889259E+00  0.13034763E+00  0.15162926E+00
  0.73238094E+00  0.34655973E+00  0.32515695E+00
  0.98709002E+00  0.10149000E+00  0.65660003E-01
  0.87962274E+00  0.10383377E+00  0.13364919E+00
  0.86901875E+00  0.37066933E+00  0.24107299E+00
  0.77899000E+00  0.11867000E+00  0.68989997E-01
  0.97750085E+00  0.14580232E+00  0.21932580E+00
  0.87807658E+00  0.14323909E+00  0.28730031E+00
  0.87732998E+00  0.37812001E+00  0.87590002E-01
  0.76140037E+00  0.13750196E+00  0.22418309E+00
  0.52802125E+00  0.40367041E+00  0.17094487E+00
  0.63805000E+00  0.40571002E+00  0.10378000E+00
  0.62682903E+00  0.12409336E+00  0.29673869E+00
  0.74002403E+00  0.37675917E+00  0.16846266E+00
  0.12162216E-01  0.83754293E+00  0.33467284E+00
  0.11762965E+00  0.84620994E+00  0.26173298E+00
  0.14336492E+00  0.63382717E+00  0.14727861E+00
  0.22616780E+00  0.89268625E+00  0.32472060E+00
  0.48708998E+00  0.60149001E+00  0.65660003E-01
  0.38416234E+00  0.60638820E+00  0.13298726E+00
  0.36041632E+00  0.88482622E+00  0.23636434E+00
  0.27899000E+00  0.61866997E+00  0.68989997E-01
  0.47529586E+00  0.65257035E+00  0.21807537E+00
  0.37379847E+00  0.66550244E+00  0.28608326E+00
  0.37733002E+00  0.87811996E+00  0.87590002E-01
  0.26702101E+00  0.64216354E+00  0.22145335E+00
  0.17806094E-01  0.91136741E+00  0.17041735E+00
  0.13805000E+00  0.90570999E+00  0.10378000E+00
  0.15242118E+00  0.64008815E+00  0.31349909E+00
  0.22817414E+00  0.89165489E+00  0.16925754E+00
  0.53765800E+00  0.84411732E+00  0.33274475E+00
  0.62328984E+00  0.83123748E+00  0.26103041E+00
  0.64684865E+00  0.62905670E+00  0.14985679E+00
  0.75317753E+00  0.86661313E+00  0.32067096E+00
  0.98709002E+00  0.60149001E+00  0.65660003E-01
  0.88156198E+00  0.60638110E+00  0.13267546E+00
  0.87176518E+00  0.86747363E+00  0.24167365E+00
  0.77899000E+00  0.61866997E+00  0.68989997E-01
  0.97182391E+00  0.65290899E+00  0.21410893E+00
  0.88140167E+00  0.64356962E+00  0.28585687E+00
  0.87732998E+00  0.87811996E+00  0.87590002E-01
  0.76055211E+00  0.64247166E+00  0.22198165E+00
  0.51754968E+00  0.90571511E+00  0.16905596E+00
  0.63805000E+00  0.90570999E+00  0.10378000E+00
  0.65452421E+00  0.62285576E+00  0.31063548E+00
  0.72769976E+00  0.87798028E+00  0.17059842E+00
  0.13789007E-01  0.94591074E-01  0.36813528E+00
  0.98656078E+00  0.86232315E-01  0.54320839E+00
  0.48902534E+00  0.55650194E+00  0.37314226E+00
  0.26965948E+00  0.43953153E+00  0.47862304E+00
  0.90654059E+00  0.71182064E+00  0.54490993E+00
  0.33331196E-01  0.43432471E+00  0.44259643E+00
  0.28502010E+00  0.10969880E+00  0.37317445E+00
  0.31268005E+00  0.42632699E+00  0.39050650E+00
  0.79424635E+00  0.42984773E+00  0.54629142E+00
  0.68771193E+00  0.82241852E+00  0.53081266E+00
  0.61388174E+00  0.76527613E+00  0.44646644E+00
  0.50555465E+00  0.67979028E+00  0.55983850E+00
  0.71450232E+00  0.40049331E+00  0.40003880E+00