Pd                                      
   1.00000000000000     
    10.9451000000000001    0.0000000000000000    0.0000000000000007
    -5.4725499999999991    9.4787346469610601    0.0000000000000007
     0.0000000000000000    0.0000000000000000   21.7025000000000006
   Pd   C    O 
    64     1     1
Selective dynamics
Direct
  0.9999991999999978  0.0000008000000022  0.9976446000000010   F   F   F
  0.3333354000000028  0.1666679000000002  0.1027069000000012   F   F   F
  0.1670783379909453  0.3340330271652532  0.2073126670708155   T   T   T
 -0.0005218637801206 -0.0012684909164247  0.3120081064602497   T   T   T
  0.2499991999999978  0.0000008000000022  0.9976446000000010   F   F   F
  0.0833320999999998  0.1666679000000002  0.1027069000000012   F   F   F
  0.4164322309910447  0.3327606323598941  0.2065413061915212   T   T   T
  0.2494136674598137 -0.0012010654721164  0.3119490716614887   T   T   T
  0.2499991999999978  0.2500008000000022  0.9976446000000010   F   F   F
  0.0833320999999998  0.4166679000000002  0.1027069000000012   F   F   F
  0.4164134837155206  0.0826116557145158  0.2065651556906017   T   T   T
  0.2494161240907722  0.2484450107171121  0.3118894206542095   T   T   T
  0.9999991999999978  0.2500008000000022  0.9976446000000010   F   F   F
  0.3333354000000028  0.4166679000000002  0.1027069000000012   F   F   F
  0.1665446538744778  0.0826905092616743  0.2063394415274729   T   T   T
 -0.0006745943098725  0.2484838634280330  0.3119076981321062   T   T   T
  0.4999991999999978  0.0000008000000022  0.9976446000000010   F   F   F
  0.8333320999999998  0.1666679000000002  0.1027069000000012   F   F   F
  0.6664262654378518  0.3326905275891811  0.2067911355866357   T   T   T
  0.5013725689628226  0.0024433186983933  0.3122630302468045   T   T   T
  0.7499991999999978  0.0000008000000022  0.9976446000000010   F   F   F
  0.5833320999999998  0.1666679000000002  0.1027069000000012   F   F   F
  0.9164581935671927  0.3327539144326883  0.2065512092909018   T   T   T
  0.7496633125904960 -0.0011429564035036  0.3119524052048306   T   T   T
  0.7499991999999978  0.2500008000000022  0.9976446000000010   F   F   F
  0.5833320999999998  0.4166679000000002  0.1027069000000012   F   F   F
  0.9162465200274630  0.0826773414536637  0.2063457916213696   T   T   T
  0.7496399370473057  0.2485402176442606  0.3120006572910063   T   T   T
  0.4999991999999978  0.2500008000000022  0.9976446000000010   F   F   F
  0.8333320999999998  0.4166679000000002  0.1027069000000012   F   F   F
  0.6663300634388067  0.0826120788468525  0.2065652306670811   T   T   T
  0.4991094894246243  0.2484981817856455  0.3119695796424345   T   T   T
  0.9999991999999978  0.5000008000000022  0.9976446000000010   F   F   F
  0.3333354000000028  0.6666645999999972  0.1027069000000012   F   F   F
  0.1672151513781877  0.8318562333464680  0.2073393756470698   T   T   T
 -0.0042311174343266  0.4968727148189478  0.3121557667928911   T   T   T
  0.2499991999999978  0.5000008000000022  0.9976446000000010   F   F   F
  0.0833320999999998  0.6666645999999972  0.1027069000000012   F   F   F
  0.4163112890390028  0.8324932551160693  0.2075723113974248   T   T   T
  0.2484127464578940  0.4965034212792215  0.3156739624380090   T   T   T
  0.2499991999999978  0.7500008000000022  0.9976446000000010   F   F   F
  0.0833320999999998  0.9166679000000002  0.1027069000000012   F   F   F
  0.4162484800558494  0.5827034139764993  0.2075524779427727   T   T   T
  0.2485156454063863  0.7496478341566379  0.3158332140264518   T   T   T
  0.9999991999999978  0.7500008000000022  0.9976446000000010   F   F   F
  0.3333354000000028  0.9166679000000002  0.1027069000000012   F   F   F
  0.1665986125524092  0.5827028092744020  0.2075633490898702   T   T   T
 -0.0005543867889375  0.7488299439943665  0.3119186745302244   T   T   T
  0.4999991999999978  0.5000008000000022  0.9976446000000010   F   F   F
  0.8333320999999998  0.6666645999999972  0.1027069000000012   F   F   F
  0.6648259970181799  0.8318558763906454  0.2073295265780895   T   T   T
  0.5014176739819010  0.4968706919498984  0.3121300097133881   T   T   T
  0.7499991999999978  0.5000008000000022  0.9976446000000010   F   F   F
  0.5833320999999998  0.6666645999999972  0.1027069000000012   F   F   F
  0.9163954335737000  0.8325675959717532  0.2063456822125255   T   T   T
  0.7497692189493746  0.4991873917934457  0.3120006779341519   T   T   T
  0.7499991999999978  0.7500008000000022  0.9976446000000010   F   F   F
  0.5833320999999998  0.9166679000000002  0.1027069000000012   F   F   F
  0.9164590047601329  0.5826753684659336  0.2065456719893837   T   T   T
  0.7496747842425940  0.7488184119507135  0.3118994321019479   T   T   T
  0.4999991999999978  0.7500008000000022  0.9976446000000010   F   F   F
  0.8333320999999998  0.9166679000000002  0.1027069000000012   F   F   F
  0.6663728096733074  0.5826615503283449  0.2065416354148931   T   T   T
  0.5015123778371633  0.7497365114199507  0.3157880280618008   T   T   T
  0.3327089401129536  0.6646977650064495  0.3759157889642812   T   T   T
  0.3324429719462123  0.6639853014989578  0.4308448636127682   T   T   T
 
  0.00000000E+00  0.00000000E+00  0.00000000E+00
  0.00000000E+00  0.00000000E+00  0.00000000E+00
  0.00000000E+00  0.00000000E+00  0.00000000E+00
  0.00000000E+00  0.00000000E+00  0.00000000E+00
  0.00000000E+00  0.00000000E+00  0.00000000E+00
  0.00000000E+00  0.00000000E+00  0.00000000E+00
  0.00000000E+00  0.00000000E+00  0.00000000E+00
  0.00000000E+00  0.00000000E+00  0.00000000E+00
  0.00000000E+00  0.00000000E+00  0.00000000E+00
  0.00000000E+00  0.00000000E+00  0.00000000E+00
  0.00000000E+00  0.00000000E+00  0.00000000E+00
  0.00000000E+00  0.00000000E+00  0.00000000E+00
  0.00000000E+00  0.00000000E+00  0.00000000E+00
  0.00000000E+00  0.00000000E+00  0.00000000E+00
  0.00000000E+00  0.00000000E+00  0.00000000E+00
  0.00000000E+00  0.00000000E+00  0.00000000E+00
  0.00000000E+00  0.00000000E+00  0.00000000E+00
  0.00000000E+00  0.00000000E+00  0.00000000E+00
  0.00000000E+00  0.00000000E+00  0.00000000E+00
  0.00000000E+00  0.00000000E+00  0.00000000E+00
  0.00000000E+00  0.00000000E+00  0.00000000E+00
  0.00000000E+00  0.00000000E+00  0.00000000E+00
  0.00000000E+00  0.00000000E+00  0.00000000E+00
  0.00000000E+00  0.00000000E+00  0.00000000E+00
  0.00000000E+00  0.00000000E+00  0.00000000E+00
  0.00000000E+00  0.00000000E+00  0.00000000E+00
  0.00000000E+00  0.00000000E+00  0.00000000E+00
  0.00000000E+00  0.00000000E+00  0.00000000E+00
  0.00000000E+00  0.00000000E+00  0.00000000E+00
  0.00000000E+00  0.00000000E+00  0.00000000E+00
  0.00000000E+00  0.00000000E+00  0.00000000E+00
  0.00000000E+00  0.00000000E+00  0.00000000E+00
  0.00000000E+00  0.00000000E+00  0.00000000E+00
  0.00000000E+00  0.00000000E+00  0.00000000E+00
  0.00000000E+00  0.00000000E+00  0.00000000E+00
  0.00000000E+00  0.00000000E+00  0.00000000E+00
  0.00000000E+00  0.00000000E+00  0.00000000E+00
  0.00000000E+00  0.00000000E+00  0.00000000E+00
  0.00000000E+00  0.00000000E+00  0.00000000E+00
  0.00000000E+00  0.00000000E+00  0.00000000E+00
  0.00000000E+00  0.00000000E+00  0.00000000E+00
  0.00000000E+00  0.00000000E+00  0.00000000E+00
  0.00000000E+00  0.00000000E+00  0.00000000E+00
  0.00000000E+00  0.00000000E+00  0.00000000E+00
  0.00000000E+00  0.00000000E+00  0.00000000E+00
  0.00000000E+00  0.00000000E+00  0.00000000E+00
  0.00000000E+00  0.00000000E+00  0.00000000E+00
  0.00000000E+00  0.00000000E+00  0.00000000E+00
  0.00000000E+00  0.00000000E+00  0.00000000E+00
  0.00000000E+00  0.00000000E+00  0.00000000E+00
  0.00000000E+00  0.00000000E+00  0.00000000E+00
  0.00000000E+00  0.00000000E+00  0.00000000E+00
  0.00000000E+00  0.00000000E+00  0.00000000E+00
  0.00000000E+00  0.00000000E+00  0.00000000E+00
  0.00000000E+00  0.00000000E+00  0.00000000E+00
  0.00000000E+00  0.00000000E+00  0.00000000E+00
  0.00000000E+00  0.00000000E+00  0.00000000E+00
  0.00000000E+00  0.00000000E+00  0.00000000E+00
  0.00000000E+00  0.00000000E+00  0.00000000E+00
  0.00000000E+00  0.00000000E+00  0.00000000E+00
  0.00000000E+00  0.00000000E+00  0.00000000E+00
  0.00000000E+00  0.00000000E+00  0.00000000E+00
  0.00000000E+00  0.00000000E+00  0.00000000E+00
  0.00000000E+00  0.00000000E+00  0.00000000E+00
  0.00000000E+00  0.00000000E+00  0.00000000E+00
  0.00000000E+00  0.00000000E+00  0.00000000E+00
