 Ni\(1\1\1)                             
   1.00000000000000     
     9.8291997910000006    0.0000000000000000    0.0000000000000000
     4.9145998955000003    8.5123367178000002    0.0000000000000000
     0.0000000000000000    0.0000000000000000   33.0128021239999967
   Ni   O    H    C 
    64    35    61     1
Selective dynamics
Direct
  0.8161304800000000  0.5889720400000000  0.1200248400000000   F   F   F
  0.3267620100000000  0.0893950070000000  0.1211907200000000   F   F   F
  0.8281435400000000  0.0930463330000000  0.1197676300000000   F   F   F
  0.3295063000000000  0.5878229600000000  0.1215391700000000   F   F   F
  0.5760458200000000  0.8344787900000000  0.1202235300000000   F   F   F
  0.8191150699999999  0.8479825200000000  0.1227014700000000   F   F   F
  0.0724901780000000  0.3403221100000000  0.1244834100000000   F   F   F
  0.8360156900000000  0.3349392500000000  0.1203170300000000   F   F   F
  0.5719467700000000  0.5928171800000001  0.1215288300000000   F   F   F
  0.0639449950000000  0.5965508899999999  0.1207646600000000   F   F   F
  0.0879175810000000  0.0802031890000000  0.1190218400000000   F   F   F
  0.5738104900000000  0.0977474850000000  0.1218458600000000   F   F   F
  0.3280706200000000  0.8348992600000000  0.1225252200000000   F   F   F
  0.0801046240000000  0.8404303400000001  0.1228029800000000   F   F   F
  0.3222069000000000  0.3505104600000000  0.1209987600000000   F   F   F
  0.5919944700000001  0.3370576000000000  0.1200636500000000   F   F   F
  0.9023347498633271  0.6827011596325888  0.1810444613349663   T   T   T
  0.9130692442448959  0.4208720932936430  0.1869934718553224   T   T   T
  0.6680991888460841  0.6569503357121064  0.1826555230210826   T   T   T
  0.1603379569844661  0.1772224095884075  0.1831749178633988   T   T   T
  0.9168344485998016  0.1716321810459478  0.1828645088959374   T   T   T
  0.8953621860653325  0.9397891997160865  0.1811868012939433   T   T   T
  0.4081187520731152  0.9236874792230719  0.1802663989293802   T   T   T
  0.4117143134218734  0.1720530411528234  0.1853489810203054   T   T   T
  0.6557917399279369  0.1830266651174144  0.1809918579696144   T   T   T
  0.1577854735173448  0.6789174452730405  0.1835253750557488   T   T   T
  0.4162665146447054  0.6730952051968544  0.1835982493331465   T   T   T
  0.4097462623204839  0.4277202006888582  0.1842962067124217   T   T   T
  0.6521904477217095  0.9311080053205907  0.1816919933523453   T   T   T
  0.1621092243826730  0.4306221196321697  0.1838165007124425   T   T   T
  0.6601032008094124  0.4111448154093270  0.1838393848523533   T   T   T
  0.1534925209222854  0.9311005983438955  0.1828559675824076   T   T   T
  0.9790448068736591  0.2577436145356717  0.2499043685279889   T   T   T
  0.4884242745363098  0.2472289924146595  0.2465554335362185   T   T   T
  0.9900154502556204  0.7529567764934431  0.2433131523562698   T   T   T
  0.4920575012757296  0.7558969807782803  0.2423388540002965   T   T   T
  0.7350984475848257  0.7608590584956512  0.2439074423942647   T   T   T
  0.9883342774781890  0.4985257024331737  0.2417191406775164   T   T   T
  0.7280893152753474  0.5181637320806654  0.2497478519392994   T   T   T
  0.2262053674308262  0.0080802488306433  0.2480141678216549   T   T   T
  0.9781333344548405  0.0167061195731068  0.2482312107133449   T   T   T
  0.4851317231035628  0.0015292849462353  0.2441044763751181   T   T   T
  0.2277996081317849  0.7768954105869829  0.2437838839211780   T   T   T
  0.7286605407197450 -0.0007986499023324  0.2425488701259698   T   T   T
  0.2414360953860516  0.2535583587667019  0.2424420326050984   T   T   T
  0.7233832284907146  0.2701137095619073  0.2464399861216157   T   T   T
  0.2357422579776935  0.5066435089292575  0.2424734005340498   T   T   T
  0.4795319001466007  0.5150260198874442  0.2438543989569567   T   T   T
  0.9970724700000000  0.2558556700000000  0.0591330300000000   F   F   F
  0.4999618000000000  0.2500875800000000  0.0594854490000000   F   F   F
  0.9968841600000000  0.7476992099999999  0.0595123730000000   F   F   F
  0.5054474500000000  0.7476859300000001  0.0599706810000000   F   F   F
  0.7507219800000000  0.7486395100000000  0.0599869230000000   F   F   F
  0.9979410800000000  0.5014025600000001  0.0599954450000000   F   F   F
  0.7507273000000000  0.5014379100000000  0.0601539390000000   F   F   F
  0.2484077800000000  0.9989653600000000  0.0601723550000000   F   F   F
  0.0026835400000000  0.9989392600000000  0.0602141130000000   F   F   F
  0.5037179200000000  0.9979203100000000  0.0602187780000000   F   F   F
  0.2483221500000000  0.7533767700000000  0.0603571850000000   F   F   F
  0.7484136000000000  0.9978805400000000  0.0603966020000000   F   F   F
  0.2473094700000000  0.2543786700000000  0.0604625570000000   F   F   F
  0.7483561800000000  0.2543461500000000  0.0604678360000000   F   F   F
  0.2472921900000000  0.4989472700000000  0.0606285480000000   F   F   F
  0.5037960500000001  0.4989156800000000  0.0606927010000000   F   F   F
  0.3259668739771356  0.0724197441556888  0.2830331776444928   T   T   T
  0.8089367980902903  0.0885505653583205  0.2828220405392421   T   T   T
  0.2996127261435049  0.6142485502604725  0.2793978524499540   T   T   T
  0.1748118833775943  0.6629313899426108  0.5544722652090108   T   T   T
  0.5611647556410110  1.0033280682995334  0.4774682364399802   T   T   T
  0.2651049536060573  0.9692864611495745  0.4908710717425812   T   T   T
  0.6486003695161365  0.3359731087893141  0.4736713219009983   T   T   T
 -0.0198761251076964  0.2468454885802645  0.3119100326984693   T   T   T
  0.2003840230636578  0.3525931655260085  0.5557732347839606   T   T   T
  0.7066751945199048  0.7670905760351695  0.3046477595547251   T   T   T
  0.2011487393630363  0.7399542284013811  0.3554551417525150   T   T   T
  0.5097455894254664  0.7192650456298452  0.3747603190608879   T   T   T
  0.5502387613898604  0.6214384393166953  0.4534732017841799   T   T   T
 -0.1270788875938929  0.8044017125633004  0.5200100674722576   T   T   T
  0.8874017111579254  0.0868052709155288  0.5487408682523223   T   T   T
  0.2161424751783458  0.9942814905460219  0.5727899962662224   T   T   T
  0.7288266432302888  0.9719119743817088  0.3505028191136630   T   T   T
 -0.1493226083340169  0.8151770862638857  0.4296266796798721   T   T   T
  0.1469737606628733  0.5803948001503124  0.4254531292089532   T   T   T
  0.1364776238815568  0.3655161923921873  0.3546761222524877   T   T   T
  0.7127882421570982  0.4842104088141644  0.3088512500993704   T   T   T
  0.0468080177773424  0.1854089393824850  0.4499953313317192   T   T   T
  0.8776580578147717  0.4987567750777484  0.4064980433927619   T   T   T
  0.5009557878074415  0.6901431154093880  0.5744773533420753   T   T   T
 -0.0786490514027285  0.3395217199225298  0.5161751290507079   T   T   T
  0.2664091781734207  0.2582882301708240  0.4390839513069874   T   T   T
 -0.0157666367439810  1.0662143234588886  0.3826207515627937   T   T   T
  0.7060050343852905  0.3198989257782142  0.3898828219633448   T   T   T
  0.4961447028661382  0.2440967547544970  0.5275309451644870   T   T   T
  0.7249181633658148  0.6457501396421472  0.5198992784234213   T   T   T
  0.2749595403629083  0.1481834446770457  0.6266003616674122   T   T   T
  0.2732867126523238  0.6872789106363678  0.4835576406594402   T   T   T
  0.4239825352846864  1.0554598274546243  0.3604469258194035   T   T   T
  0.0145168278021591  0.6039062456018475  0.2890043142678510   T   T   T
  0.5021351146933234  0.3400409838369438  0.3303291574992348   T   T   T
  0.1776551720667506  0.5627696620246347  0.5609461211990159   T   T   T
  0.0648831039035449  0.7274204328220024  0.5422897495839935   T   T   T
  0.5595172794716444  1.0829314275341997  0.4967741123054922   T   T   T
  0.6693736804907851  0.9430568971996063  0.4681368636589121   T   T   T
  0.1672995923025256  1.0585847256785874  0.4776364429769253   T   T   T
  0.3577413997039489  0.9681461685181761  0.4816313113129859   T   T   T
  0.7222883850001068  0.2699735798095793  0.4946548948538457   T   T   T
  0.6637761010639224  0.4263620927707289  0.4690050153257168   T   T   T
  0.9991234254715252  0.1505437366608362  0.3238327635124119   T   T   T
  0.0433075088608958  0.2752890271928086  0.3279033742138697   T   T   T
  0.1282239006273002  0.3381583515374972  0.5352376691709548   T   T   T
  0.2240155409372562  0.2670004980707932  0.5771254449004211   T   T   T
 -0.0921398676863576  0.6564283046718796  0.3023322310339461   T   T   T
  0.7204347854723875  0.8372629256605862  0.3271386512876115   T   T   T
  0.2153501342379684  0.6944410417292627  0.3269512533980409   T   T   T
  0.2979091022036502  0.7342453382445557  0.3594550702113651   T   T   T
  0.4957485792759185  0.8249548809262379  0.3714664139944691   T   T   T
  0.5158713041613698  0.7094961854581260  0.4052446885193363   T   T   T
  0.4529860988615690  0.6301141421028150  0.4683725797463685   T   T   T
  0.5891473349655819  0.6482318050254843  0.4788675271803044   T   T   T
  0.8146747428066335  0.7487547774099830  0.5215493177513659   T   T   T
 -0.1187641115344651  0.8121945565760434  0.4888695147940804   T   T   T
  0.8246534166714623  0.1335551216791833  0.5737235933955208   T   T   T
  0.8487914154548747  1.0122142107548306  0.5412172357562234   T   T   T
  0.2488805541217915  1.0010772684867384  0.5446427007308826   T   T   T
  0.1039114406557964  1.0296487898831719  0.5723437546858547   T   T   T
  0.6153390874276417  1.0319165165226374  0.3567569980791423   T   T   T
  0.7435715503502588  1.0320360877154799  0.3295825246548496   T   T   T
 -0.1691288219427980  0.8838666907929895  0.4060039574395226   T   T   T
 -0.0494830220661543  0.7132401475899368  0.4286301488890769   T   T   T
  0.1833693974446180  0.6210194096249261  0.4465107817217210   T   T   T
  0.1691155262338983  0.6184794454045919  0.4002718975038396   T   T   T
  0.1302268442741100  0.4445840828138684  0.3346533921324204   T   T   T
  1.0437716732306204  0.4235438331778748  0.3735820763591401   T   T   T
  0.6212481218819859  0.5302583342841389  0.3262615702593250   T   T   T
  0.8101832571638337  0.4076149512935354  0.3226266360376323   T   T   T
  0.0201101592145436  0.1397431551184680  0.4251720288411099   T   T   T
  0.1278217914644150  0.2077854260953071  0.4395510683390260   T   T   T
  0.7822328338772367  0.5952713403230445  0.3989448248629908   T   T   T
  0.8389885018299112  0.4195824624793246  0.4062664325204932   T   T   T
  0.4873755273067877  0.6490543599881454  0.6001900941195421   T   T   T
  0.3912686710318507  0.7817805559597359  0.5706784733653383   T   T   T
 -0.0506075851817094  0.3027851155238117  0.4878439447727484   T   T   T
 -0.0818503880920272  0.2472148244854216  0.5264263382053557   T   T   T
  0.3555235629233771  0.2068891327400624  0.4570774303538034   T   T   T
  0.2407823237652753  0.3698589715800868  0.4426689425256287   T   T   T
  0.0278303151337086  0.9521486204862284  0.3775469863435243   T   T   T
  0.8676072684607772  1.1196247238350117  0.3803843859877434   T   T   T
  0.6754380717477587  0.3337181497613023  0.4178640942913395   T   T   T
  0.6049448172112227  0.3499370861506345  0.3752106142666073   T   T   T
  0.3874164468171346  0.2883648363485227  0.5360356744723050   T   T   T
  0.5135777564017213  0.3233135106904171  0.5132706003005205   T   T   T
  0.6602957521349864  0.6570516027349054  0.5434600547383862   T   T   T
  0.8072594023647905  0.5322595119947909  0.5149371897297923   T   T   T
  0.3836258229634348  0.1194140339416742  0.6271660279262158   T   T   T
  0.2625945252374139  1.0694814940661055  0.6115181375500247   T   T   T
  0.2702309890352643  0.6407137049344273  0.5115694804637263   T   T   T
  0.2395833312243434  0.8001521114447402  0.4849806369746049   T   T   T
  0.3544797516387885  0.1402841154349179  0.3786323750855243   T   T   T
  0.3761388551394370  0.0679407432806392  0.3326531796862324   T   T   T
  0.7062910258750921  0.6757899714841858  0.3177036385350984   T   T   T
  0.5105934490215549  0.2888028692725619  0.2981475627410035   T   T   T
 
  0.00000000E+00  0.00000000E+00  0.00000000E+00
  0.00000000E+00  0.00000000E+00  0.00000000E+00
  0.00000000E+00  0.00000000E+00  0.00000000E+00
  0.00000000E+00  0.00000000E+00  0.00000000E+00
  0.00000000E+00  0.00000000E+00  0.00000000E+00
  0.00000000E+00  0.00000000E+00  0.00000000E+00
  0.00000000E+00  0.00000000E+00  0.00000000E+00
  0.00000000E+00  0.00000000E+00  0.00000000E+00
  0.00000000E+00  0.00000000E+00  0.00000000E+00
  0.00000000E+00  0.00000000E+00  0.00000000E+00
  0.00000000E+00  0.00000000E+00  0.00000000E+00
  0.00000000E+00  0.00000000E+00  0.00000000E+00
  0.00000000E+00  0.00000000E+00  0.00000000E+00
  0.00000000E+00  0.00000000E+00  0.00000000E+00
  0.00000000E+00  0.00000000E+00  0.00000000E+00
  0.00000000E+00  0.00000000E+00  0.00000000E+00
 -0.66446738E-03  0.17090285E-02  0.16370537E-02
  0.20178995E-02 -0.46386346E-03  0.10020604E-02
  0.23877479E-02  0.15812997E-02 -0.18072756E-03
  0.31195079E-02  0.28362186E-02  0.49942927E-03
  0.39760483E-02 -0.36864538E-02  0.60175774E-03
  0.48111869E-02  0.12307924E-02 -0.25047250E-02
 -0.12171218E-02 -0.52074619E-02  0.20913379E-03
 -0.33161914E-02 -0.15187182E-02 -0.17488115E-02
 -0.25522209E-03  0.16360829E-02 -0.31328508E-03
  0.13223307E-02  0.17814087E-02  0.24410880E-03
  0.17864711E-03  0.52633956E-04 -0.20575041E-03
  0.16979240E-02 -0.36398609E-02  0.95489178E-03
  0.43430689E-03 -0.90845962E-03  0.36634551E-02
  0.86620244E-03  0.14710023E-02  0.32396401E-02
 -0.34319066E-02  0.24892010E-02 -0.33800820E-02
 -0.29026600E-02  0.28418657E-02  0.18862480E-02
  0.40710536E-02 -0.32043031E-02 -0.43658992E-03
  0.50866951E-02 -0.41413262E-02  0.19259632E-02
 -0.22071360E-02  0.36327112E-02 -0.52828598E-04
 -0.44938695E-03 -0.76477607E-03 -0.26961922E-03
 -0.26711287E-02  0.56948939E-03 -0.51904820E-05
  0.97170616E-03  0.53062733E-02 -0.16392280E-02
 -0.45878540E-02 -0.56315541E-03 -0.50792683E-02
  0.11833176E-02 -0.30163720E-03 -0.25689862E-02
 -0.23085873E-04 -0.12766628E-02  0.29966388E-02
  0.89378225E-03 -0.12129520E-02  0.27096735E-03
 -0.91305923E-04 -0.62967319E-03  0.34788196E-02
 -0.24369999E-02 -0.47930162E-03  0.38336892E-03
 -0.10749914E-04 -0.65269548E-03 -0.40486457E-02
 -0.19439590E-02  0.40739719E-02 -0.63241232E-03
  0.80814739E-03  0.26909144E-02 -0.22413134E-02
 -0.23173315E-03  0.24159429E-02  0.57289240E-03
  0.00000000E+00  0.00000000E+00  0.00000000E+00
  0.00000000E+00  0.00000000E+00  0.00000000E+00
  0.00000000E+00  0.00000000E+00  0.00000000E+00
  0.00000000E+00  0.00000000E+00  0.00000000E+00
  0.00000000E+00  0.00000000E+00  0.00000000E+00
  0.00000000E+00  0.00000000E+00  0.00000000E+00
  0.00000000E+00  0.00000000E+00  0.00000000E+00
  0.00000000E+00  0.00000000E+00  0.00000000E+00
  0.00000000E+00  0.00000000E+00  0.00000000E+00
  0.00000000E+00  0.00000000E+00  0.00000000E+00
  0.00000000E+00  0.00000000E+00  0.00000000E+00
  0.00000000E+00  0.00000000E+00  0.00000000E+00
  0.00000000E+00  0.00000000E+00  0.00000000E+00
  0.00000000E+00  0.00000000E+00  0.00000000E+00
  0.00000000E+00  0.00000000E+00  0.00000000E+00
  0.00000000E+00  0.00000000E+00  0.00000000E+00
 -0.16089424E-02  0.10094370E-02  0.39323175E-02
  0.43794694E-02  0.29436457E-03 -0.16656322E-02
  0.31538662E-03  0.21870511E-02 -0.22523814E-02
  0.24102685E-02  0.53134187E-03 -0.29059677E-02
  0.16853987E-03 -0.50482243E-02  0.25711333E-02
 -0.46498527E-02  0.51343720E-02  0.14409770E-02
 -0.59684751E-02 -0.18097288E-02  0.43226027E-02
  0.30476469E-02 -0.42673482E-02  0.10429197E-02
 -0.23493068E-02  0.46210396E-02  0.20017245E-02
 -0.14908037E-02 -0.16827177E-02 -0.77632027E-05
  0.48508984E-02 -0.72755711E-03  0.92028156E-03
  0.27451534E-02  0.23097017E-02  0.17157709E-03
  0.42600970E-02 -0.12335812E-02  0.50484297E-02
  0.76956330E-02 -0.37908338E-03  0.53369176E-02
  0.25035064E-02 -0.53514929E-02  0.54373381E-02
  0.17177614E-03 -0.48357947E-02  0.86080445E-02
  0.25297059E-02  0.64256991E-02 -0.27816802E-02
 -0.60326036E-02 -0.50960140E-02 -0.53831179E-02
 -0.42118429E-02  0.30133824E-02 -0.11036110E-03
  0.71754090E-02 -0.12872670E-02  0.36211821E-02
  0.60756975E-02 -0.49355219E-02  0.12044909E-03
 -0.81604090E-02  0.31855960E-02  0.91184608E-03
  0.56495499E-02 -0.57920011E-03  0.14077155E-02
 -0.11039560E-02  0.72798155E-02  0.14896618E-03
  0.22566376E-02 -0.47383071E-02 -0.37935379E-02
 -0.65160852E-02 -0.47503134E-02 -0.60214411E-02
  0.74252821E-02 -0.67963435E-02 -0.32211286E-02
  0.57408695E-02 -0.69366125E-03 -0.84410736E-04
  0.17672379E-03 -0.10905247E-03 -0.47699284E-02
  0.53353855E-02 -0.28364217E-02  0.23131528E-02
 -0.39145561E-02 -0.61565373E-02 -0.19778301E-02
 -0.38391290E-02 -0.10004261E-02 -0.39176905E-02
 -0.68092171E-02 -0.10154235E-01  0.75278493E-02
 -0.36214249E-02  0.36268882E-02 -0.58705408E-03
  0.66170882E-02 -0.58552951E-02 -0.20232366E-02
  0.98528127E-02  0.12299060E-01 -0.28337544E-03
 -0.23244000E-01 -0.13088591E-01  0.13640915E-01
  0.49480962E-02  0.12274715E-01 -0.18957384E-01
 -0.10978610E-02  0.13180054E-01  0.23914071E-01
  0.29690300E-01  0.17620914E-02 -0.95020201E-02
  0.88374762E-04 -0.21855550E-02  0.81259094E-03
 -0.18523259E-01 -0.90688394E-02  0.30669921E-02
 -0.31225491E-01  0.20469714E-01  0.16585945E-01
  0.31366618E-01 -0.13011560E-01 -0.45832148E-02
  0.23722386E-01  0.26774810E-01 -0.87651279E-02
  0.69245099E-02  0.17830906E-01  0.48467460E-02
 -0.17034797E-01  0.16361929E-02  0.20077636E-02
  0.47885243E-02  0.41344959E-02  0.15116529E-01
  0.13729442E-01  0.50446834E-02 -0.21003445E-01
 -0.14571104E-01 -0.20477061E-01  0.48908920E-02
  0.57907161E-02 -0.57762305E-02  0.21651798E-01
 -0.10532776E-01 -0.32532481E-02  0.59872539E-02
  0.10621411E-01  0.27223955E-01  0.11161664E-02
  0.21314898E-01 -0.19148137E-01 -0.10598176E-01
  0.12327661E-01  0.23165231E-01 -0.18200535E-01
 -0.85930612E-02  0.12997542E-01 -0.90545557E-03
 -0.54626269E-02  0.76990502E-02  0.89034820E-02
  0.10707280E-01 -0.10551448E-01  0.83984524E-02
 -0.40060610E-02  0.17486642E-01  0.28008865E-01
 -0.23702048E-01 -0.72878684E-03  0.17008934E-01
 -0.43730702E-02  0.25254533E-02 -0.22812179E-01
  0.13593801E-01  0.16619858E-02  0.12747732E-01
 -0.15020953E-01 -0.33310283E-02 -0.16390901E-01
  0.18915848E-01 -0.20582070E-01 -0.11799956E-01
  0.16266551E-01 -0.50000573E-01 -0.22632634E-02
 -0.20756738E-01  0.40519302E-02  0.29018700E-02
  0.79067559E-02  0.73820484E-02  0.35745586E-02
  0.10095069E-02 -0.47826627E-02  0.85219406E-02
  0.19519612E-01  0.82478387E-02  0.68650027E-02
 -0.83115347E-02 -0.70090642E-02 -0.83024103E-02
 -0.96519371E-02 -0.18374368E-02  0.41330161E-02
  0.41499418E-02 -0.42134664E-02  0.12233011E-01
  0.11655189E-01 -0.14845525E-01  0.22195326E-01
 -0.99143246E-02 -0.28215711E-01  0.21920105E-02
  0.99492795E-02 -0.17837142E-01 -0.63284839E-02
  0.48633670E-02 -0.23102531E-01  0.10978615E-01
 -0.60482762E-02 -0.12135066E-01  0.14116383E-01
  0.13413417E-01 -0.45008225E-02 -0.17598353E-02
  0.90025014E-02  0.44487556E-02 -0.24614115E-01
 -0.81556879E-02 -0.27735972E-01 -0.45502433E-02
 -0.23100871E-02 -0.17342448E-01  0.12387025E-01
 -0.57896113E-02 -0.86753850E-02  0.96080816E-02
 -0.40250320E-02 -0.60244686E-02  0.34848981E-01
  0.33998389E-02 -0.23253747E-01  0.35582328E-02
  0.26948119E-01 -0.23336259E-01 -0.10053758E-01
  0.10234858E-01  0.16022740E-01  0.32064839E-02
  0.15491575E-01 -0.10275225E-01 -0.12430723E-01
  0.12617973E-01 -0.58354298E-02 -0.31189365E-02
  0.75413243E-02 -0.15582251E-02  0.18893589E-01
 -0.67555397E-02 -0.22285192E-01 -0.33280991E-01
  0.12478546E-01 -0.12809478E-01  0.13960603E-01
  0.20189864E-02  0.11933827E-01  0.83171600E-02
 -0.98066070E-02 -0.93916391E-02 -0.75435619E-02
 -0.22933748E-02  0.16468547E-01 -0.14697789E-01
  0.49423842E-02  0.32637246E-02  0.15037203E-01
 -0.11249158E-01  0.15004286E-01 -0.37063150E-02
  0.10460517E-01 -0.15935048E-02 -0.63145861E-02
 
           1
   1.00000000000000     
  0.11871876E+00 -0.44800676E-03 -0.79436342E-03  0.11933995E+00
  0.81613048E+00  0.58897204E+00  0.12002484E+00
  0.32676201E+00  0.89395007E-01  0.12119072E+00
  0.82814354E+00  0.93046333E-01  0.11976763E+00
  0.32950630E+00  0.58782296E+00  0.12153917E+00
  0.57604582E+00  0.83447879E+00  0.12022353E+00
  0.81911507E+00  0.84798252E+00  0.12270147E+00
  0.72490178E-01  0.34032211E+00  0.12448341E+00
  0.83601569E+00  0.33493925E+00  0.12031703E+00
  0.57194677E+00  0.59281718E+00  0.12152883E+00
  0.63944995E-01  0.59655089E+00  0.12076466E+00
  0.87917581E-01  0.80203189E-01  0.11902184E+00
  0.57381049E+00  0.97747485E-01  0.12184586E+00
  0.32807062E+00  0.83489926E+00  0.12252522E+00
  0.80104624E-01  0.84043034E+00  0.12280298E+00
  0.32220690E+00  0.35051046E+00  0.12099876E+00
  0.59199447E+00  0.33705760E+00  0.12006365E+00
  0.90216676E+00  0.68290193E+00  0.18109405E+00
  0.91330179E+00  0.42081760E+00  0.18702383E+00
  0.66824923E+00  0.65713610E+00  0.18265005E+00
  0.16048873E+00  0.17755560E+00  0.18319005E+00
  0.91745550E+00  0.17119911E+00  0.18288274E+00
  0.89577937E+00  0.93993379E+00  0.18111093E+00
  0.40830080E+00  0.92307572E+00  0.18027273E+00
  0.41146614E+00  0.17187463E+00  0.18529601E+00
  0.65566967E+00  0.18321887E+00  0.18098237E+00
  0.15781537E+00  0.67912672E+00  0.18353277E+00
  0.41628160E+00  0.67310139E+00  0.18359202E+00
  0.41013280E+00  0.42729260E+00  0.18432513E+00
  0.65228799E+00  0.93100128E+00  0.18180296E+00
  0.16211095E+00  0.43079493E+00  0.18391463E+00
  0.65960784E+00  0.41143724E+00  0.18373700E+00
  0.15303028E+00  0.93143445E+00  0.18291310E+00
  0.97964720E+00  0.25736718E+00  0.24989114E+00
  0.48918504E+00  0.24674248E+00  0.24661377E+00
  0.98957752E+00  0.75338353E+00  0.24331155E+00
  0.49205670E+00  0.75580714E+00  0.24233069E+00
  0.73479324E+00  0.76092596E+00  0.24390729E+00
  0.98812146E+00  0.49914907E+00  0.24166949E+00
  0.72765564E+00  0.51809757E+00  0.24959399E+00
  0.22634347E+00  0.80448135E-02  0.24793635E+00
  0.97820597E+00  0.16556142E-01  0.24832198E+00
  0.48529390E+00  0.13867915E-02  0.24411268E+00
  0.22782730E+00  0.77682144E+00  0.24388926E+00
  0.72844076E+00  0.99914504E+00  0.24256048E+00
  0.24147334E+00  0.25348168E+00  0.24231939E+00
  0.72294616E+00  0.27059231E+00  0.24642083E+00
  0.23566642E+00  0.50695963E+00  0.24240551E+00
  0.47936642E+00  0.51530984E+00  0.24387175E+00
  0.99707247E+00  0.25585567E+00  0.59133030E-01
  0.49996180E+00  0.25008758E+00  0.59485449E-01
  0.99688416E+00  0.74769921E+00  0.59512373E-01
  0.50544745E+00  0.74768593E+00  0.59970681E-01
  0.75072198E+00  0.74863951E+00  0.59986923E-01
  0.99794108E+00  0.50140256E+00  0.59995445E-01
  0.75072730E+00  0.50143791E+00  0.60153939E-01
  0.24840778E+00  0.99896536E+00  0.60172355E-01
  0.26835400E-02  0.99893926E+00  0.60214113E-01
  0.50371792E+00  0.99792031E+00  0.60218778E-01
  0.24832215E+00  0.75337677E+00  0.60357185E-01
  0.74841360E+00  0.99788054E+00  0.60396602E-01
  0.24730947E+00  0.25437867E+00  0.60462557E-01
  0.74835618E+00  0.25434615E+00  0.60467836E-01
  0.24729219E+00  0.49894727E+00  0.60628548E-01
  0.50379605E+00  0.49891568E+00  0.60692701E-01
  0.32574389E+00  0.72538329E-01  0.28315229E+00
  0.80936506E+00  0.88585146E-01  0.28277159E+00
  0.29951635E+00  0.61450548E+00  0.27932962E+00
  0.17502589E+00  0.66299381E+00  0.55438424E+00
  0.56147843E+00  0.27350203E-02  0.47754612E+00
  0.26433030E+00  0.96988963E+00  0.49091472E+00
  0.64809945E+00  0.33576051E+00  0.47380226E+00
  0.98068459E+00  0.24634418E+00  0.31194162E+00
  0.19987358E+00  0.35313603E+00  0.55583387E+00
  0.70662236E+00  0.76689290E+00  0.30464752E+00
  0.20168499E+00  0.73986876E+00  0.35548302E+00
  0.50988921E+00  0.71953638E+00  0.37476552E+00
  0.55074463E+00  0.62129352E+00  0.45362613E+00
  0.87372631E+00  0.80435718E+00  0.52017173E+00
  0.88797075E+00  0.86176596E-01  0.54890557E+00
  0.21644400E+00  0.99371340E+00  0.57305074E+00
  0.72870658E+00  0.97266684E+00  0.35041856E+00
  0.85036298E+00  0.81457842E+00  0.42946362E+00
  0.14636826E+00  0.58074880E+00  0.42544979E+00
  0.13728325E+00  0.36536497E+00  0.35478581E+00
  0.71369627E+00  0.48363060E+00  0.30885490E+00
  0.45790680E-01  0.18578317E+00  0.45002295E+00
  0.87826685E+00  0.49868873E+00  0.40654068E+00
  0.50041587E+00  0.69099832E+00  0.57448187E+00
  0.92185885E+00  0.33896508E+00  0.51606022E+00
  0.26602527E+00  0.25773018E+00  0.43890155E+00
  0.98538800E+00  0.65415912E-01  0.38252318E+00
  0.70662984E+00  0.31981744E+00  0.38988027E+00
  0.49616909E+00  0.24408394E+00  0.52738646E+00
  0.72562758E+00  0.64541693E+00  0.51996935E+00
  0.27492291E+00  0.14746020E+00  0.62654045E+00
  0.27295489E+00  0.68716138E+00  0.48343897E+00
  0.42388622E+00  0.54266943E-01  0.36067495E+00
  0.13935355E-01  0.60433232E+00  0.28898653E+00
  0.50315225E+00  0.33935312E+00  0.33026787E+00
  0.17793515E+00  0.56421451E+00  0.56093754E+00
  0.63287115E-01  0.72588283E+00  0.54270295E+00
  0.55929969E+00  0.84373419E-01  0.49619987E+00
  0.66848781E+00  0.94460524E+00  0.46886125E+00
  0.17021671E+00  0.58791730E-01  0.47734861E+00
  0.35787877E+00  0.96788942E+00  0.48165593E+00
  0.72093656E+00  0.26890820E+00  0.49474780E+00
  0.65939694E+00  0.42876680E+00  0.46950742E+00
  0.30788692E-02  0.14901518E+00  0.32369393E+00
  0.44148263E-01  0.27843444E+00  0.32763787E+00
  0.12788103E+00  0.34025306E+00  0.53538448E+00
  0.22218635E+00  0.26719271E+00  0.57718626E+00
  0.90810445E+00  0.65691401E+00  0.30279013E+00
  0.72153527E+00  0.83785556E+00  0.32650243E+00
  0.21507049E+00  0.69203547E+00  0.32709940E+00
  0.29883752E+00  0.73356677E+00  0.36011093E+00
  0.49486809E+00  0.82457270E+00  0.37164778E+00
  0.51535281E+00  0.71269436E+00  0.40527850E+00
  0.45627936E+00  0.62786468E+00  0.46805155E+00
  0.58904084E+00  0.65095318E+00  0.47831621E+00
  0.81303705E+00  0.75028168E+00  0.52152189E+00
  0.88022790E+00  0.81309901E+00  0.48913921E+00
  0.82636252E+00  0.13231557E+00  0.57397799E+00
  0.84735671E+00  0.14268481E-01  0.54206566E+00
  0.24651197E+00  0.99165312E-03  0.54515792E+00
  0.10331819E+00  0.29945471E-01  0.57165274E+00
  0.61662447E+00  0.32111761E-01  0.35714314E+00
  0.74223901E+00  0.31644770E-01  0.32908602E+00
  0.83400459E+00  0.88144878E+00  0.40564652E+00
  0.95510885E+00  0.70736625E+00  0.42856159E+00
  0.18101965E+00  0.62149542E+00  0.44659868E+00
  0.16948633E+00  0.61934666E+00  0.40038018E+00
  0.13061047E+00  0.44402223E+00  0.33491153E+00
  0.45273089E-01  0.42451276E+00  0.37379003E+00
  0.62081423E+00  0.52943493E+00  0.32601008E+00
  0.80930922E+00  0.40739910E+00  0.32275183E+00
  0.20779856E-01  0.13924817E+00  0.42554258E+00
  0.12987956E+00  0.20604142E+00  0.44022339E+00
  0.78288152E+00  0.59195666E+00  0.39901122E+00
  0.84104844E+00  0.41748702E+00  0.40607473E+00
  0.48922732E+00  0.64634035E+00  0.60052265E+00
  0.39136613E+00  0.78035497E+00  0.57110608E+00
  0.95102144E+00  0.30225637E+00  0.48779064E+00
  0.91880419E+00  0.24773745E+00  0.52568075E+00
  0.35632299E+00  0.20363081E+00  0.45693960E+00
  0.24156597E+00  0.36782164E+00  0.44304416E+00
  0.27750871E-01  0.95112947E+00  0.37783803E+00
  0.86755164E+00  0.11891699E+00  0.38144001E+00
  0.67714985E+00  0.33098638E+00  0.41797188E+00
  0.60905719E+00  0.34719562E+00  0.37490607E+00
  0.38751657E+00  0.29024713E+00  0.53613280E+00
  0.51575738E+00  0.32210641E+00  0.51289406E+00
  0.66192224E+00  0.65636608E+00  0.54336558E+00
  0.80811817E+00  0.53207646E+00  0.51550950E+00
  0.38424752E+00  0.11679605E+00  0.62615790E+00
  0.26461647E+00  0.67976681E-01  0.61194102E+00
  0.26973542E+00  0.64211565E+00  0.51182142E+00
  0.23913728E+00  0.79904881E+00  0.48475213E+00
  0.35327909E+00  0.14221878E+00  0.37818716E+00
  0.37644998E+00  0.68324154E-01  0.33310868E+00
  0.70426524E+00  0.67755262E+00  0.31759137E+00
  0.51175128E+00  0.28861567E+00  0.29795629E+00
  0.00000000E+00  0.00000000E+00  0.00000000E+00
  0.00000000E+00  0.00000000E+00  0.00000000E+00
  0.00000000E+00  0.00000000E+00  0.00000000E+00
  0.00000000E+00  0.00000000E+00  0.00000000E+00
  0.00000000E+00  0.00000000E+00  0.00000000E+00
  0.00000000E+00  0.00000000E+00  0.00000000E+00
  0.00000000E+00  0.00000000E+00  0.00000000E+00
  0.00000000E+00  0.00000000E+00  0.00000000E+00
  0.00000000E+00  0.00000000E+00  0.00000000E+00
  0.00000000E+00  0.00000000E+00  0.00000000E+00
  0.00000000E+00  0.00000000E+00  0.00000000E+00
  0.00000000E+00  0.00000000E+00  0.00000000E+00
  0.00000000E+00  0.00000000E+00  0.00000000E+00
  0.00000000E+00  0.00000000E+00  0.00000000E+00
  0.00000000E+00  0.00000000E+00  0.00000000E+00
  0.00000000E+00  0.00000000E+00  0.00000000E+00
  0.00000000E+00  0.00000000E+00  0.00000000E+00
  0.00000000E+00  0.00000000E+00  0.00000000E+00
  0.00000000E+00  0.00000000E+00  0.00000000E+00
  0.00000000E+00  0.00000000E+00  0.00000000E+00
  0.00000000E+00  0.00000000E+00  0.00000000E+00
  0.00000000E+00  0.00000000E+00  0.00000000E+00
  0.00000000E+00  0.00000000E+00  0.00000000E+00
  0.00000000E+00  0.00000000E+00  0.00000000E+00
  0.00000000E+00  0.00000000E+00  0.00000000E+00
  0.00000000E+00  0.00000000E+00  0.00000000E+00
  0.00000000E+00  0.00000000E+00  0.00000000E+00
  0.00000000E+00  0.00000000E+00  0.00000000E+00
  0.00000000E+00  0.00000000E+00  0.00000000E+00
  0.00000000E+00  0.00000000E+00  0.00000000E+00
  0.00000000E+00  0.00000000E+00  0.00000000E+00
  0.00000000E+00  0.00000000E+00  0.00000000E+00
  0.00000000E+00  0.00000000E+00  0.00000000E+00
  0.00000000E+00  0.00000000E+00  0.00000000E+00
  0.00000000E+00  0.00000000E+00  0.00000000E+00
  0.00000000E+00  0.00000000E+00  0.00000000E+00
  0.00000000E+00  0.00000000E+00  0.00000000E+00
  0.00000000E+00  0.00000000E+00  0.00000000E+00
  0.00000000E+00  0.00000000E+00  0.00000000E+00
  0.00000000E+00  0.00000000E+00  0.00000000E+00
  0.00000000E+00  0.00000000E+00  0.00000000E+00