 CONTCAR\(15)                           
   1.00000000000000     
     9.8291997910000006    0.0000000000000000    0.0000000000000000
     4.9145998955000003    8.5123367178000002    0.0000000000000000
     0.0000000000000000    0.0000000000000000   19.0128002167000005
   Ni   O 
    64     1
Selective dynamics
Direct
  0.0820859239999976  0.0853893090000000  0.1769045570000003   F   F   F
  0.3320606220000002  0.0853895819999977  0.1768983500000019   F   F   F
  0.3321350229999993  0.8353552940000029  0.1769282579999967   F   F   F
  0.5820235719999971  0.3354048120000002  0.1769164199999977   F   F   F
  0.3320824970000018  0.5853625190000002  0.1769149029999966   F   F   F
  0.3320413989999977  0.3353577580000007  0.1768658209999998   F   F   F
  0.8320489050000006  0.0854081170000001  0.1769476569999995   F   F   F
  0.5819999280000019  0.0854048260000013  0.1769176740000020   F   F   F
  0.8320446789999991  0.3354047560000026  0.1769184890000020   F   F   F
  0.5820607089999967  0.5854306920000028  0.1769178999999994   F   F   F
  0.0820949029999980  0.8352966440000031  0.1769376880000024   F   F   F
  0.5820859990000002  0.8354016760000036  0.1769298999999975   F   F   F
  0.0820782139999992  0.3353299730000003  0.1769054849999989   F   F   F
  0.8320439359999980  0.5854464330000013  0.1769503530000023   F   F   F
  0.0820345919999994  0.5853827979999977  0.1768957540000002   F   F   F
  0.8320200599999978  0.8354260990000029  0.1769315929999991   F   F   F
  0.1663384231014431  0.1695125073386326  0.2829594679341345   T   T   T
  0.1653778037082687  0.9187090769073033  0.2820415627490268   T   T   T
  0.4151906212384945  0.1691091834928230  0.2824143184190635   T   T   T
  0.4151257045475479  0.9188348167377459  0.2819445636787545   T   T   T
  0.4151093017713397  0.4183646793284103  0.2824017992421694   T   T   T
  0.4150966376950827  0.6687223897102530  0.2819677140944945   T   T   T
  0.9154671351583258  0.1685746985588850  0.2820495655304170   T   T   T
  0.6637105062867633  0.1694758963532462  0.2829751622590584   T   T   T
  0.6655142879978212  0.4183379084686442  0.2819629864076638   T   T   T
  0.1662766335579079  0.6668909142506894  0.2829246914935343   T   T   T
  0.9156377928975264  0.4183374884812328  0.2819819283919785   T   T   T
  0.6654672616425246  0.6686420684733593  0.2823153837021171   T   T   T
  0.9154614811036965  0.9186486731986585  0.2820537823153889   T   T   T
  0.6655837728144794  0.9188955363119994  0.2819731279078744   T   T   T
  0.1658736082808858  0.4184268010778541  0.2823869287900437   T   T   T
  0.9157221759454105  0.6687284629601850  0.2819744785917448   T   T   T
  0.2483519848177499  0.0012454738053534  0.3874211768477079   T   T   T
  0.5035051657078997  0.2494256755298068  0.3921291469164317   T   T   T
  0.5017293237585764  0.5048984322430689  0.3868058073111774   T   T   T
  0.2466017699646009  0.2493693415559711  0.3921295210673341   T   T   T
  0.9979672310748209  0.2516627931391657  0.3874443214836940   T   T   T
  0.7497793533628859  0.2516951529858023  0.3874453414698782   T   T   T
  0.4984889134573343  0.7520433288177573  0.3879898110359030   T   T   T
  0.2483401090491221  0.7530614419489983  0.3873739967124992   T   T   T
  0.5019512324920510 -0.0044840910680767  0.3867569836587207   T   T   T
  0.9987501894060414  0.0019377036610669  0.3879853492056895   T   T   T
  0.2464171965087547  0.5064253413793283  0.3919215222649640   T   T   T
  0.7488550843053629  0.5017315700570171  0.3879815122969248   T   T   T
  0.7498309597151989  0.0012389418857224  0.3874605174268575   T   T   T
  0.9979588668056640  0.7530431564690175  0.3874186014933057   T   T   T
  0.7489024052491721  0.7520147040805613  0.3880472046059668   T   T   T
  0.9927313439933375  0.5048837155585115  0.3868744349510349   T   T   T
  0.2488099890000015  0.0018900000000031  0.0714200000000034   F   F   F
  0.4986599900000002  0.2520299789999996  0.0714200000000034   F   F   F
  0.4987100749999982  0.5019500149999985  0.0714200000000034   F   F   F
  0.2486699889999997  0.2519600139999980  0.0714200000000034   F   F   F
  0.9988300199999998  0.2520000100000033  0.0714200000000034   F   F   F
  0.7487000469999998  0.2521199990000014  0.0714200000000034   F   F   F
  0.4986899749999978  0.7520999730000000  0.0714200000000034   F   F   F
  0.2487699630000009  0.7521200280000002  0.0714200000000034   F   F   F
  0.4985999800000016  0.0021100000000018  0.0714200000000034   F   F   F
  0.9987700320000030  0.0022099999999980  0.0714200000000034   F   F   F
  0.2487500120000021  0.5021200269999966  0.0714200000000034   F   F   F
  0.7486699880000032  0.5022699849999981  0.0714200000000034   F   F   F
  0.7485899979999999  0.0024500000000032  0.0714200000000034   F   F   F
  0.9987000519999967  0.7524499689999971  0.0714200000000034   F   F   F
  0.7486699279999982  0.7524300270000026  0.0714200000000034   F   F   F
  0.9986899559999998  0.5022000199999965  0.0714200000000034   F   F   F
  0.3322636723970768  0.3350175831633133  0.4503494094023340   T   T   T
 
  0.00000000E+00  0.00000000E+00  0.00000000E+00
  0.00000000E+00  0.00000000E+00  0.00000000E+00
  0.00000000E+00  0.00000000E+00  0.00000000E+00
  0.00000000E+00  0.00000000E+00  0.00000000E+00
  0.00000000E+00  0.00000000E+00  0.00000000E+00
  0.00000000E+00  0.00000000E+00  0.00000000E+00
  0.00000000E+00  0.00000000E+00  0.00000000E+00
  0.00000000E+00  0.00000000E+00  0.00000000E+00
  0.00000000E+00  0.00000000E+00  0.00000000E+00
  0.00000000E+00  0.00000000E+00  0.00000000E+00
  0.00000000E+00  0.00000000E+00  0.00000000E+00
  0.00000000E+00  0.00000000E+00  0.00000000E+00
  0.00000000E+00  0.00000000E+00  0.00000000E+00
  0.00000000E+00  0.00000000E+00  0.00000000E+00
  0.00000000E+00  0.00000000E+00  0.00000000E+00
  0.00000000E+00  0.00000000E+00  0.00000000E+00
  0.00000000E+00  0.00000000E+00  0.00000000E+00
  0.00000000E+00  0.00000000E+00  0.00000000E+00
  0.00000000E+00  0.00000000E+00  0.00000000E+00
  0.00000000E+00  0.00000000E+00  0.00000000E+00
  0.00000000E+00  0.00000000E+00  0.00000000E+00
  0.00000000E+00  0.00000000E+00  0.00000000E+00
  0.00000000E+00  0.00000000E+00  0.00000000E+00
  0.00000000E+00  0.00000000E+00  0.00000000E+00
  0.00000000E+00  0.00000000E+00  0.00000000E+00
  0.00000000E+00  0.00000000E+00  0.00000000E+00
  0.00000000E+00  0.00000000E+00  0.00000000E+00
  0.00000000E+00  0.00000000E+00  0.00000000E+00
  0.00000000E+00  0.00000000E+00  0.00000000E+00
  0.00000000E+00  0.00000000E+00  0.00000000E+00
  0.00000000E+00  0.00000000E+00  0.00000000E+00
  0.00000000E+00  0.00000000E+00  0.00000000E+00
  0.00000000E+00  0.00000000E+00  0.00000000E+00
  0.00000000E+00  0.00000000E+00  0.00000000E+00
  0.00000000E+00  0.00000000E+00  0.00000000E+00
  0.00000000E+00  0.00000000E+00  0.00000000E+00
  0.00000000E+00  0.00000000E+00  0.00000000E+00
  0.00000000E+00  0.00000000E+00  0.00000000E+00
  0.00000000E+00  0.00000000E+00  0.00000000E+00
  0.00000000E+00  0.00000000E+00  0.00000000E+00
  0.00000000E+00  0.00000000E+00  0.00000000E+00
  0.00000000E+00  0.00000000E+00  0.00000000E+00
  0.00000000E+00  0.00000000E+00  0.00000000E+00
  0.00000000E+00  0.00000000E+00  0.00000000E+00
  0.00000000E+00  0.00000000E+00  0.00000000E+00
  0.00000000E+00  0.00000000E+00  0.00000000E+00
  0.00000000E+00  0.00000000E+00  0.00000000E+00
  0.00000000E+00  0.00000000E+00  0.00000000E+00
  0.00000000E+00  0.00000000E+00  0.00000000E+00
  0.00000000E+00  0.00000000E+00  0.00000000E+00
  0.00000000E+00  0.00000000E+00  0.00000000E+00
  0.00000000E+00  0.00000000E+00  0.00000000E+00
  0.00000000E+00  0.00000000E+00  0.00000000E+00
  0.00000000E+00  0.00000000E+00  0.00000000E+00
  0.00000000E+00  0.00000000E+00  0.00000000E+00
  0.00000000E+00  0.00000000E+00  0.00000000E+00
  0.00000000E+00  0.00000000E+00  0.00000000E+00
  0.00000000E+00  0.00000000E+00  0.00000000E+00
  0.00000000E+00  0.00000000E+00  0.00000000E+00
  0.00000000E+00  0.00000000E+00  0.00000000E+00
  0.00000000E+00  0.00000000E+00  0.00000000E+00
  0.00000000E+00  0.00000000E+00  0.00000000E+00
  0.00000000E+00  0.00000000E+00  0.00000000E+00
  0.00000000E+00  0.00000000E+00  0.00000000E+00
  0.00000000E+00  0.00000000E+00  0.00000000E+00
