 Ni\(1\1\1)                             
   1.00000000000000     
     9.8291997910000006    0.0000000000000000    0.0000000000000000
     4.9145998955000003    8.5123367178000002    0.0000000000000000
     0.0000000000000000    0.0000000000000000   19.0128002167000005
   Ni   O 
    64     1
Selective dynamics
Direct
  0.8330715456518076  0.5840231919507456  0.2718032101193748   T   T   T
  0.3334860398634794  0.0840650426890884  0.2700073654205438   T   T   T
  0.8328833536855118  0.0842359801898278  0.2705436684012311   T   T   T
  0.3333856323591867  0.5840739955242938  0.2708909436453381   T   T   T
  0.5838646943001270  0.8340155326644549  0.2715494437773320   T   T   T
  0.8328229475597011  0.8338543806631677  0.2712060688825310   T   T   T
  0.0830663105175944  0.3344426605984963  0.2712726626286547   T   T   T
  0.8335070236688539  0.3342754425087578  0.2714029031706461   T   T   T
  0.5837826616670765  0.5839812174778285  0.2717694267680105   T   T   T
  0.0828076959599569  0.5838062440005994  0.2712023759463187   T   T   T
  0.0829244622413060  0.0847232943083358  0.2703712955081963   T   T   T
  0.5830548475466257  0.0841804079700362  0.2713932468335574   T   T   T
  0.3338369715766286  0.8338676263384979  0.2708347038549410   T   T   T
  0.0826156988567715  0.8335440878118845  0.2703812539402487   T   T   T
  0.3333536830186747  0.3339697292707455  0.2715517197553522   T   T   T
  0.5829850370495472  0.3338706121770599  0.2715267734552266   T   T   T
  0.9167813293257938  0.6673222632694762  0.3759526086874503   T   T   T
  0.9166265375444670  0.4174737214848490  0.3772489952672673   T   T   T
  0.6671476371032683  0.6669283399564995  0.3774032682029329   T   T   T
  0.1631556459220215  0.1686230335569797  0.3755033319538895   T   T   T
  0.9167531328843835  0.1666970964479694  0.3763266865909607   T   T   T
  0.9168884993383351  0.9167880394129900  0.3754689090170529   T   T   T
  0.4181990178293905  0.9137061727763982  0.3757478268452501   T   T   T
  0.4180996533995489  0.1683335526654722  0.3760360082672394   T   T   T
  0.6673922440488602  0.1666534107144062  0.3768188842921650   T   T   T
  0.1659813248178873  0.6676226477093665  0.3755503618148949   T   T   T
  0.4163791836245810  0.6670830199717889  0.3766105804096094   T   T   T
  0.4162927342102788  0.4177037792476890  0.3769096278011018   T   T   T
  0.6690660263738654  0.9159851917406592  0.3772853688641228   T   T   T
  0.1654844461970625  0.4194549907410032  0.3771038972875152   T   T   T
  0.6668029463055181  0.4168532698892459  0.3769743599956463   T   T   T
  0.1653550965197543  0.9159590432762520  0.3760276563410929   T   T   T
  0.9929781244207119  0.2535918529923133  0.4833658850360578   T   T   T
  0.5039397374995177  0.2537424901783273  0.4833754724219879   T   T   T
  0.0000694800454553  0.7500075843150478  0.4818926240340037   T   T   T
  0.5036697421207226  0.7429368756895012  0.4835184801256007   T   T   T
  0.7554645647068687  0.7448140092661274  0.4829844085179427   T   T   T
  0.9948855079644175  0.5053676554016929  0.4828533180571949   T   T   T
  0.7498164570812273  0.4996601717794092  0.4830824550069009   T   T   T
  0.2357102815934647  0.9856992567784172  0.4921881629503603   T   T   T
 -0.0045710854135003 -0.0000319442729871  0.4819634991777969   T   T   T
  0.5298252761504807  0.9853033372804582  0.4939156091288361   T   T   T
  0.2499627640852060  0.7454177495295834  0.4820439889069291   T   T   T
  0.7557142713877759 -0.0001513610452026  0.4826341906207591   T   T   T
  0.2351482896105039  0.2799553635875341  0.4938142758117922   T   T   T
  0.7499616085239775  0.2506163194590068  0.4827336291612461   T   T   T
  0.2498191538132510  0.5055787262874256  0.4825249299162665   T   T   T
  0.5007518203205388  0.4998273996441456  0.4828287278664480   T   T   T
  0.9970725127721352  0.2558556885660437  0.1637004079999969   F   F   F
  0.4999617694590981  0.2500875882756475  0.1643123229999972   F   F   F
  0.9968841279129421  0.7476992103265090  0.1643590609999990   F   F   F
  0.5054475948340738  0.7476858577758136  0.1651548419999997   F   F   F
  0.7507219237869691  0.7486395196294708  0.1651830500000031   F   F   F
  0.9979411352497110  0.5014025775462372  0.1651978530000022   F   F   F
  0.7507273207667993  0.5014378828407473  0.1654730440000023   F   F   F
  0.2484077576181107  0.9989653127437563  0.1655050250000016   F   F   F
  0.0026835648815862  0.9989392751868493  0.1655775360000007   F   F   F
  0.5037179278764583  0.9979203429349397  0.1655856349999993   F   F   F
  0.2483221759410768  0.7533768050877114  0.1658259539999989   F   F   F
  0.7484136803928223  0.9978805553618955  0.1658943879999981   F   F   F
  0.2473094549500487  0.2543786783860540  0.1660089160000027   F   F   F
  0.7483561418300297  0.2543461482530631  0.1660180849999975   F   F   F
  0.2472922028403062  0.4989472696402402  0.1662971390000010   F   F   F
  0.5037960297639756  0.4989156868822988  0.1664085239999977   F   F   F
  0.3345784117489093  0.0841833051617216  0.4603609137312585   T   T   T
 
  0.00000000E+00  0.00000000E+00  0.00000000E+00
  0.00000000E+00  0.00000000E+00  0.00000000E+00
  0.00000000E+00  0.00000000E+00  0.00000000E+00
  0.00000000E+00  0.00000000E+00  0.00000000E+00
  0.00000000E+00  0.00000000E+00  0.00000000E+00
  0.00000000E+00  0.00000000E+00  0.00000000E+00
  0.00000000E+00  0.00000000E+00  0.00000000E+00
  0.00000000E+00  0.00000000E+00  0.00000000E+00
  0.00000000E+00  0.00000000E+00  0.00000000E+00
  0.00000000E+00  0.00000000E+00  0.00000000E+00
  0.00000000E+00  0.00000000E+00  0.00000000E+00
  0.00000000E+00  0.00000000E+00  0.00000000E+00
  0.00000000E+00  0.00000000E+00  0.00000000E+00
  0.00000000E+00  0.00000000E+00  0.00000000E+00
  0.00000000E+00  0.00000000E+00  0.00000000E+00
  0.00000000E+00  0.00000000E+00  0.00000000E+00
  0.00000000E+00  0.00000000E+00  0.00000000E+00
  0.00000000E+00  0.00000000E+00  0.00000000E+00
  0.00000000E+00  0.00000000E+00  0.00000000E+00
  0.00000000E+00  0.00000000E+00  0.00000000E+00
  0.00000000E+00  0.00000000E+00  0.00000000E+00
  0.00000000E+00  0.00000000E+00  0.00000000E+00
  0.00000000E+00  0.00000000E+00  0.00000000E+00
  0.00000000E+00  0.00000000E+00  0.00000000E+00
  0.00000000E+00  0.00000000E+00  0.00000000E+00
  0.00000000E+00  0.00000000E+00  0.00000000E+00
  0.00000000E+00  0.00000000E+00  0.00000000E+00
  0.00000000E+00  0.00000000E+00  0.00000000E+00
  0.00000000E+00  0.00000000E+00  0.00000000E+00
  0.00000000E+00  0.00000000E+00  0.00000000E+00
  0.00000000E+00  0.00000000E+00  0.00000000E+00
  0.00000000E+00  0.00000000E+00  0.00000000E+00
  0.00000000E+00  0.00000000E+00  0.00000000E+00
  0.00000000E+00  0.00000000E+00  0.00000000E+00
  0.00000000E+00  0.00000000E+00  0.00000000E+00
  0.00000000E+00  0.00000000E+00  0.00000000E+00
  0.00000000E+00  0.00000000E+00  0.00000000E+00
  0.00000000E+00  0.00000000E+00  0.00000000E+00
  0.00000000E+00  0.00000000E+00  0.00000000E+00
  0.00000000E+00  0.00000000E+00  0.00000000E+00
  0.00000000E+00  0.00000000E+00  0.00000000E+00
  0.00000000E+00  0.00000000E+00  0.00000000E+00
  0.00000000E+00  0.00000000E+00  0.00000000E+00
  0.00000000E+00  0.00000000E+00  0.00000000E+00
  0.00000000E+00  0.00000000E+00  0.00000000E+00
  0.00000000E+00  0.00000000E+00  0.00000000E+00
  0.00000000E+00  0.00000000E+00  0.00000000E+00
  0.00000000E+00  0.00000000E+00  0.00000000E+00
  0.00000000E+00  0.00000000E+00  0.00000000E+00
  0.00000000E+00  0.00000000E+00  0.00000000E+00
  0.00000000E+00  0.00000000E+00  0.00000000E+00
  0.00000000E+00  0.00000000E+00  0.00000000E+00
  0.00000000E+00  0.00000000E+00  0.00000000E+00
  0.00000000E+00  0.00000000E+00  0.00000000E+00
  0.00000000E+00  0.00000000E+00  0.00000000E+00
  0.00000000E+00  0.00000000E+00  0.00000000E+00
  0.00000000E+00  0.00000000E+00  0.00000000E+00
  0.00000000E+00  0.00000000E+00  0.00000000E+00
  0.00000000E+00  0.00000000E+00  0.00000000E+00
  0.00000000E+00  0.00000000E+00  0.00000000E+00
  0.00000000E+00  0.00000000E+00  0.00000000E+00
  0.00000000E+00  0.00000000E+00  0.00000000E+00
  0.00000000E+00  0.00000000E+00  0.00000000E+00
  0.00000000E+00  0.00000000E+00  0.00000000E+00
  0.00000000E+00  0.00000000E+00  0.00000000E+00
