 Ni\(1\1\1)                             
   1.00000000000000     
     9.8291997910000006    0.0000000000000000    0.0000000000000000
     4.9145998955000003    8.5123367178000002    0.0000000000000000
     0.0000000000000000    0.0000000000000000   19.0128002167000005
   Ni   O    C    O    C 
    64     3     1     2     1
Selective dynamics
Direct
  0.8345923796800171  0.5832011170484529  0.2711261741975128   T   T   T
  0.3355628115614735  0.0826207563170309  0.2696458493818931   T   T   T
  0.8346810682070305  0.0820634830682518  0.2707814536586679   T   T   T
  0.3345769909934060  0.5823945790672098  0.2708068451567248   T   T   T
  0.5844575944215966  0.8339760835195330  0.2699827318440415   T   T   T
  0.8350904100304368  0.8319558707141709  0.2710433463312478   T   T   T
  0.0849189716546690  0.3326257892854894  0.2709111706292303   T   T   T
  0.8348838782209494  0.3319560419972815  0.2709064321165868   T   T   T
  0.5849515970937870  0.5818206633248441  0.2713961160743106   T   T   T
  0.0843242971198900  0.5823986414955157  0.2716394914780255   T   T   T
  0.0847971802071625  0.0827981077484524  0.2705248572171370   T   T   T
  0.5851361950699389  0.0829018472040092  0.2716715444246505   T   T   T
  0.3352650414458897  0.8324777997113276  0.2709032603527028   T   T   T
  0.0847423670396766  0.8323097280640253  0.2707516437839704   T   T   T
  0.3338728558594122  0.3329982083307075  0.2717497382137914   T   T   T
  0.5845726369658966  0.3316845854386514  0.2717691733078876   T   T   T
  0.9186840674113917  0.6634133166530776  0.3771602108257037   T   T   T
  0.9181143287572890  0.4158714015976490  0.3747449386460740   T   T   T
  0.6670935386753812  0.6679121376106374  0.3740054437063060   T   T   T
  0.1705340026999869  0.1648730129734931  0.3748999911819149   T   T   T
  0.9179915964992111  0.1644565898466950  0.3761012051921285   T   T   T
  0.9184507942993451  0.9154271897293844  0.3758502841359464   T   T   T
  0.4180607144191992  0.9169775495549285  0.3753974520007313   T   T   T
  0.4183991483779745  0.1665167095844790  0.3762507483293702   T   T   T
  0.6700977554781589  0.1661990783900485  0.3779907984628115   T   T   T
  0.1684476462125767  0.6655992062370714  0.3761301184308159   T   T   T
  0.4181447746756183  0.6651826143866354  0.3761058903186809   T   T   T
  0.4173726874878225  0.4159979537641952  0.3766212289494543   T   T   T
  0.6681658017950287  0.9172188340827624  0.3772147242594602   T   T   T
  0.1658346861399045  0.4162171040579827  0.3794929618528886   T   T   T
  0.6679892782001260  0.4132220133127447  0.3780121325977076   T   T   T
  0.1681901224448477  0.9163024312932180  0.3782208903841237   T   T   T
  0.0030313620395742  0.2473676443988319  0.4787271939471338   T   T   T
  0.5050293291173896  0.2497324691025016  0.4807037923477384   T   T   T
  0.9977784791485418  0.7466391863251582  0.4799307320426473   T   T   T
  0.5041659522816424  0.7486808248749357  0.4793178880294603   T   T   T
  0.7487558611449877  0.7502284744384469  0.4798465888817355   T   T   T
 -0.0003009566266978  0.4997016209418584  0.4907253422324939   T   T   T
  0.7436135899431016  0.5066020302977777  0.4788360894764328   T   T   T
  0.2502065342276495 -0.0031239892479337  0.4852177526184022   T   T   T
  0.0051899391693575  0.9937946491548809  0.4856568953886543   T   T   T
  0.5051473476712686 -0.0027255300421710  0.4855063939668837   T   T   T
  0.2492695773388559  0.7525098197199979  0.4855073484072530   T   T   T
  0.7483065821267402  0.9973706618865399  0.4849157439884754   T   T   T
  0.2519296809974498  0.2508118002800152  0.4851265255119779   T   T   T
  0.7568538932635210  0.2552903528146521  0.5035305112208552   T   T   T
  0.2489277144005540  0.4976603671300159  0.4855036781816861   T   T   T
  0.5016171742936034  0.4992087356359397  0.4866693321934996   T   T   T
  0.9970724670000024  0.2558556729999992  0.1637003960000030   F   F   F
  0.4999617989999976  0.2500875830000027  0.1643123180000003   F   F   F
  0.9968841629999972  0.7476992069999966  0.1643590660000029   F   F   F
  0.5054474789999972  0.7476858750000019  0.1651548480000002   F   F   F
  0.7507219769999978  0.7486395119999969  0.1651830500000031   F   F   F
  0.9979410790000003  0.5014025589999989  0.1651978470000017   F   F   F
  0.7507272960000009  0.5014379059999996  0.1654730480000026   F   F   F
  0.2484077359999972  0.9989653640000000  0.1655050250000016   F   F   F
  0.0026835399999996  0.9989392600000002  0.1655775309999967   F   F   F
  0.5037179199999997  0.9979203070000011  0.1655856309999990   F   F   F
  0.2483221529999966  0.7533767729999994  0.1658259459999982   F   F   F
  0.7484137009999969  0.9978805350000002  0.1658943890000018   F   F   F
  0.2473094730000014  0.2543786680000011  0.1660089160000027   F   F   F
  0.7483561820000020  0.2543461500000035  0.1660180820000008   F   F   F
  0.2472921950000000  0.4989472700000022  0.1662971330000005   F   F   F
  0.5037960519999984  0.4989156760000029  0.1664085250000014   F   F   F
  0.3354590772468662  0.0809011388205216  0.5445062707559034   T   T   T
  0.8411269703179348  0.0628397420960003  0.5477382356257821   T   T   T
  0.3311243133953735  0.5838162847010224  0.5451501813768276   T   T   T
  0.9101370696076295  0.4039492052872547  0.6094574721697130   T   T   T
 -0.0193628048212003  0.4832121403130783  0.5902572288399208   T   T   T
 -0.1075631361537766  0.3710883691187851  0.6692507657296540   T   T   T
  0.8527133490148293  0.3592331788199840  0.5446329205265210   T   T   T
 
  0.00000000E+00  0.00000000E+00  0.00000000E+00
  0.00000000E+00  0.00000000E+00  0.00000000E+00
  0.00000000E+00  0.00000000E+00  0.00000000E+00
  0.00000000E+00  0.00000000E+00  0.00000000E+00
  0.00000000E+00  0.00000000E+00  0.00000000E+00
  0.00000000E+00  0.00000000E+00  0.00000000E+00
  0.00000000E+00  0.00000000E+00  0.00000000E+00
  0.00000000E+00  0.00000000E+00  0.00000000E+00
  0.00000000E+00  0.00000000E+00  0.00000000E+00
  0.00000000E+00  0.00000000E+00  0.00000000E+00
  0.00000000E+00  0.00000000E+00  0.00000000E+00
  0.00000000E+00  0.00000000E+00  0.00000000E+00
  0.00000000E+00  0.00000000E+00  0.00000000E+00
  0.00000000E+00  0.00000000E+00  0.00000000E+00
  0.00000000E+00  0.00000000E+00  0.00000000E+00
  0.00000000E+00  0.00000000E+00  0.00000000E+00
  0.00000000E+00  0.00000000E+00  0.00000000E+00
  0.00000000E+00  0.00000000E+00  0.00000000E+00
  0.00000000E+00  0.00000000E+00  0.00000000E+00
  0.00000000E+00  0.00000000E+00  0.00000000E+00
  0.00000000E+00  0.00000000E+00  0.00000000E+00
  0.00000000E+00  0.00000000E+00  0.00000000E+00
  0.00000000E+00  0.00000000E+00  0.00000000E+00
  0.00000000E+00  0.00000000E+00  0.00000000E+00
  0.00000000E+00  0.00000000E+00  0.00000000E+00
  0.00000000E+00  0.00000000E+00  0.00000000E+00
  0.00000000E+00  0.00000000E+00  0.00000000E+00
  0.00000000E+00  0.00000000E+00  0.00000000E+00
  0.00000000E+00  0.00000000E+00  0.00000000E+00
  0.00000000E+00  0.00000000E+00  0.00000000E+00
  0.00000000E+00  0.00000000E+00  0.00000000E+00
  0.00000000E+00  0.00000000E+00  0.00000000E+00
  0.00000000E+00  0.00000000E+00  0.00000000E+00
  0.00000000E+00  0.00000000E+00  0.00000000E+00
  0.00000000E+00  0.00000000E+00  0.00000000E+00
  0.00000000E+00  0.00000000E+00  0.00000000E+00
  0.00000000E+00  0.00000000E+00  0.00000000E+00
  0.00000000E+00  0.00000000E+00  0.00000000E+00
  0.00000000E+00  0.00000000E+00  0.00000000E+00
  0.00000000E+00  0.00000000E+00  0.00000000E+00
  0.00000000E+00  0.00000000E+00  0.00000000E+00
  0.00000000E+00  0.00000000E+00  0.00000000E+00
  0.00000000E+00  0.00000000E+00  0.00000000E+00
  0.00000000E+00  0.00000000E+00  0.00000000E+00
  0.00000000E+00  0.00000000E+00  0.00000000E+00
  0.00000000E+00  0.00000000E+00  0.00000000E+00
  0.00000000E+00  0.00000000E+00  0.00000000E+00
  0.00000000E+00  0.00000000E+00  0.00000000E+00
  0.00000000E+00  0.00000000E+00  0.00000000E+00
  0.00000000E+00  0.00000000E+00  0.00000000E+00
  0.00000000E+00  0.00000000E+00  0.00000000E+00
  0.00000000E+00  0.00000000E+00  0.00000000E+00
  0.00000000E+00  0.00000000E+00  0.00000000E+00
  0.00000000E+00  0.00000000E+00  0.00000000E+00
  0.00000000E+00  0.00000000E+00  0.00000000E+00
  0.00000000E+00  0.00000000E+00  0.00000000E+00
  0.00000000E+00  0.00000000E+00  0.00000000E+00
  0.00000000E+00  0.00000000E+00  0.00000000E+00
  0.00000000E+00  0.00000000E+00  0.00000000E+00
  0.00000000E+00  0.00000000E+00  0.00000000E+00
  0.00000000E+00  0.00000000E+00  0.00000000E+00
  0.00000000E+00  0.00000000E+00  0.00000000E+00
  0.00000000E+00  0.00000000E+00  0.00000000E+00
  0.00000000E+00  0.00000000E+00  0.00000000E+00
  0.00000000E+00  0.00000000E+00  0.00000000E+00
  0.00000000E+00  0.00000000E+00  0.00000000E+00
  0.00000000E+00  0.00000000E+00  0.00000000E+00
  0.00000000E+00  0.00000000E+00  0.00000000E+00
  0.00000000E+00  0.00000000E+00  0.00000000E+00
  0.00000000E+00  0.00000000E+00  0.00000000E+00
  0.00000000E+00  0.00000000E+00  0.00000000E+00
