 Ni_Pol_CO_migration
   1.000
    9.8292000000000002    0.0000000000000000    0.0000000000000000
    4.9146000000000001    8.5123370000000005    0.0000000000000000
    0.0000000000000000    0.0000000000000000   33.0127999999999986
   Ni   O    O    H    C    O 
   64    3   30   60    1    1
Selective Dynamics
Direct
    0.8232789900000000    0.5910227700000000    0.1200970400000000    T  T  T
    0.3245476000000000    0.0907329700000000    0.1192660100000000    T  T  T
    0.8354867800000000    0.0807889500000000    0.1206610900000000    T  T  T
    0.3331804600000000    0.5800998000000001    0.1186372900000000    T  T  T
    0.5729750700000000    0.8316146000000000    0.1183507800000000    T  T  T
    0.8314945700000000    0.8403030700000000    0.1209303200000000    T  T  T
    0.0774195600000000    0.3457403500000000    0.1202762600000000    T  T  T
    0.8279013500000000    0.3363188300000000    0.1216494300000000    T  T  T
    0.5683505800000000    0.5837325300000000    0.1234939300000000    T  T  T
    0.0667467900000000    0.5956562100000000    0.1246135600000000    T  T  T
    0.0776091400000000    0.0846809700000000    0.1189926700000000    T  T  T
    0.5840795200000000    0.0765878500000000    0.1192166000000000    T  T  T
    0.3197734000000000    0.8347238600000000    0.1237270900000000    T  T  T
    0.0820024700000000    0.8371679800000000    0.1192562100000000    T  T  T
    0.3240330700000000    0.3427533900000000    0.1215270300000000    T  T  T
    0.5797516800000000    0.3350364600000000    0.1224966300000000    T  T  T
    0.9058000300000000    0.6877400000000000    0.1839241100000000    T  T  T
    0.9135853400000000    0.4137472400000000    0.1815287400000000    T  T  T
    0.6614677000000000    0.6667605300000000    0.1826754300000000    T  T  T
    0.1584839100000000    0.1689977900000000    0.1805306700000000    T  T  T
    0.9101024800000000    0.1664034700000000    0.1817773300000000    T  T  T
    0.8940028200000000    0.9268575000000000    0.1793542500000000    T  T  T
    0.4136327100000000    0.8998218100000001    0.1821518300000000    T  T  T
    0.4024001500000000    0.1632232900000000    0.1824635600000000    T  T  T
    0.6604392400000000    0.1712721600000000    0.1819120000000000    T  T  T
    0.1568532300000000    0.6678145800000000    0.1842093800000000    T  T  T
    0.4066994200000000    0.6686028300000000    0.1849704000000000    T  T  T
    0.4006031900000000    0.4241249700000000    0.1829378000000000    T  T  T
    0.6592315300000000    0.9190123200000000    0.1836448400000000    T  T  T
    0.1601450000000000    0.4190578600000000    0.1878275300000000    T  T  T
    0.6588565500000000    0.4158795100000000    0.1819652700000000    T  T  T
    0.1481426600000000    0.9173243300000000    0.1846866000000000    T  T  T
   -0.0085810300000000    0.2478080600000000    0.2419155900000000    T  T  T
    0.4769906800000000    0.2581340600000000    0.2408002500000000    T  T  T
   -0.0289497300000000    0.7676919300000000    0.2446678000000000    T  T  T
    0.4829633400000000    0.7485082400000000    0.2470030200000000    T  T  T
    0.7397123200000000    0.7460809700000000    0.2467230000000000    T  T  T
   -0.0098703900000000    0.5023130900000000    0.2452703900000000    T  T  T
    0.7509638100000000    0.4759685300000000    0.2468958200000000    T  T  T
    0.2340980600000000    0.9890617400000000    0.2454726800000000    T  T  T
    0.9850589800000000    0.0001574100000000    0.2455999800000000    T  T  T
    0.4942988300000000    0.9905547200000000    0.2405064200000000    T  T  T
    0.2285715100000000    0.7478396000000000    0.2482948000000000    T  T  T
    0.7253347400000000    1.0038572299999999    0.2452485300000000    T  T  T
    0.2342411600000000    0.2456468100000000    0.2502871900000000    T  T  T
    0.7406401300000000    0.2446228800000000    0.2459772200000000    T  T  T
    0.2391986400000000    0.4899451900000000    0.2511956700000000    T  T  T
    0.4874667500000000    0.4967651200000000    0.2469475900000000    T  T  T
    0.9970724700000000    0.2558556700000000    0.0591330300000000    F  F  F
    0.4999618000000000    0.2500875800000000    0.0594854500000000    F  F  F
    0.9968841600000000    0.7476992099999999    0.0595123700000000    F  F  F
    0.5054474799999999    0.7476858800000000    0.0599706800000000    F  F  F
    0.7507219800000000    0.7486395100000000    0.0599869200000000    F  F  F
    0.9979410800000000    0.5014025600000001    0.0599954500000000    F  F  F
    0.7507273000000000    0.5014379100000000    0.0601539400000000    F  F  F
    0.2484077400000000    0.9989653600000000    0.0601723600000000    F  F  F
    0.0026835400000000    0.9989392600000000    0.0602141100000000    F  F  F
    0.5037179200000000    0.9979203100000000    0.0602187800000000    F  F  F
    0.2483221500000000    0.7533767700000000    0.0603571800000000    F  F  F
    0.7484137000000000    0.9978805400000000    0.0603966000000000    F  F  F
    0.2473094700000000    0.2543786700000000    0.0604625600000000    F  F  F
    0.7483561800000000    0.2543461500000000    0.0604678400000000    F  F  F
    0.2472922000000000    0.4989472700000000    0.0606285500000000    F  F  F
    0.5037960500000001    0.4989156800000000    0.0606927000000000    F  F  F
    0.3367669500000000    0.0589885500000000    0.2799690300000000    T  T  T
    0.8071217000000001    0.0844563100000000    0.2833108200000000    T  T  T
    0.3287301900000000    0.5936336800000001    0.2836108000000000    T  T  T
    0.6379060900000000    0.3222022500000000    0.6437431600000000    T  T  T
    0.7011943200000000    0.4874892500000000    0.5139771900000000    T  T  T
    0.3123290200000000    0.2308122100000000    0.4049595800000000    T  T  T
    1.1521229200000001    0.3009622100000000    0.4864921500000000    T  T  T
    1.0186479700000000    0.1983296200000000    0.3338399400000000    T  T  T
    0.3879373500000000    0.2660212900000000    0.5327385800000000    T  T  T
   -0.0649842900000000    0.8026294500000000    0.3418945300000000    T  T  T
    0.8618837800000000    0.0916233900000000    0.3995587200000000    T  T  T
    0.3147156100000000    0.0071401500000000    0.3646955900000000    T  T  T
    1.1015066899999999    0.4918484300000000    0.5974767900000000    T  T  T
    0.2586366500000000    0.7169890700000000    0.4545075200000000    T  T  T
    0.2424802100000000    0.7642044600000000    0.6057263300000000    T  T  T
    0.5991062300000000   -0.0450812900000000    0.5380159500000000    T  T  T
    0.7367054100000000    0.7462185500000000    0.3080270300000000    T  T  T
    0.7996742400000000    0.6217649600000000    0.6181102500000000    T  T  T
    0.4481226300000000    0.7390572500000000    0.3994781300000000    T  T  T
    0.4665789900000000    0.4417789900000000    0.4862665500000000    T  T  T
    0.5287309100000001    0.4658602900000000    0.3495761800000000    T  T  T
    0.9300591100000000    0.7435980900000000    0.5432939500000000    T  T  T
    0.5462456600000000    0.2972417000000000    0.4156277000000000    T  T  T
    0.5933595200000000    0.5523933500000000    0.5901798600000000    T  T  T
    0.4051857600000000    0.2767291300000000    0.6134751400000000    T  T  T
    0.6505042200000000    0.7450150100000000    0.4625439700000000    T  T  T
    0.9749069299999999    0.2165967300000000    0.5447818700000000    T  T  T
    0.7595659100000000    0.4461843200000000    0.3058667900000000    T  T  T
    0.4628766000000000   -0.0529789100000000    0.6107865000000000    T  T  T
    1.0234321600000000    0.9465613100000000    0.5138328500000000    T  T  T
   -0.1045115800000000    0.1242378300000000    0.6152245700000000    T  T  T
    0.9580212500000000    0.6126631700000000    0.4646312600000000    T  T  T
    1.1066188800000001    0.6011065200000000    0.3968506600000000    T  T  T
    0.6035859500000000    0.3763282800000000    0.6695656500000000    T  T  T
    0.7518366800000000    0.2397534200000000    0.6435148300000000    T  T  T
    0.6574174900000000    0.5055994400000000    0.5422899799999999    T  T  T
    0.6297117900000000    0.4596041300000000    0.4977751400000000    T  T  T
    0.2453764500000000    0.2631695500000000    0.4295796200000000    T  T  T
    0.4023275400000000    0.2443200600000000    0.4077150500000000    T  T  T
    1.0857538700000000    0.2741940700000000    0.5019223700000000    T  T  T
    0.2575286700000000    0.2801956700000000    0.5035010900000000    T  T  T
    1.0714837500000001    0.1091611200000000    0.3123195300000000    T  T  T
    1.1052936799999999    0.2001647000000000    0.3464310600000000    T  T  T
    0.3673781900000000    0.2807229800000000    0.5623842400000000    T  T  T
    0.4929952900000000    0.1683039700000000    0.5327645600000001    T  T  T
    1.0039857900000000    0.7277585700000000    0.3664727100000000    T  T  T
    0.8830758000000000    0.9162472100000000    0.3483707800000000    T  T  T
    0.9260559600000000    0.1214928200000000    0.3822234500000000    T  T  T
    0.9327419800000000    0.0106182500000000    0.4195467300000000    T  T  T
    0.3265252200000000    0.0910112000000000    0.3783796400000000    T  T  T
    0.3557229200000000    0.0012331400000000    0.3360577800000000    T  T  T
    1.2109592899999999    0.4245576600000000    0.6088842900000000    T  T  T
    1.0667872300000001    0.4252145300000000    0.5830486800000000    T  T  T
    0.2102639000000000    0.6785144100000000    0.4343793300000000    T  T  T
    0.3407226200000000    0.7286467300000000    0.4371680600000000    T  T  T
    0.1940440800000000    0.8024395100000000    0.5795540700000000    T  T  T
    0.3511365200000000    0.6855373000000000    0.5983492500000001    T  T  T
    0.7129545500000000    0.8729728700000000    0.5332182500000000    T  T  T
    0.5414210300000000    0.9306751400000000    0.5165800200000000    T  T  T
    0.8140439200000000    0.7668771300000000    0.3232513700000000    T  T  T
    0.7480718100000000    0.6462930400000000    0.3170880000000000    T  T  T
    0.7414702100000000    0.7323473600000000    0.6278155900000000    T  T  T
    0.9167369900000000    0.5670138100000000    0.6169521000000000    T  T  T
    0.4145342800000000    0.8402532100000000    0.3829898100000000    T  T  T
    0.4861773800000000    0.6418471400000000    0.3837103400000000    T  T  T
    0.4374049100000000    0.3926269000000000    0.5088361900000000    T  T  T
    0.3793487600000000    0.5553029000000000    0.4810544300000000    T  T  T
    0.5233005700000000    0.3944676900000000    0.3702053500000000    T  T  T
    0.4378144000000000    0.5092737300000000    0.3308302900000000    T  T  T
    0.9934244200000000    0.6678048200000000    0.5642712600000001    T  T  T
    0.9643904800000000    0.6840053699999999    0.5182231100000000    T  T  T
    0.5306274500000000    0.3509945600000000    0.4425022000000000    T  T  T
    0.6586784600000000    0.2142482700000000    0.4122917200000000    T  T  T
    0.6834040600000000    0.5685693000000001    0.6002167100000000    T  T  T
    0.6016994400000000    0.4646790600000000    0.6066915500000000    T  T  T
    0.4260062800000000    0.1651351400000000    0.6189887300000000    T  T  T
    0.5046447500000000    0.2754888500000000    0.6234023300000000    T  T  T
    0.6370087000000000    0.6691439700000000    0.4787970300000000    T  T  T
    0.5903045000000000    0.7674804100000000    0.4368532900000000    T  T  T
    0.9789526400000000    0.1252448800000000    0.5302601500000000    T  T  T
    0.8746229500000000    0.3102235900000000    0.5372291400000000    T  T  T
    0.6717505499999999    0.4361912200000000    0.3224201300000000    T  T  T
    0.8670020600000000    0.3569383100000000    0.3163743200000000    T  T  T
    0.5242176100000000   -0.0682590300000000    0.5853782600000000    T  T  T
    0.3729566500000000   -0.0683563800000000    0.6049785200000000    T  T  T
    0.9714376800000000    0.8990109900000000    0.5290621500000000    T  T  T
    1.0751900700000001    0.8775153100000000    0.4903743400000000    T  T  T
   -0.0911578100000000    0.1643667500000000    0.5887843900000000    T  T  T
    0.0048048600000000    1.0491411700000000    0.6241333900000000    T  T  T
    1.0050971799999999    0.5070113900000000    0.4736456900000000    T  T  T
    0.8403307700000000    0.6760573600000001    0.4640662900000000    T  T  T
    0.1006571900000000    0.5179362800000000    0.3822666200000000    T  T  T
    1.0574652800000000    0.6046974600000000    0.4248364500000000    T  T  T
    1.1459949700000001    0.4038603500000000    0.2880751400000000    T  T  T
    1.1486662700000001    0.4096709500000000    0.3237140800000000    T  T  T
	
-0.003263294400000    0.000585478538859   -0.003594103536000
 0.002454105510000    0.001042676159130   -0.002249162064000
 0.002252852640002   -0.001570185683020    0.000564188752000
-0.002125613645999    0.001199473406671    0.001378284400000
 0.003533597399999   -0.001821640118001   -0.001890312928000
-0.000414546509999   -0.000733678326030   -0.001164691584000
 0.003708606306000    0.000438470478870    0.003188046096000
 0.000035139390000    0.001776950348750    0.000626582944000
 0.000324904206002   -0.002201545718309   -0.002317828688000
-0.002045014206000   -0.001365634224910    0.001348903008000
 0.000472047330000   -0.003398210053770    0.003103203200000
-0.000002604738000    0.002957951984130    0.000014855760000
-0.001969968264000    0.001500214272879    0.003288405008000
 0.002540258448001   -0.000289589704740    0.002274912048000
-0.001705611930000   -0.002835033837850   -0.000434118320000
 0.003074180591999    0.001887185112900    0.001220153087999
 0.002070668417998   -0.000126067710970   -0.002871123215999
 0.004618298766001    0.001238459910130   -0.000695249568000
 0.001800906024000    0.001820107897339   -0.000422233712000
-0.001543528422000   -0.003339985668690    0.000640118192000
 0.000394101774001   -0.001653861955730   -0.000134362096001
-0.000207789288002    0.001502427480500   -0.001064662800000
 0.003972225449999    0.000068524312851   -0.001921344960000
-0.003872950530000   -0.000613994867810   -0.000289522256000
-0.000189949290000   -0.001261443220030   -0.003279491552000
 0.001769059416000   -0.002699943049659   -0.000094416607999
-0.002839705026000   -0.001477486333091   -0.002690873328000
 0.002966944020001   -0.000632296392360    0.000970576320000
 0.000877600122001    0.000591181804650   -0.001620268224000
-0.000649218660000   -0.002229381060300   -0.001669457296000
 0.002824027451998    0.000935505836300    0.005430275472000
 0.001731020412000   -0.001298471885980   -0.003025953248000
 0.000018331458000   -0.001331755123650   -0.000754672608000
-0.002248576938000    0.000592714025310   -0.000603804112001
 0.001075707648000    0.003343305480120    0.000010233968000
 0.001086962082001    0.001206113029530   -0.001711053424000
 0.003709785809999   -0.001772183440031   -0.000803201423999
-0.000998204406000    0.000013704862569   -0.003040148752000
-0.001303499358000    0.004432288752530    0.000473403552000
-0.004686021953999    0.000683285290991   -0.001370031199999
-0.000098734313999   -0.000773516063190    0.001573720175999
-0.003161611326000    0.001908891572249   -0.002099283952000
-0.000015726720000   -0.000231705813140    0.000440390751999
-0.001273422006001    0.002125785919009    0.001069614719999
-0.001261676112000    0.000414721058640   -0.000763916192001
-0.004431887988000   -0.003270099381920   -0.000869227024001
 0.001882193508000   -0.001364016880880    0.003963516768000
 0.001063716024001   -0.000522997985279    0.002973793024001
 0.000000000000000    0.000000000000000    0.000000000000000
 0.000000000000000    0.000000000000000    0.000000000000000
 0.000000000000000    0.000000000000000    0.000000000000000
 0.000000000000000    0.000000000000000    0.000000000000000
 0.000000000000000    0.000000000000000    0.000000000000000
 0.000000000000000    0.000000000000000    0.000000000000000
 0.000000000000000    0.000000000000000    0.000000000000000
 0.000000000000000    0.000000000000000    0.000000000000000
 0.000000000000000    0.000000000000000    0.000000000000000
 0.000000000000000    0.000000000000000    0.000000000000000
 0.000000000000000    0.000000000000000    0.000000000000000
 0.000000000000000    0.000000000000000    0.000000000000000
 0.000000000000000    0.000000000000000    0.000000000000000
 0.000000000000000    0.000000000000000    0.000000000000000
 0.000000000000000    0.000000000000000    0.000000000000000
 0.000000000000000    0.000000000000000    0.000000000000000
 0.002111705328000    0.000198337452100   -0.004270865936000
-0.001532126549998    0.001613172984870   -0.001312588928000
 0.003307034340001    0.000051584762221   -0.006076005839999
-0.000043543356000    0.003558837852960    0.000371393999998
 0.001322076546002    0.002626311334609    0.005087272479997
 0.009958453980000   -0.004757545149300    0.002381873520001
-0.002203657493997    0.006023755278050    0.011901114400001
-0.001388030478001    0.011961110335550   -0.002931536640000
 0.002843587560001    0.008704034829240   -0.001545989424002
 0.004357628382000   -0.003429875947410    0.003378199823999
-0.004338019128001   -0.003471841768820   -0.006899675200001
-0.006413602146000    0.000341600083810   -0.000477695215999
-0.004939271292002    0.001297620652279   -0.000196426160002
-0.000976973334000    0.003180804966790   -0.001814053360000
-0.001629189900000    0.007148320119120   -0.002172902496000
-0.001292638092000    0.004780017718980    0.002878386032002
 0.001020909857999    0.013683326357390   -0.000837204608001
-0.007824190638001   -0.001454673269929   -0.005779550896001
 0.002849878248000    0.000570496825740    0.000471422784001
-0.001354758635999   -0.000782624263780    0.001415588864003
 0.008693337648001    0.000244644565381   -0.000299095968000
-0.002950234380000   -0.002305821846559   -0.001476662544000
-0.004562714640000    0.000941804965680    0.000049189072000
 0.000061973106000    0.001443096491610    0.001675399600000
 0.002408104854000   -0.007436632973310    0.000141955040000
 0.004180899366000    0.000208807626611   -0.000729252751999
-0.002766231756002    0.000329257195160    0.000916765456001
-0.007041835463999    0.007177091818180    0.013256289839999
 0.006213135612001    0.003375822607460   -0.004149378832000
 0.002765199690000   -0.003282101777090   -0.008651664496000
 0.001768764540000    0.004256168500000   -0.004220686480000
-0.001189087470001    0.000516783979270    0.007650716399999
-0.004413114215998    0.006559947385679    0.000558246448001
 0.016021350270001   -0.026515844631630   -0.004730734239999
 0.016852458276002    0.006663457403600   -0.008550315200001
-0.012375601697999    0.015315481853770   -0.012664370336001
 0.004891353942000   -0.016485247204310   -0.007453629983999
-0.003649237938000   -0.013379435926490    0.023404424559999
-0.009569512536000    0.025816385900340   -0.015152214943999
 0.022685154701998   -0.000239792533290    0.011157336015998
 0.007516536678001   -0.004146784969550    0.002889280255999
 0.016925489231999   -0.006104367109440   -0.024975503712000
-0.004078380809998    0.017834963359030   -0.001024387184000
 0.004097596896000    0.015362555077380    0.012561040271997
 0.012503528736000   -0.005675175077900   -0.034185744783997
 0.015145814279999   -0.016291591537561    0.009056071296001
 0.007651442447999   -0.002921263811659    0.000503775327999
-0.017661253997998   -0.010641017113590    0.012749543360002
 0.016106127119999   -0.001567291488440   -0.012332591696003
-0.009687168060000    0.004218203476980   -0.002234306303999
-0.014989530000000   -0.006828596741400    0.000350926063998
 0.018538657535998    0.008753917124060   -0.006008659727996
-0.002919763860000   -0.015516458130340   -0.016194759168002
-0.008000280756000   -0.003133221002960   -0.025349868864000
-0.014322078174001   -0.016640001490970    0.025432400864000
-0.000221451876000   -0.009189748778460   -0.005457015839998
-0.017233241484000   -0.004828708286619    0.006690374047999
 0.003425721930000    0.017552694264110    0.003561090736000
 0.007337448653999   -0.007941584804151   -0.007466174848002
-0.027136750235998   -0.009880099309160   -0.005830390608001
 0.007951970238000   -0.008971577581150   -0.009204298767999
 0.012396685332000   -0.014064253438140    0.006890761744000
 0.016695092784003   -0.007080732163340   -0.010860550944003
 0.021404753963999    0.008969449496900   -0.012304200688000
 0.009593790659999   -0.000605056913960   -0.004483798496000
-0.024879523602000    0.014942130752950   -0.004384099839999
-0.009203473127999    0.000919843136221   -0.000790986688001
-0.014257254599999    0.007254894578360    0.006531582479999
 0.008647926744001   -0.010533336050541   -0.022458937967999
 0.023775458712000   -0.004408879825780   -0.017468062863998
 0.028083941094000   -0.018479517516671    0.014314680207999
-0.007078400088001    0.004537416114480    0.008187834656001
 0.004848547776000    0.004408709579040    0.003489783088000
 0.005645056998000    0.000841444512451   -0.015562564048004
-0.004425990468000    0.011597037682060   -0.001748688016001
-0.032690690550000   -0.016866770148650   -0.006804268208001
 0.021099360719999    0.014338520936280    0.016063368224000
-0.031421740830000    0.037314084609610    0.000022448704001
 0.026299941294001   -0.003673328785609   -0.011575608192000
-0.012399535800000   -0.025163489652440    0.016946130495999
-0.007819472622000    0.003589907883010    0.012799392688002
 0.006037831829998   -0.015159535839930    0.036882560416002
 0.018395740968000    0.012050915490899    0.017952360640001
 0.000452634660000    0.009580465046760    0.009168314816002
 0.002845455108000    0.007657528118460   -0.033174892848002
 0.006042205823999    0.016853916519779    0.007085867392000
-0.001434178572000   -0.007232932748900   -0.005641227264000
 0.005479090956000   -0.001614279588680   -0.020834708208000
-0.008795610473999   -0.019034692135811   -0.014315010336002
-0.001479048869998    0.024581501171750    0.013251668047999
-0.007485820428000   -0.009784761134759   -0.007515363920001
-0.015900942569999    0.005560343651771   -0.004597362527999
 0.041509989395999   -0.006454564653620    0.012383431407999
 0.000799408836000    0.000458304224080    0.000858662928001
 0.001890744912002   -0.002206227503660   -0.000770188623999	
