 Ni\(1\1\1)                             
   1.00000000000000     
     9.8291997910000006    0.0000000000000000    0.0000000000000000
     4.9145998955000003    8.5123367178000002    0.0000000000000000
     0.0000000000000000    0.0000000000000000   19.0128002167000005
   Ni   O    C 
    64     2     2
Direct
  0.8333224690811933  0.5808737939266005  0.2706423991966327
  0.3348632736141708  0.0798207533373634  0.2692725675721782
  0.8328392999067232  0.0800081651371912  0.2710212294548048
  0.3332112302922662  0.5801118336176828  0.2704800074514768
  0.5834260774708204  0.8310091638984647  0.2694324032011460
  0.8337102782416960  0.8295769584376189  0.2706776546164751
  0.0838810850699971  0.3302056053239538  0.2705182260566824
  0.8333248594754940  0.3302824204728004  0.2704217567704624
  0.5832694969170795  0.5802908970324195  0.2701362151295386
  0.0829793557633137  0.5802246509048838  0.2714115558179808
  0.0835982029813686  0.0800303239404538  0.2699792740662299
  0.5835915499242734  0.0802720899748199  0.2705361540561406
  0.3334590897826525  0.8301737415325473  0.2701572714051373
  0.0830938911770963  0.8302780774533297  0.2704315959709504
  0.3323359977859438  0.3306331309550767  0.2707989822143977
  0.5828919087183675  0.3298784891202491  0.2711438712638492
  0.9173393383321686  0.6609998724985501  0.3782075339772988
  0.9168042419503439  0.4138741132196403  0.3753502146747240
  0.6664853781320276  0.6649975641317565  0.3745466120625970
  0.1686866853575330  0.1631613783358873  0.3740868453278690
  0.9161644024705625  0.1636255063150553  0.3753970131107550
  0.9167822006671114  0.9130706331263236  0.3760059746127460
  0.4175417827883522  0.9140282740425635  0.3749546521896033
  0.4173919888583554  0.1643948533310466  0.3756700804868526
  0.6680581069200587  0.1646540477050673  0.3778257350424628
  0.1665023812519921  0.6634683222737079  0.3759121493206366
  0.4173966479295263  0.6633728342082931  0.3754531454195451
  0.4160331356820550  0.4135558982550886  0.3760000769372797
  0.6678285021302257  0.9138625456514243  0.3756868215771986
  0.1635768894806954  0.4147173249948299  0.3781273916547211
  0.6668961150643729  0.4130089063030216  0.3755822763064308
  0.1667011969135089  0.9141702874339875  0.3754243513401143
  0.0060132355501091  0.2394412718590981  0.4795997869794680
  0.5020984206153524  0.2473851743329092  0.4821024063186143
 -0.0000831139668654  0.7466143048786982  0.4817130400427770
  0.4981442539078917  0.7488958446979236  0.4806573684139043
  0.7472120912473025  0.7498589497117827  0.4808879534688473
 -0.0009699867652487  0.4962252439231580  0.4939155467931007
  0.7429377286493034  0.5021649315893875  0.4807580404507823
  0.2521443204560215 -0.0044505165772136  0.4804450509587636
  0.0025725725247853  0.9916902228267582  0.4815098436092248
  0.5008550826347645 -0.0024531485365384  0.4811820904637098
  0.2501736566469879  0.7469079736104417  0.4812588289211297
  0.7506095977252250 -0.0012735843328183  0.4821606284220264
  0.2530349928024683  0.2447749931030058  0.4806291277699221
  0.7530309974806488  0.2492460385753756  0.4916592190493554
  0.2498390946960107  0.4969244504989277  0.4816924406717157
  0.4951743042679582  0.4991945572082363  0.4813275179466411
  0.9998311624304849  0.2469296734187804  0.1649131594374514
  0.4996235120972927  0.2470445073046493  0.1652060102580952
  0.0001040951501350  0.7466348416671760  0.1650112442160688
  0.5000689900562753  0.7462627943903951  0.1645786989985561
  0.7506326623525496  0.7464233770925176  0.1647262023596073
  0.0001918151214232  0.4969332135905788  0.1649835442403033
  0.7502311088770456  0.4966311578829323  0.1649409197301881
  0.2497368523483977 -0.0034791770607719  0.1645314116692393
 -0.0000152530132484 -0.0034863230726853  0.1647705591953575
  0.5002891044203007 -0.0033477155051499  0.1639563309516590
  0.2498603722894912  0.7463922389689926  0.1646382924077572
  0.7501712147781427 -0.0032532075036257  0.1650648272311746
  0.2496326632680755  0.2472128184021527  0.1647656988225978
  0.7497201135547830  0.2468010370810187  0.1654243283041154
  0.2495820338614909  0.4970321719491654  0.1651006097770040
  0.4997703504888961  0.4967491499578013  0.1649069209244812
 -0.0246712637132677  0.4651928436059458  0.5909699998724134
 -0.1060607781631463  0.3436752156342933  0.6676340591102983
  0.9064161410111895  0.3825885952935095  0.6080647366373205
  0.8465478301796252  0.3406846236415086  0.5434494172914252
 
  0.00000000E+00  0.00000000E+00  0.00000000E+00
  0.00000000E+00  0.00000000E+00  0.00000000E+00
  0.00000000E+00  0.00000000E+00  0.00000000E+00
  0.00000000E+00  0.00000000E+00  0.00000000E+00
  0.00000000E+00  0.00000000E+00  0.00000000E+00
  0.00000000E+00  0.00000000E+00  0.00000000E+00
  0.00000000E+00  0.00000000E+00  0.00000000E+00
  0.00000000E+00  0.00000000E+00  0.00000000E+00
  0.00000000E+00  0.00000000E+00  0.00000000E+00
  0.00000000E+00  0.00000000E+00  0.00000000E+00
  0.00000000E+00  0.00000000E+00  0.00000000E+00
  0.00000000E+00  0.00000000E+00  0.00000000E+00
  0.00000000E+00  0.00000000E+00  0.00000000E+00
  0.00000000E+00  0.00000000E+00  0.00000000E+00
  0.00000000E+00  0.00000000E+00  0.00000000E+00
  0.00000000E+00  0.00000000E+00  0.00000000E+00
  0.00000000E+00  0.00000000E+00  0.00000000E+00
  0.00000000E+00  0.00000000E+00  0.00000000E+00
  0.00000000E+00  0.00000000E+00  0.00000000E+00
  0.00000000E+00  0.00000000E+00  0.00000000E+00
  0.00000000E+00  0.00000000E+00  0.00000000E+00
  0.00000000E+00  0.00000000E+00  0.00000000E+00
  0.00000000E+00  0.00000000E+00  0.00000000E+00
  0.00000000E+00  0.00000000E+00  0.00000000E+00
  0.00000000E+00  0.00000000E+00  0.00000000E+00
  0.00000000E+00  0.00000000E+00  0.00000000E+00
  0.00000000E+00  0.00000000E+00  0.00000000E+00
  0.00000000E+00  0.00000000E+00  0.00000000E+00
  0.00000000E+00  0.00000000E+00  0.00000000E+00
  0.00000000E+00  0.00000000E+00  0.00000000E+00
  0.00000000E+00  0.00000000E+00  0.00000000E+00
  0.00000000E+00  0.00000000E+00  0.00000000E+00
  0.00000000E+00  0.00000000E+00  0.00000000E+00
  0.00000000E+00  0.00000000E+00  0.00000000E+00
  0.00000000E+00  0.00000000E+00  0.00000000E+00
  0.00000000E+00  0.00000000E+00  0.00000000E+00
  0.00000000E+00  0.00000000E+00  0.00000000E+00
  0.00000000E+00  0.00000000E+00  0.00000000E+00
  0.00000000E+00  0.00000000E+00  0.00000000E+00
  0.00000000E+00  0.00000000E+00  0.00000000E+00
  0.00000000E+00  0.00000000E+00  0.00000000E+00
  0.00000000E+00  0.00000000E+00  0.00000000E+00
  0.00000000E+00  0.00000000E+00  0.00000000E+00
  0.00000000E+00  0.00000000E+00  0.00000000E+00
  0.00000000E+00  0.00000000E+00  0.00000000E+00
  0.00000000E+00  0.00000000E+00  0.00000000E+00
  0.00000000E+00  0.00000000E+00  0.00000000E+00
  0.00000000E+00  0.00000000E+00  0.00000000E+00
  0.00000000E+00  0.00000000E+00  0.00000000E+00
  0.00000000E+00  0.00000000E+00  0.00000000E+00
  0.00000000E+00  0.00000000E+00  0.00000000E+00
  0.00000000E+00  0.00000000E+00  0.00000000E+00
  0.00000000E+00  0.00000000E+00  0.00000000E+00
  0.00000000E+00  0.00000000E+00  0.00000000E+00
  0.00000000E+00  0.00000000E+00  0.00000000E+00
  0.00000000E+00  0.00000000E+00  0.00000000E+00
  0.00000000E+00  0.00000000E+00  0.00000000E+00
  0.00000000E+00  0.00000000E+00  0.00000000E+00
  0.00000000E+00  0.00000000E+00  0.00000000E+00
  0.00000000E+00  0.00000000E+00  0.00000000E+00
  0.00000000E+00  0.00000000E+00  0.00000000E+00
  0.00000000E+00  0.00000000E+00  0.00000000E+00
  0.00000000E+00  0.00000000E+00  0.00000000E+00
  0.00000000E+00  0.00000000E+00  0.00000000E+00
  0.00000000E+00  0.00000000E+00  0.00000000E+00
  0.00000000E+00  0.00000000E+00  0.00000000E+00
  0.00000000E+00  0.00000000E+00  0.00000000E+00
  0.00000000E+00  0.00000000E+00  0.00000000E+00
