Cu                                      
   1.00000000000000     
    10.0420999999999996    0.0000000000000000    0.0000000000000006
    -5.0210499999999989    8.6967137073437115    0.0000000000000006
     0.0000000000000000    0.0000000000000000   16.1494999999999997
   Cu   C    H 
    64     1     2
Selective dynamics
Direct
  0.0000000000000000  0.0000000000000000  0.0000000000000000   F   F   F
  0.3333332999999996  0.1666700000000034  0.1269300000000015   F   F   F
  0.1668691006044369  0.3336806828142839  0.2552513788783490   T   T   T
 -0.0010154519824353 -0.0022691351275315  0.3830818391238140   T   T   T
  0.2500000000000000  0.0000000000000000  0.0000000000000000   F   F   F
  0.0833299999999966  0.1666700000000034  0.1269300000000015   F   F   F
  0.4156561549916105  0.3325439827307800  0.2536552765987172   T   T   T
  0.2486339899899226 -0.0009327154064898  0.3827498106299193   T   T   T
  0.2500000000000000  0.2500000000000000  0.0000000000000000   F   F   F
  0.0833299999999966  0.4166700000000034  0.1269300000000015   F   F   F
  0.4164364664700196  0.0823181959499333  0.2539726773788222   T   T   T
  0.2488091205841232  0.2468904167501108  0.3829438659619633   T   T   T
  0.0000000000000000  0.2500000000000000  0.0000000000000000   F   F   F
  0.3333332999999996  0.4166700000000034  0.1269300000000015   F   F   F
  0.1658785012666073  0.0824365488688255  0.2533135555407690   T   T   T
 -0.0019856334543763  0.2464246185329860  0.3831782449013552   T   T   T
  0.5000000000000000  0.0000000000000000  0.0000000000000000   F   F   F
  0.8333299999999966  0.1666700000000034  0.1269300000000015   F   F   F
  0.6662615525275812  0.3321408406999240  0.2537734350482213   T   T   T
  0.5013946222365274  0.0022011135350030  0.3839773155961607   T   T   T
  0.7500000000000000  0.0000000000000000  0.0000000000000000   F   F   F
  0.5833299999999966  0.1666700000000034  0.1269300000000015   F   F   F
  0.9169320210061581  0.3323852068663649  0.2537325237358761   T   T   T
  0.7507922638750048 -0.0009740323489179  0.3830301427026090   T   T   T
  0.7500000000000000  0.2500000000000000  0.0000000000000000   F   F   F
  0.5833299999999966  0.4166700000000034  0.1269300000000015   F   F   F
  0.9165400616575291  0.0823523865941667  0.2533636586173623   T   T   T
  0.7496225280509238  0.2480280349467363  0.3830018499250364   T   T   T
  0.5000000000000000  0.2500000000000000  0.0000000000000000   F   F   F
  0.8333299999999966  0.4166700000000034  0.1269300000000015   F   F   F
  0.6662160980828502  0.0822100146482003  0.2539491868774865   T   T   T
  0.4987320276040649  0.2481254633873674  0.3828697623204954   T   T   T
  0.0000000000000000  0.5000000000000000  0.0000000000000000   F   F   F
  0.3333332999999996  0.6666667000000004  0.1269300000000015   F   F   F
  0.1671748007153256  0.8317736596019393  0.2550231155890443   T   T   T
 -0.0040256646897908  0.4962024207554607  0.3821020371241827   T   T   T
  0.2500000000000000  0.5000000000000000  0.0000000000000000   F   F   F
  0.0833299999999966  0.6666667000000004  0.1269300000000015   F   F   F
  0.4163899712238575  0.8326140450714804  0.2530815406548873   T   T   T
  0.2456254680566083  0.4932934719139343  0.3882457434394230   T   T   T
  0.2500000000000000  0.7500000000000000  0.0000000000000000   F   F   F
  0.0833299999999966  0.9166700000000034  0.1269300000000015   F   F   F
  0.4159420810749243  0.5830259320296435  0.2543301817347004   T   T   T
  0.2519867286072863  0.7528881821207281  0.3852904797196166   T   T   T
  0.0000000000000000  0.7500000000000000  0.0000000000000000   F   F   F
  0.3333332999999996  0.9166700000000034  0.1269300000000015   F   F   F
  0.1668945790578119  0.5829101862640125  0.2540063035044239   T   T   T
 -0.0008333080330103  0.7484979034990973  0.3821616476711110   T   T   T
  0.5000000000000000  0.5000000000000000  0.0000000000000000   F   F   F
  0.8333299999999966  0.6666667000000004  0.1269300000000015   F   F   F
  0.6647388660715862  0.8317850847798040  0.2551180495152643   T   T   T
  0.5005390104591420  0.4963707841212506  0.3815225574532938   T   T   T
  0.7500000000000000  0.5000000000000000  0.0000000000000000   F   F   F
  0.5833299999999966  0.6666667000000004  0.1269300000000015   F   F   F
  0.9165283766715056  0.8331870171209063  0.2532259655322523   T   T   T
  0.7494482887461510  0.4987578304787688  0.3826029006418416   T   T   T
  0.7500000000000000  0.7500000000000000  0.0000000000000000   F   F   F
  0.5833299999999966  0.9166700000000034  0.1269300000000015   F   F   F
  0.9165252835864232  0.5823686126309190  0.2537865626043077   T   T   T
  0.7493216854861187  0.7483875154643086  0.3822892002951750   T   T   T
  0.5000000000000000  0.7500000000000000  0.0000000000000000   F   F   F
  0.8333299999999966  0.9166700000000034  0.1269300000000015   F   F   F
  0.6660284825833610  0.5826437238077198  0.2536652830945273   T   T   T
  0.5010870727128123  0.7536440153343137  0.3866138263677451   T   T   T
  0.3305677471925017  0.6602276999577743  0.4717062479780716   T   T   T
  0.4099580657779620  0.6535867406073012  0.5166171888643591   T   T   T
  0.2531040224800759  0.6851323975307099  0.5094876693524047   T   T   T
 
  0.00000000E+00  0.00000000E+00  0.00000000E+00
  0.00000000E+00  0.00000000E+00  0.00000000E+00
  0.00000000E+00  0.00000000E+00  0.00000000E+00
  0.00000000E+00  0.00000000E+00  0.00000000E+00
  0.00000000E+00  0.00000000E+00  0.00000000E+00
  0.00000000E+00  0.00000000E+00  0.00000000E+00
  0.00000000E+00  0.00000000E+00  0.00000000E+00
  0.00000000E+00  0.00000000E+00  0.00000000E+00
  0.00000000E+00  0.00000000E+00  0.00000000E+00
  0.00000000E+00  0.00000000E+00  0.00000000E+00
  0.00000000E+00  0.00000000E+00  0.00000000E+00
  0.00000000E+00  0.00000000E+00  0.00000000E+00
  0.00000000E+00  0.00000000E+00  0.00000000E+00
  0.00000000E+00  0.00000000E+00  0.00000000E+00
  0.00000000E+00  0.00000000E+00  0.00000000E+00
  0.00000000E+00  0.00000000E+00  0.00000000E+00
  0.00000000E+00  0.00000000E+00  0.00000000E+00
  0.00000000E+00  0.00000000E+00  0.00000000E+00
  0.00000000E+00  0.00000000E+00  0.00000000E+00
  0.00000000E+00  0.00000000E+00  0.00000000E+00
  0.00000000E+00  0.00000000E+00  0.00000000E+00
  0.00000000E+00  0.00000000E+00  0.00000000E+00
  0.00000000E+00  0.00000000E+00  0.00000000E+00
  0.00000000E+00  0.00000000E+00  0.00000000E+00
  0.00000000E+00  0.00000000E+00  0.00000000E+00
  0.00000000E+00  0.00000000E+00  0.00000000E+00
  0.00000000E+00  0.00000000E+00  0.00000000E+00
  0.00000000E+00  0.00000000E+00  0.00000000E+00
  0.00000000E+00  0.00000000E+00  0.00000000E+00
  0.00000000E+00  0.00000000E+00  0.00000000E+00
  0.00000000E+00  0.00000000E+00  0.00000000E+00
  0.00000000E+00  0.00000000E+00  0.00000000E+00
  0.00000000E+00  0.00000000E+00  0.00000000E+00
  0.00000000E+00  0.00000000E+00  0.00000000E+00
  0.00000000E+00  0.00000000E+00  0.00000000E+00
  0.00000000E+00  0.00000000E+00  0.00000000E+00
  0.00000000E+00  0.00000000E+00  0.00000000E+00
  0.00000000E+00  0.00000000E+00  0.00000000E+00
  0.00000000E+00  0.00000000E+00  0.00000000E+00
  0.00000000E+00  0.00000000E+00  0.00000000E+00
  0.00000000E+00  0.00000000E+00  0.00000000E+00
  0.00000000E+00  0.00000000E+00  0.00000000E+00
  0.00000000E+00  0.00000000E+00  0.00000000E+00
  0.00000000E+00  0.00000000E+00  0.00000000E+00
  0.00000000E+00  0.00000000E+00  0.00000000E+00
  0.00000000E+00  0.00000000E+00  0.00000000E+00
  0.00000000E+00  0.00000000E+00  0.00000000E+00
  0.00000000E+00  0.00000000E+00  0.00000000E+00
  0.00000000E+00  0.00000000E+00  0.00000000E+00
  0.00000000E+00  0.00000000E+00  0.00000000E+00
  0.00000000E+00  0.00000000E+00  0.00000000E+00
  0.00000000E+00  0.00000000E+00  0.00000000E+00
  0.00000000E+00  0.00000000E+00  0.00000000E+00
  0.00000000E+00  0.00000000E+00  0.00000000E+00
  0.00000000E+00  0.00000000E+00  0.00000000E+00
  0.00000000E+00  0.00000000E+00  0.00000000E+00
  0.00000000E+00  0.00000000E+00  0.00000000E+00
  0.00000000E+00  0.00000000E+00  0.00000000E+00
  0.00000000E+00  0.00000000E+00  0.00000000E+00
  0.00000000E+00  0.00000000E+00  0.00000000E+00
  0.00000000E+00  0.00000000E+00  0.00000000E+00
  0.00000000E+00  0.00000000E+00  0.00000000E+00
  0.00000000E+00  0.00000000E+00  0.00000000E+00
  0.00000000E+00  0.00000000E+00  0.00000000E+00
  0.00000000E+00  0.00000000E+00  0.00000000E+00
  0.00000000E+00  0.00000000E+00  0.00000000E+00
  0.00000000E+00  0.00000000E+00  0.00000000E+00
