Ni_Pol_COCH
   1.00000000000000     
     9.8291997910000006    0.0000000000000000    0.0000000000000000
     4.9145998955000003    8.5123367178000002    0.0000000000000000
     0.0000000000000000    0.0000000000000000   19.0128002167000005
   Ni   O    C    O    C    H 
    64     3     1     1     1     1
Selective dynamics
Direct
  0.8337318430985691  0.5833742204440979  0.2712077400397976   T   T   T
  0.3342353956184675  0.0828049684813111  0.2704993519207473   T   T   T
  0.8340459331816086  0.0835097290403049  0.2711087381255522   T   T   T
  0.3345057015717438  0.5829240788121330  0.2706661836709433   T   T   T
  0.5840107803064433  0.8334610671749764  0.2706982104464278   T   T   T
  0.8339233571209195  0.8335069909446016  0.2708369586956818   T   T   T
  0.0842862581693704  0.3326785869651303  0.2706558107708312   T   T   T
  0.8344858127773397  0.3325801523799532  0.2714674064344980   T   T   T
  0.5850201719611913  0.5818429934251621  0.2718315834686151   T   T   T
  0.0842370726349300  0.5829806520336928  0.2708406555851924   T   T   T
  0.0836776451481028  0.0837343843926551  0.2706759101998601   T   T   T
  0.5846052456907114  0.0830624639901990  0.2716598286867876   T   T   T
  0.3347712836158090  0.8328498260098345  0.2708404272964294   T   T   T
  0.0841014899794316  0.8329363154146968  0.2706204428240338   T   T   T
  0.3343142981753907  0.3328244045082830  0.2715014952322198   T   T   T
  0.5849886991577966  0.3322504486712639  0.2718773862682792   T   T   T
  0.9173662963752240  0.6668461388221882  0.3749371965242393   T   T   T
  0.9175821555561113  0.4164617694395052  0.3753088310886757   T   T   T
  0.6678523023733473  0.6650616949330370  0.3760858966078588   T   T   T
  0.1662617443653752  0.1667835199750621  0.3764719780750139   T   T   T
  0.9174110565546676  0.1659544052315621  0.3773384126055754   T   T   T
  0.9174015266934820  0.9171426098601106  0.3755855191909687   T   T   T
  0.4165202481134951  0.9172879693916829  0.3758831255449926   T   T   T
  0.4173050398948341  0.1661180608354211  0.3761262912119653   T   T   T
  0.6692056580520670  0.1668565480902387  0.3783230618939157   T   T   T
  0.1682597733909932  0.6663344299619928  0.3759305984147430   T   T   T
  0.4173706012613992  0.6660392225266359  0.3760357583789055   T   T   T
  0.4176816706005963  0.4163509450475955  0.3761169109651051   T   T   T
  0.6665015567659826  0.9173471482002645  0.3776055334927433   T   T   T
  0.1684105028148478  0.4158379141503552  0.3775186994898432   T   T   T
  0.6684421768368276  0.4145129956519026  0.3796757584417059   T   T   T
  0.1674869454978820  0.9165187065340480  0.3779803199408810   T   T   T
 -0.0008627824597603  0.2546023710428146  0.4813378330038520   T   T   T
  0.4999254202346642  0.2503753212512091  0.4801874636800699   T   T   T
  0.9970293480922762  0.7473378754560694  0.4796274835558066   T   T   T
  0.5038464454434513  0.7492454733490225  0.4795513705664146   T   T   T
  0.7493749441907146  0.7504399960063373  0.4804460334423749   T   T   T
  0.0003223661869040  0.5027960100201438  0.4800757020968203   T   T   T
  0.7502693558776923  0.5059735936537544  0.4840468318148889   T   T   T
  0.2481906210424391 -0.0011294324618116  0.4853651725676901   T   T   T
  0.0051182882836638  0.9944925112275883  0.4844974735453026   T   T   T
  0.5024665539721700  0.9986387630664926  0.4860248320997858   T   T   T
  0.2488886601500107  0.7532252115808312  0.4854362820283771   T   T   T
  0.7476169838306971  0.9959697512176935  0.4848857716028704   T   T   T
  0.2486797044709213  0.2538871409260312  0.4854613051740055   T   T   T
  0.7484447375381813  0.2522969710219778  0.4960399663702958   T   T   T
  0.2469547456444824  0.4993852334968966  0.4858903179745013   T   T   T
  0.5000496864673005  0.5002728644227419  0.4850267701566287   T   T   T
  0.9970724670000024  0.2558556729999992  0.1637003960000030   F   F   F
  0.4999617989999976  0.2500875830000027  0.1643123180000003   F   F   F
  0.9968841629999972  0.7476992069999966  0.1643590660000029   F   F   F
  0.5054474789999972  0.7476858750000019  0.1651548480000002   F   F   F
  0.7507219769999978  0.7486395119999969  0.1651830500000031   F   F   F
  0.9979410790000003  0.5014025589999989  0.1651978470000017   F   F   F
  0.7507272960000009  0.5014379059999996  0.1654730480000026   F   F   F
  0.2484077359999972  0.9989653640000000  0.1655050250000016   F   F   F
  0.0026835399999996  0.9989392600000002  0.1655775309999967   F   F   F
  0.5037179199999997  0.9979203070000011  0.1655856309999990   F   F   F
  0.2483221529999966  0.7533767729999994  0.1658259459999982   F   F   F
  0.7484137009999969  0.9978805350000002  0.1658943890000018   F   F   F
  0.2473094730000014  0.2543786680000011  0.1660089160000027   F   F   F
  0.7483561820000020  0.2543461500000035  0.1660180820000008   F   F   F
  0.2472921950000000  0.4989472700000022  0.1662971330000005   F   F   F
  0.5037960519999984  0.4989156760000029  0.1664085250000014   F   F   F
  0.3316874784904508  0.0843247110282937  0.5454045979437754   T   T   T
  0.8410223740768189  0.0632589224718221  0.5463737853073045   T   T   T
  0.3311955477899646  0.5844518650578984  0.5453850247119766   T   T   T
  0.7215613977221541  0.4369428375098371  0.6075253024179162   T   T   T
  0.6295572366965655  0.5018001788279427  0.6525032798506062   T   T   T
  0.8358164647596589  0.3538984229167823  0.5605361026811099   T   T   T
  0.9550701102649568  0.2814387054849575  0.5847827349560647   T   T   T
 
  0.00000000E+00  0.00000000E+00  0.00000000E+00
  0.00000000E+00  0.00000000E+00  0.00000000E+00
  0.00000000E+00  0.00000000E+00  0.00000000E+00
  0.00000000E+00  0.00000000E+00  0.00000000E+00
  0.00000000E+00  0.00000000E+00  0.00000000E+00
  0.00000000E+00  0.00000000E+00  0.00000000E+00
  0.00000000E+00  0.00000000E+00  0.00000000E+00
  0.00000000E+00  0.00000000E+00  0.00000000E+00
  0.00000000E+00  0.00000000E+00  0.00000000E+00
  0.00000000E+00  0.00000000E+00  0.00000000E+00
  0.00000000E+00  0.00000000E+00  0.00000000E+00
  0.00000000E+00  0.00000000E+00  0.00000000E+00
  0.00000000E+00  0.00000000E+00  0.00000000E+00
  0.00000000E+00  0.00000000E+00  0.00000000E+00
  0.00000000E+00  0.00000000E+00  0.00000000E+00
  0.00000000E+00  0.00000000E+00  0.00000000E+00
  0.00000000E+00  0.00000000E+00  0.00000000E+00
  0.00000000E+00  0.00000000E+00  0.00000000E+00
  0.00000000E+00  0.00000000E+00  0.00000000E+00
  0.00000000E+00  0.00000000E+00  0.00000000E+00
  0.00000000E+00  0.00000000E+00  0.00000000E+00
  0.00000000E+00  0.00000000E+00  0.00000000E+00
  0.00000000E+00  0.00000000E+00  0.00000000E+00
  0.00000000E+00  0.00000000E+00  0.00000000E+00
  0.00000000E+00  0.00000000E+00  0.00000000E+00
  0.00000000E+00  0.00000000E+00  0.00000000E+00
  0.00000000E+00  0.00000000E+00  0.00000000E+00
  0.00000000E+00  0.00000000E+00  0.00000000E+00
  0.00000000E+00  0.00000000E+00  0.00000000E+00
  0.00000000E+00  0.00000000E+00  0.00000000E+00
  0.00000000E+00  0.00000000E+00  0.00000000E+00
  0.00000000E+00  0.00000000E+00  0.00000000E+00
  0.00000000E+00  0.00000000E+00  0.00000000E+00
  0.00000000E+00  0.00000000E+00  0.00000000E+00
  0.00000000E+00  0.00000000E+00  0.00000000E+00
  0.00000000E+00  0.00000000E+00  0.00000000E+00
  0.00000000E+00  0.00000000E+00  0.00000000E+00
  0.00000000E+00  0.00000000E+00  0.00000000E+00
  0.00000000E+00  0.00000000E+00  0.00000000E+00
  0.00000000E+00  0.00000000E+00  0.00000000E+00
  0.00000000E+00  0.00000000E+00  0.00000000E+00
  0.00000000E+00  0.00000000E+00  0.00000000E+00
  0.00000000E+00  0.00000000E+00  0.00000000E+00
  0.00000000E+00  0.00000000E+00  0.00000000E+00
  0.00000000E+00  0.00000000E+00  0.00000000E+00
  0.00000000E+00  0.00000000E+00  0.00000000E+00
  0.00000000E+00  0.00000000E+00  0.00000000E+00
  0.00000000E+00  0.00000000E+00  0.00000000E+00
  0.00000000E+00  0.00000000E+00  0.00000000E+00
  0.00000000E+00  0.00000000E+00  0.00000000E+00
  0.00000000E+00  0.00000000E+00  0.00000000E+00
  0.00000000E+00  0.00000000E+00  0.00000000E+00
  0.00000000E+00  0.00000000E+00  0.00000000E+00
  0.00000000E+00  0.00000000E+00  0.00000000E+00
  0.00000000E+00  0.00000000E+00  0.00000000E+00
  0.00000000E+00  0.00000000E+00  0.00000000E+00
  0.00000000E+00  0.00000000E+00  0.00000000E+00
  0.00000000E+00  0.00000000E+00  0.00000000E+00
  0.00000000E+00  0.00000000E+00  0.00000000E+00
  0.00000000E+00  0.00000000E+00  0.00000000E+00
  0.00000000E+00  0.00000000E+00  0.00000000E+00
  0.00000000E+00  0.00000000E+00  0.00000000E+00
  0.00000000E+00  0.00000000E+00  0.00000000E+00
  0.00000000E+00  0.00000000E+00  0.00000000E+00
  0.00000000E+00  0.00000000E+00  0.00000000E+00
  0.00000000E+00  0.00000000E+00  0.00000000E+00
  0.00000000E+00  0.00000000E+00  0.00000000E+00
  0.00000000E+00  0.00000000E+00  0.00000000E+00
  0.00000000E+00  0.00000000E+00  0.00000000E+00
  0.00000000E+00  0.00000000E+00  0.00000000E+00
  0.00000000E+00  0.00000000E+00  0.00000000E+00
