 Ni\(1\1\1)                             
   1.00000000000000     
     9.8291997910000006    0.0000000000000000    0.0000000000000000
     4.9145998955000003    8.5123367178000002    0.0000000000000000
     0.0000000000000000    0.0000000000000000   19.0128002167000005
   Ni   O    C    O    H    C    H 
    64     3     1     2     1     1     2
Selective dynamics
Direct
  0.8318196633473605  0.5847291851466707  0.2717114886710448   T   T   T
  0.3326519197995736  0.0844244550538349  0.2702360709386582   T   T   T
  0.8320553146945784  0.0848657348338904  0.2708804958916033   T   T   T
  0.3324559867564645  0.5848935939230344  0.2711115719281807   T   T   T
  0.5826608406726379  0.8350214806070539  0.2711090103883862   T   T   T
  0.8317364931250069  0.8347057943655827  0.2709481057876246   T   T   T
  0.0826729163939603  0.3348270706622145  0.2704593911772122   T   T   T
  0.8321620520831488  0.3345130132510761  0.2707785476197202   T   T   T
  0.5822708629335693  0.5848666842439343  0.2717867403931393   T   T   T
  0.0817774186214919  0.5847834031735886  0.2710515524136028   T   T   T
  0.0818680087520889  0.0854350796079473  0.2702084132991018   T   T   T
  0.5825542099790937  0.0840105088570411  0.2716498749194187   T   T   T
  0.3328671200532440  0.8344240625702426  0.2708079256193940   T   T   T
  0.0819015469414097  0.8348530767229718  0.2704724711952480   T   T   T
  0.3327808158895849  0.3343926146737886  0.2710893076081859   T   T   T
  0.5819452483160816  0.3343446421450480  0.2719278453111826   T   T   T
  0.9146174951800674  0.6676900143605806  0.3762159823894038   T   T   T
  0.9163371571090622  0.4177240450110205  0.3752757755963927   T   T   T
  0.6657121879793522  0.6689351374754438  0.3766939749788136   T   T   T
  0.1659061895875311  0.1681470045882847  0.3752970819114054   T   T   T
  0.9150785612237939  0.1681334060643991  0.3762971900180787   T   T   T
  0.9151939509194023  0.9185009467980052  0.3755159293725754   T   T   T
  0.4155142266549277  0.9187555081095766  0.3759750745910964   T   T   T
  0.4155169594532993  0.1683106586659591  0.3758992410558832   T   T   T
  0.6662935669609666  0.1683063014132884  0.3770758052000858   T   T   T
  0.1655369983823434  0.6685682993526925  0.3755210708797279   T   T   T
  0.4155790935176071  0.6681606950438166  0.3770237073748177   T   T   T
  0.4151955510775096  0.4193601560188540  0.3770040792604235   T   T   T
  0.6656807671725176  0.9173932699972198  0.3794142847635058   T   T   T
  0.1652708994089807  0.4184896187782385  0.3778351683809618   T   T   T
  0.6652458569841642  0.4175502935754309  0.3780618305784387   T   T   T
  0.1656355709564394  0.9187155603402886  0.3779717122188515   T   T   T
  0.9996641392037020  0.2529411206088241  0.4787296241898744   T   T   T
  0.4979494478901785  0.2517904713768075  0.4797072558178499   T   T   T
  0.9976149500826068  0.7501579229593744  0.4785252326727658   T   T   T
  0.5008145562676418  0.7522334772882573  0.4796897253473347   T   T   T
  0.7470622398268745  0.7541601131369546  0.4873058524036153   T   T   T
  0.9980459029897375  0.5010569335109452  0.4849559647403581   T   T   T
  0.7526129215615143  0.5012902118842248  0.4822240960075348   T   T   T
  0.2471075167643590  0.0006604693753260  0.4854353040730786   T   T   T
  0.0030349983713478  0.9985640435855885  0.4846883695767517   T   T   T
  0.5002465221428096  0.0014970381706192  0.4862056603221063   T   T   T
  0.2461825413117609  0.7558836181649937  0.4849005221366411   T   T   T
  0.7466777249110805  0.9999835134725714  0.4849082263628830   T   T   T
  0.2473900537681715  0.2550320750681578  0.4846127158070388   T   T   T
  0.7495135216080868  0.2521773610174876  0.4937153326076853   T   T   T
  0.2454824150503541  0.5002303870551899  0.4846978207432358   T   T   T
  0.5001322721289796  0.5026612118702189  0.4937151337444448   T   T   T
  0.9970724670000024  0.2558556729999992  0.1637003960000030   F   F   F
  0.4999617989999976  0.2500875830000027  0.1643123180000003   F   F   F
  0.9968841629999972  0.7476992069999966  0.1643590660000029   F   F   F
  0.5054474789999972  0.7476858750000019  0.1651548480000002   F   F   F
  0.7507219769999978  0.7486395119999969  0.1651830500000031   F   F   F
  0.9979410790000003  0.5014025589999989  0.1651978470000017   F   F   F
  0.7507272960000009  0.5014379059999996  0.1654730480000026   F   F   F
  0.2484077359999972  0.9989653640000000  0.1655050250000016   F   F   F
  0.0026835399999996  0.9989392600000002  0.1655775309999967   F   F   F
  0.5037179199999997  0.9979203070000011  0.1655856309999990   F   F   F
  0.2483221529999966  0.7533767729999994  0.1658259459999982   F   F   F
  0.7484137009999969  0.9978805350000002  0.1658943890000018   F   F   F
  0.2473094730000014  0.2543786680000011  0.1660089160000027   F   F   F
  0.7483561820000020  0.2543461500000035  0.1660180820000008   F   F   F
  0.2472921950000000  0.4989472700000022  0.1662971330000005   F   F   F
  0.5037960519999984  0.4989156760000029  0.1664085250000014   F   F   F
  0.3295282265485326  0.0873819961493538  0.5459946677272214   T   T   T
  0.8396968744954378  0.0707070955560170  0.5468968098841245   T   T   T
  0.3181692692798492  0.5914961698494992  0.5466857980551296   T   T   T
  0.9586636686679171  0.2772171835322794  0.5771347965351055   T   T   T
  0.9414417190402631  0.4201035958140977  0.5879859077326870   T   T   T
  0.0318691304924599  0.1839193299680559  0.6321466246493586   T   T   T
  0.1214135324893135  0.1363021032727474  0.6639455650945436   T   T   T
  0.7853801142359416  0.3475312534431083  0.5493353046949565   T   T   T
  0.7202441461990290  0.3015996288123972  0.5871087964931760   T   T   T
  0.7052441461990355  0.4415996288123978  0.5871087964931760   T   T   T
 
  0.00000000E+00  0.00000000E+00  0.00000000E+00
  0.00000000E+00  0.00000000E+00  0.00000000E+00
  0.00000000E+00  0.00000000E+00  0.00000000E+00
  0.00000000E+00  0.00000000E+00  0.00000000E+00
  0.00000000E+00  0.00000000E+00  0.00000000E+00
  0.00000000E+00  0.00000000E+00  0.00000000E+00
  0.00000000E+00  0.00000000E+00  0.00000000E+00
  0.00000000E+00  0.00000000E+00  0.00000000E+00
  0.00000000E+00  0.00000000E+00  0.00000000E+00
  0.00000000E+00  0.00000000E+00  0.00000000E+00
  0.00000000E+00  0.00000000E+00  0.00000000E+00
  0.00000000E+00  0.00000000E+00  0.00000000E+00
  0.00000000E+00  0.00000000E+00  0.00000000E+00
  0.00000000E+00  0.00000000E+00  0.00000000E+00
  0.00000000E+00  0.00000000E+00  0.00000000E+00
  0.00000000E+00  0.00000000E+00  0.00000000E+00
  0.00000000E+00  0.00000000E+00  0.00000000E+00
  0.00000000E+00  0.00000000E+00  0.00000000E+00
  0.00000000E+00  0.00000000E+00  0.00000000E+00
  0.00000000E+00  0.00000000E+00  0.00000000E+00
  0.00000000E+00  0.00000000E+00  0.00000000E+00
  0.00000000E+00  0.00000000E+00  0.00000000E+00
  0.00000000E+00  0.00000000E+00  0.00000000E+00
  0.00000000E+00  0.00000000E+00  0.00000000E+00
  0.00000000E+00  0.00000000E+00  0.00000000E+00
  0.00000000E+00  0.00000000E+00  0.00000000E+00
  0.00000000E+00  0.00000000E+00  0.00000000E+00
  0.00000000E+00  0.00000000E+00  0.00000000E+00
  0.00000000E+00  0.00000000E+00  0.00000000E+00
  0.00000000E+00  0.00000000E+00  0.00000000E+00
  0.00000000E+00  0.00000000E+00  0.00000000E+00
  0.00000000E+00  0.00000000E+00  0.00000000E+00
  0.00000000E+00  0.00000000E+00  0.00000000E+00
  0.00000000E+00  0.00000000E+00  0.00000000E+00
  0.00000000E+00  0.00000000E+00  0.00000000E+00
  0.00000000E+00  0.00000000E+00  0.00000000E+00
  0.00000000E+00  0.00000000E+00  0.00000000E+00
  0.00000000E+00  0.00000000E+00  0.00000000E+00
  0.00000000E+00  0.00000000E+00  0.00000000E+00
  0.00000000E+00  0.00000000E+00  0.00000000E+00
  0.00000000E+00  0.00000000E+00  0.00000000E+00
  0.00000000E+00  0.00000000E+00  0.00000000E+00
  0.00000000E+00  0.00000000E+00  0.00000000E+00
  0.00000000E+00  0.00000000E+00  0.00000000E+00
  0.00000000E+00  0.00000000E+00  0.00000000E+00
  0.00000000E+00  0.00000000E+00  0.00000000E+00
  0.00000000E+00  0.00000000E+00  0.00000000E+00
  0.00000000E+00  0.00000000E+00  0.00000000E+00
  0.00000000E+00  0.00000000E+00  0.00000000E+00
  0.00000000E+00  0.00000000E+00  0.00000000E+00
  0.00000000E+00  0.00000000E+00  0.00000000E+00
  0.00000000E+00  0.00000000E+00  0.00000000E+00
  0.00000000E+00  0.00000000E+00  0.00000000E+00
  0.00000000E+00  0.00000000E+00  0.00000000E+00
  0.00000000E+00  0.00000000E+00  0.00000000E+00
  0.00000000E+00  0.00000000E+00  0.00000000E+00
  0.00000000E+00  0.00000000E+00  0.00000000E+00
  0.00000000E+00  0.00000000E+00  0.00000000E+00
  0.00000000E+00  0.00000000E+00  0.00000000E+00
  0.00000000E+00  0.00000000E+00  0.00000000E+00
  0.00000000E+00  0.00000000E+00  0.00000000E+00
  0.00000000E+00  0.00000000E+00  0.00000000E+00
  0.00000000E+00  0.00000000E+00  0.00000000E+00
  0.00000000E+00  0.00000000E+00  0.00000000E+00
  0.00000000E+00  0.00000000E+00  0.00000000E+00
  0.00000000E+00  0.00000000E+00  0.00000000E+00
  0.00000000E+00  0.00000000E+00  0.00000000E+00
  0.00000000E+00  0.00000000E+00  0.00000000E+00
  0.00000000E+00  0.00000000E+00  0.00000000E+00
  0.00000000E+00  0.00000000E+00  0.00000000E+00
  0.00000000E+00  0.00000000E+00  0.00000000E+00
  0.00000000E+00  0.00000000E+00  0.00000000E+00
  0.00000000E+00  0.00000000E+00  0.00000000E+00
  0.00000000E+00  0.00000000E+00  0.00000000E+00
