 Ni_COOHCH2
   1.000
    9.8292000000000002    0.0000000000000000    0.0000000000000000
    4.9146000000000001    8.5123370000000005    0.0000000000000000
    0.0000000000000000    0.0000000000000000   30.7148000000000003
   Ni   O    H    C    H    C    O    O    H 
   64   30   60    1    2    1    1    1    1
Selective Dynamics
Direct
    0.0751314100000000    0.0932640200000000    0.1217165300000000    T  T  T
    0.3211662200000000    0.1013419400000000    0.1210357600000000    T  T  T
    0.3134275500000000    0.8506502800000000    0.1190773900000000    T  T  T
    0.5693564200000000    0.3418900700000000    0.1238890000000000    T  T  T
    0.3201913800000000    0.5879606900000000    0.1203072800000000    T  T  T
    0.3195409900000000    0.3473409300000000    0.1176345700000000    T  T  T
    0.8201384100000000    0.0986048200000000    0.1231469900000000    T  T  T
    0.5805771400000000    0.0958118000000000    0.1212553000000000    T  T  T
    0.8136379700000000    0.3421528000000000    0.1174712100000000    T  T  T
    0.5689077100000000    0.5925622400000000    0.1196537000000000    T  T  T
    0.0680850800000000    0.8484630100000000    0.1164912800000000    T  T  T
    0.5741602000000000    0.8494891000000000    0.1214274800000000    T  T  T
    0.0650530500000000    0.3425407300000000    0.1205614800000000    T  T  T
    0.8182896100000000    0.5903323400000000    0.1229986300000000    T  T  T
    0.0690811200000000    0.5841557100000000    0.1206043200000000    T  T  T
    0.8355115500000000    0.8246148200000000    0.1191178700000000    T  T  T
    0.1559287100000000    0.1796630400000000    0.1898125100000000    T  T  T
    0.1427999600000000    0.9367422600000000    0.1853880900000000    T  T  T
    0.3959050300000000    0.1878941100000000    0.1883947000000000    T  T  T
    0.4021999200000000    0.9384578000000000    0.1890673100000000    T  T  T
    0.3904967600000000    0.4375615100000000    0.1863134100000000    T  T  T
    0.4020873500000000    0.6867740500000000    0.1827346000000000    T  T  T
    0.9013487100000001    0.1820308100000000    0.1846471300000000    T  T  T
    0.6514834900000001    0.1809453300000000    0.1903126200000000    T  T  T
    0.6606781100000000    0.4244465700000000    0.1864450400000000    T  T  T
    0.1435701600000000    0.6850442300000000    0.1871559000000000    T  T  T
    0.9074312800000000    0.4225708600000000    0.1867434100000000    T  T  T
    0.6495893900000000    0.6840834900000000    0.1850909500000000    T  T  T
    0.8844291700000000    0.9302469200000000    0.1869327700000000    T  T  T
    0.6436294100000000    0.9373160500000000    0.1873208700000000    T  T  T
    0.1480391900000000    0.4393884700000000    0.1876899200000000    T  T  T
    0.9047226400000000    0.6767609100000000    0.1849556200000000    T  T  T
    0.2452039700000000    0.9964254700000000    0.2585408200000000    T  T  T
    0.5013898300000000    0.2579921100000000    0.2535228600000000    T  T  T
    0.4976468900000000    0.5008137200000000    0.2528902500000000    T  T  T
    0.2490707400000000    0.2539171200000000    0.2555567600000000    T  T  T
   -0.0076314200000000    0.2461986100000000    0.2543816900000000    T  T  T
    0.7545892600000000    0.2562961100000000    0.2535852200000000    T  T  T
    0.4893618300000000    0.7499041900000000    0.2519011800000000    T  T  T
    0.2491566000000000    0.7455873200000001    0.2503793500000000    T  T  T
    0.5001862900000000    1.0066850500000000    0.2589213400000000    T  T  T
    0.9924724900000000   -0.0032847000000000    0.2514711700000000    T  T  T
    0.2291546800000000    0.5185589200000000    0.2545834100000000    T  T  T
    0.7386578900000000    0.5023380600000000    0.2555974300000000    T  T  T
    0.7436323100000000    1.0089009499999999    0.2524004100000000    T  T  T
   -0.0152710400000000    0.7488088800000000    0.2646906900000000    T  T  T
    0.7474605200000000    0.7575283400000000    0.2488923800000000    T  T  T
   -0.0047273900000000    0.4879389500000000    0.2532427900000000    T  T  T
    0.2488099900000000    0.0018900000000000    0.0530725900000000    F  F  F
    0.4986599900000000    0.2520299800000000    0.0530725900000000    F  F  F
    0.4987100700000000    0.5019500099999999    0.0530725900000000    F  F  F
    0.2486699900000000    0.2519600100000000    0.0530725900000000    F  F  F
    0.9988300200000000    0.2520000100000000    0.0530725900000000    F  F  F
    0.7487000500000000    0.2521200000000000    0.0530725900000000    F  F  F
    0.4986899700000000    0.7520999700000000    0.0530725900000000    F  F  F
    0.2487699600000000    0.7521200300000001    0.0530725900000000    F  F  F
    0.4985999800000000    0.0021100000000000    0.0530725900000000    F  F  F
    0.9987700300000000    0.0022100000000000    0.0530725900000000    F  F  F
    0.2487500100000000    0.5021200300000001    0.0530725900000000    F  F  F
    0.7486699900000000    0.5022699800000000    0.0530725900000000    F  F  F
    0.7485900000000000    0.0024500000000000    0.0530725900000000    F  F  F
    0.9987000500000000    0.7524499700000000    0.0530725900000000    F  F  F
    0.7486699300000000    0.7524300300000000    0.0530725900000000    F  F  F
    0.9986899600000000    0.5022000200000000    0.0530725900000000    F  F  F
    0.1683107700000000    0.9069423500000000    0.5811084900000000    T  T  T
    0.7137931900000000    1.0277954499999999    0.6263575900000000    T  T  T
    0.8129737200000000    0.1286990000000000    0.3886019900000000    T  T  T
    0.3554841300000000    0.1579221600000000    0.4434343600000000    T  T  T
    0.5252045500000000    0.2750893500000000    0.3484231800000000    T  T  T
    0.2327156100000000    0.6147766400000000    0.5708080700000000    T  T  T
    0.6211536000000000    0.7844538000000000    0.3908350600000000    T  T  T
    0.3501720000000000    0.4430952000000000    0.4170514700000000    T  T  T
    0.5265077700000000    1.0137688800000000    0.3223744800000000    T  T  T
    0.5755406000000000    0.7610057300000000    0.4812092000000000    T  T  T
    0.1400383100000000    0.9279745900000000    0.4475076900000000    T  T  T
    0.5082670800000000    0.4206135300000000    0.5337923300000000    T  T  T
    0.5775923900000000    0.1283147300000000    0.5450203400000000    T  T  T
    0.7779199100000000    0.3915797200000000    0.4224237400000000    T  T  T
    0.7597643900000000    0.6196780300000000    0.5500887300000000    T  T  T
    0.5121147600000000    0.5474553700000000    0.4571017500000000    T  T  T
    0.9759190400000000    0.7477159000000000    0.4629003900000000    T  T  T
    0.0629441500000000    0.5190259100000000    0.5198349799999999    T  T  T
    0.1661920500000000    0.5051261000000000    0.6452696200000000    T  T  T
    0.7781794399999999    0.3556926900000000    0.5707790400000000    T  T  T
    0.8486803400000000    0.6753720700000000    0.6267821800000000    T  T  T
    0.4123937900000000    0.9722654500000000    0.5554536500000000    T  T  T
    0.1247257900000000    0.6782277100000000    0.3887821300000000    T  T  T
    0.9096856700000000    0.1318302700000000    0.6276016400000000    T  T  T
    0.6742627200000000    1.0152544800000001    0.4617635900000000    T  T  T
    0.9684357300000001    1.0806890600000001    0.5191543900000000    T  T  T
    0.0923978200000000    0.9901380500000000    0.3492904100000000    T  T  T
    0.1852893000000000    0.1900283100000000    0.5108376400000000    T  T  T
    0.4020149100000000    0.7342711700000000    0.3571566500000000    T  T  T
    0.2379975500000000    0.1626293400000000    0.3618105400000000    T  T  T
    0.2510183800000000    0.9322177800000000    0.5719906900000000    T  T  T
    0.2017505100000000    0.7905798200000000    0.5805174900000000    T  T  T
    0.7718034400000000    0.9096514300000000    0.6296710900000000    T  T  T
    0.6834538999999999    1.0487425699999999    0.5949579300000000    T  T  T
    0.7124763000000000    0.1923058400000000    0.3707585300000000    T  T  T
    0.9152825000000000    0.0679204800000000    0.3725783500000000    T  T  T
    0.2808793300000000    0.1578462400000000    0.4670189600000000    T  T  T
    0.3466659600000000    0.3553044000000000    0.4322181200000000    T  T  T
    0.4606200600000000    0.3470961000000000    0.3711942500000000    T  T  T
    0.5213393200000001    0.3432565400000000    0.3228749100000000    T  T  T
    0.2269940700000000    0.5593772700000000    0.5968410600000000    T  T  T
    0.1684781000000000    0.6076189900000000    0.5468521200000001    T  T  T
    0.5630788400000000    0.7436608000000000    0.3742206600000000    T  T  T
    0.7294809700000000    0.7014433900000000    0.3907318600000000    T  T  T
    0.2169517600000000    0.5600495000000000    0.3972548400000000    T  T  T
    0.4123363200000000    0.4936401500000000    0.4317795100000000    T  T  T
    0.5456848000000000    0.1032465100000000    0.3304261200000000    T  T  T
    0.5811338200000000    0.9298713800000000    0.3468614600000000    T  T  T
    0.5863796900000000    0.8094678700000000    0.4562994400000000    T  T  T
    0.5313666900000000    0.6900341300000000    0.4730131000000000    T  T  T
    0.1628340200000000    0.8496190600000000    0.4254913700000000    T  T  T
    0.2225339500000000    0.8888743000000000    0.4688360300000000    T  T  T
    0.5991075400000000    0.3990158100000000    0.5530372300000000    T  T  T
    0.4109388900000000    0.5015268100000000    0.5492886600000000    T  T  T
    0.5573605000000000    0.2377378000000000    0.5444368800000000    T  T  T
    0.6121137600000000    0.0932193500000000    0.5144019500000000    T  T  T
    0.8442346900000000    0.4273611300000000    0.4090301800000000    T  T  T
    0.8262699999999999    0.2783399900000000    0.4133433300000000    T  T  T
    0.6978954800000000    0.6631101500000000    0.5227701500000000    T  T  T
    0.7782040000000000    0.5079141000000000    0.5565672900000000    T  T  T
    0.6164379600000000    0.4776968900000000    0.4392334000000000    T  T  T
    0.5208958500000000    0.4914097900000000    0.4863540400000000    T  T  T
    0.8629678400000000    0.8204442800000000    0.4662787800000000    T  T  T
    1.0004099799999999    0.6550054000000000    0.4831296100000000    T  T  T
    0.0980566400000000    0.4121339500000000    0.5087730600000000    T  T  T
   -0.0382753400000000    0.5497085800000000    0.5367336600000000    T  T  T
    0.2104282800000000    0.3964537300000000    0.6347169000000000    T  T  T
    0.0505567900000000    0.5704111600000000    0.6361341000000000    T  T  T
    0.8375875000000000    0.2734166000000000    0.5475730100000000    T  T  T
    0.8320471200000000    0.2792838100000000    0.5968279900000000    T  T  T
    0.7797586000000000    0.6691867100000000    0.6476665800000000    T  T  T
    0.8127518700000000    0.6588798100000000    0.5971099100000000    T  T  T
    0.4699454400000000    1.0291007500000000    0.5583911300000000    T  T  T
    0.4661304200000000    0.8975390300000000    0.5287157500000000    T  T  T
    0.0781873000000000    0.6743281300000000    0.3583690700000000    T  T  T
    0.0521076300000000    0.7140831399999999    0.4159860200000000    T  T  T
    0.0154058200000000    0.0462533500000000    0.6200541899999999    T  T  T
    0.8454570000000000    0.0744884300000000    0.6247962600000000    T  T  T
    0.5662975700000000    0.0438341700000000    0.4508845200000000    T  T  T
    0.7218861800000000    0.0622291200000000    0.4437486700000000    T  T  T
    0.0096200500000000    1.0277197400000000    0.4904723800000000    T  T  T
    0.0328677000000000    1.0091178500000000    0.5427137800000000    T  T  T
    0.1234895000000000    0.0731123700000000    0.3506475200000000    T  T  T
    0.0720542000000000    0.9914726600000000    0.3178919300000000    T  T  T
    0.2694224600000000    0.1199655800000000    0.5316447399999999    T  T  T
    0.0988187800000000    0.1625169200000000    0.5134486900000000    T  T  T
    0.4212296800000000    0.6980450499999999    0.3266599200000000    T  T  T
    0.3070377300000000    0.8326709700000000    0.3575244700000000    T  T  T
    0.3205727500000000    0.1176280000000000    0.3388130000000000    T  T  T
    0.3079557300000000    0.1580939700000000    0.4153704500000000    T  T  T
    0.8104389000000000    0.6070066000000000    0.3038516900000000    T  T  T
    0.7227762700000000    0.7432867900000000    0.3027990600000000    T  T  T
    0.7428476800000000    0.5450059700000000    0.3154680600000000    T  T  T
   -0.0641794400000000    0.5849085000000001    0.3333883000000000    T  T  T
   -0.0194432300000000    0.6881962700000001    0.3235486400000000    T  T  T
    0.0007678200000000    0.4893770400000000    0.3643819400000000    T  T  T
    0.1599071600000000    0.2701028500000000    0.3556713200000000    T  T  T

  -0.000878583042000    0.004337972058570    0.003851021624000
  -0.000526107929999    0.001382318405430   -0.003126152344000
  -0.001883471304000   -0.002674576285400   -0.003118780792000
  -0.000367513788000   -0.001085663460980    0.001697299848000
  -0.000293598203999   -0.001137758963419   -0.001747364972000
   0.000572010293999   -0.000378203132910   -0.000639789284000
  -0.003025083738001    0.001672418850390   -0.003297540928000
   0.000867525191999   -0.000422722655420   -0.000662825384000
   0.000352475111999    0.002058623580080    0.000009214440000
   0.002842358910000   -0.000759896323991    0.000379942076000
   0.000939818958000    0.001283915789710   -0.001483831988000
  -0.000723723995998   -0.004014588375940   -0.002498341832000
  -0.000986802534000    0.000250518077910   -0.000333562728000
  -0.000700723668000   -0.000925120785160   -0.001109111428000
  -0.002403583422000    0.002049004639271   -0.005470613028000
  -0.003369056592000    0.001538349542640   -0.001463560220000
   0.000324609330000   -0.002213803483590   -0.002854019216000
   0.003251499360000   -0.000554663878921    0.002995000148000
  -0.002408645459999    0.000601651979160   -0.001289714452000
  -0.000333259026000    0.003484354904210   -0.002639322764000
   0.001941807606000   -0.004479617346250    0.003129223824001
  -0.003033438558000   -0.001520048018089    0.001048296124000
  -0.002872681992001    0.002003123142840   -0.001169619584000
   0.001313230265999    0.000161649279630    0.000505258460000
  -0.001642017006001   -0.000777942478430   -0.001844423740001
   0.001235088125999   -0.004171470746850   -0.001461103036000
  -0.000755128290001    0.003461031100830   -0.005074392108001
  -0.002696051268002    0.000302698703720    0.001970354420000
  -0.000636538992001   -0.000532191309240    0.000267218760000
   0.000304901784000   -0.000910990305740    0.000240804032000
  -0.000773803770000    0.003123602062150   -0.005882191347999
   0.001224423443999   -0.001531199179560   -0.004336315463999
  -0.001500329088000   -0.002346340570680    0.001811866052000
  -0.003792400236001    0.001097069992560    0.001293707375999
   0.001950604739999    0.001325541117640    0.001106039948001
   0.000802603326000   -0.000115512413090    0.000011978772001
  -0.000120014532000    0.000691712504620    0.004044524864001
  -0.000412285794001    0.002057006236050   -0.004021795912001
   0.003998027100002   -0.000281077367740    0.002045605679999
  -0.001599309132001   -0.000826037182481   -0.000958608908000
  -0.004980848808000    0.000703119036199    0.001190812796001
  -0.002082709187999   -0.003031072958960    0.003460022220001
   0.001464255923999   -0.001157507585260    0.002091677880000
   0.000061481645998    0.002004229746650    0.000069722595999
   0.000374738250001    0.001810659203271    0.001161940883999
   0.000674283120000    0.003216131165339   -0.002318660252001
  -0.001138368797999   -0.002396648482351   -0.000231589592000
  -0.000662635518000    0.002243256169610    0.001136447600000
   0.000000000000000    0.000000000000000    0.000000000000000
   0.000000000000000    0.000000000000000    0.000000000000000
   0.000000000000000    0.000000000000000    0.000000000000000
   0.000000000000000    0.000000000000000    0.000000000000000
   0.000000000000000    0.000000000000000    0.000000000000000
   0.000000000000000    0.000000000000000    0.000000000000000
   0.000000000000000    0.000000000000000    0.000000000000000
   0.000000000000000    0.000000000000000    0.000000000000000
   0.000000000000000    0.000000000000000    0.000000000000000
   0.000000000000000    0.000000000000000    0.000000000000000
   0.000000000000000    0.000000000000000    0.000000000000000
   0.000000000000000    0.000000000000000    0.000000000000000
   0.000000000000000    0.000000000000000    0.000000000000000
   0.000000000000000    0.000000000000000    0.000000000000000
   0.000000000000000    0.000000000000000    0.000000000000000
   0.000000000000000    0.000000000000000    0.000000000000000
   0.003106076346000    0.001793464282530    0.002878283908000
  -0.006273929214000    0.002118295062450    0.000055900935997
   0.002251968012001   -0.000219788541340    0.005516378080001
  -0.005182740576001    0.005764724863140   -0.000604467264001
  -0.004876659288001   -0.000366370984480    0.002112563943999
  -0.000339549713999    0.005355877317030   -0.000602317227997
   0.002637469235999   -0.001631304262680    0.001233506368001
   0.007365412727999    0.003068527241760    0.002313438736001
   0.001159255848000   -0.001725280463159    0.001962982867999
   0.000178252542000   -0.000119938828331    0.002589257639999
  -0.008920883628000   -0.007740608527581    0.005397204655999
  -0.003900767166000   -0.005793070945350   -0.002528749484000
  -0.001942888817998   -0.002762338479870    0.005183429648000
   0.004104821358000   -0.005381754821510   -0.001142283411999
   0.004546742190001    0.004012290044949    0.000542730515999
  -0.002890030530001    0.006189745849550   -0.001521611191999
   0.002565273762000    0.004484554501710   -0.001057510563999
  -0.001349303430000    0.000513208797731   -0.001568604835999
  -0.001617640590000    0.000993815344750   -0.004830209447999
  -0.002258356992000    0.008876154283381    0.000417414132002
   0.006772122216001    0.006484528079860    0.000553173548003
   0.004180899365998   -0.001159635669509   -0.000202717680001
   0.004279240511999   -0.006146247807481   -0.003122159420000
  -0.007102088460000   -0.000183185492240    0.002658980235999
  -0.000539082473999    0.005070714027530   -0.001156719368000
  -0.003666684768000    0.005971915145720   -0.000462257740001
   0.006292162379999    0.004559377943940    0.004748200932001
   0.003966966828000    0.005207847776600   -0.001956839907997
   0.000107187426000   -0.003384590314569    0.000000921443998
   0.001301730102000   -0.001853731628490   -0.009794028276000
   0.023875667406000   -0.000349261187110    0.006767391884001
  -0.034278548664000    0.014153292483159    0.002469777068001
  -0.010477878053997   -0.002496242825250    0.016615171060000
   0.015631671636001   -0.017347972559259    0.012534402732005
   0.016568984148000    0.004641096379140    0.003863614691999
   0.004729319579999   -0.016094616059380    0.036034910507999
  -0.019875821904000    0.014269400759840   -0.008430598303999
  -0.011328595314000   -0.020321416996731   -0.010567426940000
  -0.031684229615999    0.016100234201800   -0.005716331427999
  -0.002292513462001    0.002940757063390    0.008976093151999
   0.026410814669999   -0.005698073264430   -0.001963597164000
   0.006352366230000    0.003161056344950   -0.008660037860004
   0.023952335165999    0.003915760143370    0.006166610396001
   0.005212080737998    0.025926450417749    0.004670185340000
   0.007665399912000   -0.024949659747000    0.001170233880000
   0.000100896738000   -0.009769013311310    0.007155319808000
   0.004783675056001   -0.008502292442340   -0.024399222824000
  -0.022344572921998    0.013354239408970   -0.024860559120000
   0.018337453811998    0.014533793947061   -0.025894726436000
   0.014123184312002    0.008706929023820    0.018677977028000
  -0.013136922384001    0.001159720792881    0.014224331028002
  -0.015725098181999    0.019241031184690    0.028717723704000
   0.000604692384000    0.003959598678919    0.016580770483998
  -0.009805069314000    0.003704994679250    0.014924014171999
   0.015686125404000    0.015383665673140    0.021635197972000
  -0.006116612867999    0.021033814480260   -0.001261149688002
  -0.004154409671997    0.000834038779260    0.018046787887998
   0.014113404258000    0.026068265952170    0.022472790567999
   0.006655891925998    0.012283727907850    0.006727155495998
   0.041761616916000    0.013732953282100    0.004869524391999
   0.029638330782001    0.008207510212030    0.005211380116000
   0.006809080008000   -0.012113396044480   -0.000244182659999
   0.010673036820000   -0.012002565416740   -0.016379281396002
   0.001398252846002   -0.024526341227990    0.004995762219998
  -0.021073952238000   -0.003051587691131   -0.019182928339999
   0.002023291674000    0.006577567923270   -0.010332458720001
  -0.010783713612001    0.003013878038220    0.011821819371999
  -0.001632875850000    0.016924824286990    0.004388223475999
  -0.001519643466001   -0.012466743153350   -0.007167605728004
   0.008323022537999   -0.014971413192230    0.008824669188002
   0.021683116908001    0.008256285903040   -0.005874205500000
   0.009357939006000    0.000413614454830    0.006797799535999
   0.001922640666001   -0.008700544771072   -0.005290317151996
  -0.008878667213999   -0.023766189533890   -0.004383309107997
  -0.012981522732001    0.018482496834620   -0.019931140868001
   0.003549766434000   -0.001364953237950   -0.010522583332001
   0.007021980480000   -0.042023705301600   -0.004668342452000
  -0.009445025717998    0.027529663968330    0.007460932068000
  -0.018321579654000   -0.011227857626370   -0.001568297688001
   0.015135641057999    0.025877930096850   -0.023999008980001
   0.008121081623999   -0.002809241456740    0.007913668219999
   0.004454790024001   -0.018345788702399    0.009863443724001
  -0.021256922796000    0.013297121627700    0.040440948568001
   0.010743069870000    0.022218135927069    0.003900779600000
  -0.003671746806000   -0.018118934921350    0.021750685620002
   0.018907694850000   -0.019797057037530    0.027560697187999
   0.002475680604001    0.007075624761140    0.020304325688000
  -0.000688977774001   -0.008562644911670   -0.025807803552000
  -0.001013537958000   -0.000624379918950    0.039962411984000
   0.032765490762000   -0.010110868765230   -0.000301619336000
   0.003819627120000    0.002539740867320   -0.004797037464000
   0.017889389730000   -0.022620088480211    0.024073953092000
  -0.021487466682000   -0.031975487336689   -0.007303365144001
  -0.001129522518000    0.006518832797970    0.000832371080000
   0.000442805459999    0.007710474854600    0.005201858528000
  -0.001047940158000    0.004446078738471   -0.005550778656001
   0.008236427286000   -0.004782145803230   -0.002498341832000