 Ni_CO_CHO(LH)
   1.000
    9.8292000000000002    0.0000000000000000    0.0000000000000000
    4.9146000000000001    8.5123370000000005    0.0000000000000000
    0.0000000000000000    0.0000000000000000   30.7148000000000003
   Ni   O    H    C    O    H 
   64   30   60    1    1    1
Selective Dynamics
Direct
    0.0792283200000000    0.0817630000000000    0.1186269600000000    T  T  T
    0.3261458200000000    0.0945059900000000    0.1218180300000000    T  T  T
    0.3333135000000000    0.8340758400000000    0.1222633900000000    T  T  T
    0.5853292300000000    0.3375219900000000    0.1220220000000000    T  T  T
    0.3372137500000000    0.5903115300000000    0.1199067900000000    T  T  T
    0.3372616200000000    0.3405483000000000    0.1218415900000000    T  T  T
    0.8334440200000000    0.0800302700000000    0.1204451200000000    T  T  T
    0.5765709700000000    0.0842646400000000    0.1201501900000000    T  T  T
    0.8393408900000000    0.3292407700000000    0.1215803500000000    T  T  T
    0.5901924600000000    0.5773147600000000    0.1221725900000000    T  T  T
    0.0832248300000000    0.8332026300000001    0.1214728500000000    T  T  T
    0.5743362900000000    0.8428757700000000    0.1194628200000000    T  T  T
    0.0847698600000000    0.3327511100000000    0.1229317200000000    T  T  T
    0.8318529099999999    0.5821238399999999    0.1219112000000000    T  T  T
    0.0778449200000000    0.5981744200000000    0.1186460800000000    T  T  T
    0.8302746000000000    0.8313213300000000    0.1207902900000000    T  T  T
    0.1546142600000000    0.1649147200000000    0.1844600600000000    T  T  T
    0.1640523200000000    0.9132554200000000    0.1884546000000000    T  T  T
    0.4122445800000000    0.1701793200000000    0.1867980200000000    T  T  T
    0.3997835800000000    0.9286563200000000    0.1869284900000000    T  T  T
    0.4120476400000000    0.4230323700000000    0.1887499000000000    T  T  T
    0.4149965100000000    0.6673015500000000    0.1946144800000000    T  T  T
    0.9089811900000000    0.1652656300000000    0.1845841400000000    T  T  T
    0.6691768800000000    0.1597892500000000    0.1875997300000000    T  T  T
    0.6732402199999999    0.4048629500000000    0.1886196200000000    T  T  T
    0.1587351200000000    0.6664831700000000    0.1888725700000000    T  T  T
    0.9054511800000000    0.4195878900000000    0.1881563400000000    T  T  T
    0.6541074700000000    0.6783031300000000    0.1867556100000000    T  T  T
    0.9152021299999999    0.9167944700000000    0.1877790200000000    T  T  T
    0.6699730200000000    0.9060288000000000    0.1846946300000000    T  T  T
    0.1663793700000000    0.4266271700000000    0.1866196500000000    T  T  T
    0.9192647800000000    0.6665813900000001    0.1890507900000000    T  T  T
    0.2511433300000000    0.0052019300000000    0.2542506400000000    T  T  T
    0.5040273400000000    0.2629213500000000    0.2555343800000000    T  T  T
    0.5022913800000000    0.5028022200000000    0.2602206600000000    T  T  T
    0.2583318100000000    0.2456262100000000    0.2503872800000000    T  T  T
    0.0157032600000000    0.2492971800000000    0.2554255900000000    T  T  T
    0.7559923900000000    0.2389065500000000    0.2575032700000000    T  T  T
    0.5134967700000000    0.7442799700000000    0.2570394500000000    T  T  T
    0.2658161900000000    0.7489659600000000    0.2650731500000000    T  T  T
    0.5095674800000000   -0.0039277600000000    0.2530510600000000    T  T  T
    0.0061309300000000    0.9974660200000000    0.2534982500000000    T  T  T
    0.2414733400000000    0.5031544400000000    0.2537964000000000    T  T  T
    0.7428592400000000    0.5044687800000000    0.2550644100000000    T  T  T
    0.7542418300000000   -0.0013440400000000    0.2529034300000000    T  T  T
    0.9954265200000000    0.7731364100000000    0.2540912500000000    T  T  T
    0.7601226600000000    0.7470493800000000    0.2548834600000000    T  T  T
    1.0069074099999999    0.4925089600000000    0.2503093100000000    T  T  T
    0.2488099900000000    0.0018900000000000    0.0530725900000000    F  F  F
    0.4986599900000000    0.2520299800000000    0.0530725900000000    F  F  F
    0.4987100700000000    0.5019500099999999    0.0530725900000000    F  F  F
    0.2486699900000000    0.2519600100000000    0.0530725900000000    F  F  F
    0.9988300200000000    0.2520000100000000    0.0530725900000000    F  F  F
    0.7487000500000000    0.2521200000000000    0.0530725900000000    F  F  F
    0.4986899700000000    0.7520999700000000    0.0530725900000000    F  F  F
    0.2487699600000000    0.7521200300000001    0.0530725900000000    F  F  F
    0.4985999800000000    0.0021100000000000    0.0530725900000000    F  F  F
    0.9987700300000000    0.0022100000000000    0.0530725900000000    F  F  F
    0.2487500100000000    0.5021200300000001    0.0530725900000000    F  F  F
    0.7486699900000000    0.5022699800000000    0.0530725900000000    F  F  F
    0.7485900000000000    0.0024500000000000    0.0530725900000000    F  F  F
    0.9987000500000000    0.7524499700000000    0.0530725900000000    F  F  F
    0.7486699300000000    0.7524300300000000    0.0530725900000000    F  F  F
    0.9986899600000000    0.5022000200000000    0.0530725900000000    F  F  F
    0.9649646900000000    0.9571532000000000    0.5528892600000000    T  T  T
    0.5585318600000000    1.0528147699999999    0.6279218200000000    T  T  T
    0.5213878900000000    0.7494210300000000    0.3466412800000000    T  T  T
   -0.0459179800000000    0.3200727300000000    0.3813833200000000    T  T  T
    0.4398880900000000    0.0377195400000000    0.3643361700000000    T  T  T
   -0.0194338300000000    0.6804033900000001    0.5941475700000000    T  T  T
    0.6825370900000000    0.5557306500000000    0.4084526200000000    T  T  T
    0.1441381300000000    0.6221421100000000    0.3779202500000000    T  T  T
    0.7882811700000000    0.7064138000000000    0.3182118400000000    T  T  T
    0.3281601800000000    0.9375819900000000    0.4794267400000000    T  T  T
    1.0056391800000000    0.0265575600000000    0.3508269400000000    T  T  T
    0.2308322500000000    0.4760183000000000    0.5341145700000000    T  T  T
    0.2600210700000000    0.2113144700000000    0.5884280100000000    T  T  T
    0.6317119800000000    0.3747509100000000    0.4589020900000000    T  T  T
    0.5855833499999999    0.6536997400000000    0.5808395700000000    T  T  T
    0.3152809500000000    0.6619281000000000    0.4458824200000000    T  T  T
    0.6585452000000001    0.7870807600000000    0.4556752300000000    T  T  T
    0.8126203100000000    0.6252377300000000    0.5301788900000000    T  T  T
    1.0584662000000000    0.4052429900000000    0.6523005600000000    T  T  T
    0.5501358400000000    0.4252038100000000    0.5520369000000001    T  T  T
    0.7941606800000000    0.3957112800000000    0.6469998800000000    T  T  T
    0.2542099500000000    0.9324642200000000    0.5583086100000000    T  T  T
    0.8296152300000000    0.8378670000000000    0.3873503900000000    T  T  T
    0.7352616400000000    0.1806749800000000    0.6011768300000000    T  T  T
    0.1958412300000000    0.2779248600000000    0.4556180100000000    T  T  T
    1.0146586700000000    0.9460876100000000    0.4652713300000000    T  T  T
    0.6723311199999999    0.1359871400000000    0.4061206800000000    T  T  T
    0.8678887700000000    0.3351551100000000    0.5110624800000000    T  T  T
    0.2391228300000000    0.7693359700000000    0.3308822200000000    T  T  T
    0.1854074000000000    0.3532346300000000    0.3540869000000000    T  T  T
    0.0625431300000000    0.9642864300000000    0.5566658900000000    T  T  T
   -0.0340468900000000    0.8673059500000000    0.5679742800000001    T  T  T
    0.5776419699999999    0.9423662600000000    0.6227163600000000    T  T  T
    0.4459546100000000    0.1293957500000000    0.6154841300000000    T  T  T
    0.4803635700000000    0.8572722100000000    0.3539360100000000    T  T  T
    0.4283354200000000    0.7300562800000000    0.3394991800000000    T  T  T
    0.8518573300000000    0.4119617800000000    0.3906907100000000    T  T  T
    0.0135378100000000    0.3687714000000000    0.3713519200000000    T  T  T
    0.3363885600000000    0.1320509000000000    0.3654720300000000    T  T  T
    0.4713993100000000    1.0579851300000001    0.3359975900000000    T  T  T
    0.0042144100000000    0.5909627300000000    0.6161006000000000    T  T  T
    0.9123845800000000    0.6528303300000000    0.5736814800000000    T  T  T
    0.6806676699999999    0.6240438500000000    0.4322255400000000    T  T  T
    0.6217852300000000    0.6261455000000000    0.3837582200000000    T  T  T
    0.0357529900000000    0.6969407700000000    0.3931448400000000    T  T  T
    0.2212589000000000    0.6087036600000000    0.4007494900000000    T  T  T
    0.7098825600000001    0.6821945000000000    0.3307095600000000    T  T  T
    0.8102476000000000    0.7620780600000000    0.3438569300000000    T  T  T
    0.2681595800000000    1.0539870800000000    0.4722991700000000    T  T  T
    0.2701840500000000    0.8927941800000000    0.4624516800000000    T  T  T
    0.9603137899999999    0.0590457200000000    0.3206978600000000    T  T  T
    0.9904260700000000    0.1270309700000000    0.3620075800000000    T  T  T
    0.3364766400000000    0.4502544700000000    0.5410780300000000    T  T  T
    0.1597381000000000    0.5360847900000000    0.5576586300000000    T  T  T
    0.1870225300000000    0.2660939900000000    0.6133916900000000    T  T  T
    0.2669276700000000    0.2875335000000000    0.5686906900000001    T  T  T
    0.6489148400000000    0.4297172800000000    0.4322232900000000    T  T  T
    0.6263860700000000    0.2841185400000000    0.4449334100000000    T  T  T
    0.4791049500000000    0.7446902200000000    0.5788944300000000    T  T  T
    0.5730283000000000    0.5604429700000000    0.5702164100000000    T  T  T
    0.3965884200000000    0.5513308400000000    0.4568218200000000    T  T  T
    0.2202575600000000    0.6954568900000000    0.4630589200000000    T  T  T
    0.5472769000000000    0.8575302700000000    0.4660127900000000    T  T  T
    0.7052875900000000    0.7550303600000000    0.4860890500000000    T  T  T
    0.8561265500000000    0.5192927400000000    0.5218552200000000    T  T  T
    0.7179673400000000    0.6457405300000000    0.5488570600000000    T  T  T
    0.0868243300000000    0.4090071900000000    0.6817112200000000    T  T  T
    0.9579090600000000    0.3948632400000000    0.6512768200000000    T  T  T
    0.6147485499999999    0.4087343500000000    0.5241922600000000    T  T  T
    0.6010094600000000    0.3105958300000000    0.5645726900000000    T  T  T
    0.7884058000000000    0.3067889400000000    0.6340680900000000    T  T  T
    0.7196237400000000    0.4829003800000000    0.6302642400000000    T  T  T
    0.2626048300000000    1.0187422399999999    0.5723252400000000    T  T  T
    0.2800726200000000    0.9354396200000000    0.5261959100000000    T  T  T
    0.7977834400000000    0.9527250600000000    0.3898773700000000    T  T  T
    0.7738071600000000    0.8349539000000000    0.4130935700000000    T  T  T
    0.8224827800000000    1.1062167300000001    0.5819481200000000    T  T  T
    0.6855747500000000    0.1259828200000000    0.6133945200000001    T  T  T
    0.1212407800000000    0.2913970000000000    0.4308290200000000    T  T  T
    0.1234574100000000    0.3642988500000000    0.4740617600000000    T  T  T
    0.9431469500000000    0.9985224900000000    0.4418119700000000    T  T  T
    0.9598138300000000    0.9698345100000000    0.4947913500000000    T  T  T
    0.6725740900000000    0.1907386400000000    0.3796971500000000    T  T  T
    0.5943861200000000    0.1015678300000000    0.4035094800000000    T  T  T
   -0.0704383000000000    0.2311390400000000    0.5233585800000000    T  T  T
    0.7912248600000000    0.3273146900000000    0.4900391100000000    T  T  T
    0.2230189700000000    0.6848310700000000    0.3471333300000000    T  T  T
    0.1559424000000000    0.8769496900000000    0.3434868200000000    T  T  T
    0.1538428600000000    0.3746800800000000    0.3210280800000000    T  T  T
    0.1997022800000000    0.4421772300000000    0.3626499700000000    T  T  T
    0.5753341199999999    0.3436216900000000    0.3024267400000000    T  T  T
    0.5720242200000000    0.3810387400000000    0.3431244600000000    T  T  T
    0.6053757900000000    0.2195967700000000    0.3017833200000000    T  T  T

  0.000000000000000    0.000000000000000    0.000000000000000
   0.000000000000000    0.000000000000000    0.000000000000000
   0.000000000000000    0.000000000000000    0.000000000000000
   0.000000000000000    0.000000000000000    0.000000000000000
   0.000000000000000    0.000000000000000    0.000000000000000
   0.000000000000000    0.000000000000000    0.000000000000000
   0.000000000000000    0.000000000000000    0.000000000000000
   0.000000000000000    0.000000000000000    0.000000000000000
   0.000000000000000    0.000000000000000    0.000000000000000
   0.000000000000000    0.000000000000000    0.000000000000000
   0.000000000000000    0.000000000000000    0.000000000000000
   0.000000000000000    0.000000000000000    0.000000000000000
   0.000000000000000    0.000000000000000    0.000000000000000
   0.000000000000000    0.000000000000000    0.000000000000000
   0.000000000000000    0.000000000000000    0.000000000000000
   0.000000000000000    0.000000000000000    0.000000000000000
   0.004662726749999    0.001938854998490   -0.000046379347999
   0.000898339734001   -0.000601226362310    0.001001916776000
   0.000822753186000    0.003818549254830   -0.001665970752000
   0.000166408356000   -0.001573590617820    0.000635796360000
   0.004498333379999    0.001632495989860    0.001172691064000
  -0.000410811414000    0.000948870205391   -0.000635182063999
   0.001390635216000   -0.000936867810220   -0.001567683392000
  -0.001023907763999   -0.003660645403480   -0.002551785584000
   0.002525662085999   -0.000306188761890   -0.000895029272000
   0.000378031032001   -0.001638114132279    0.001294935968000
  -0.001962891240000    0.002106633160760   -0.000177531544000
   0.002351783538002   -0.004148827930430   -0.000947551580000
   0.000749181623998    0.003298190094021    0.002302995704000
  -0.002066048694001   -0.000084697753150    0.000462257740000
  -0.001746255672000    0.000365519750780   -0.000704597512000
   0.000729375785999    0.000533297913051    0.000119787720000
  -0.003312833568000   -0.002874445958160    0.000404206768000
  -0.001971884958000    0.001105326959450    0.002431076420001
  -0.005626872978000   -0.000672389499630   -0.002981178487999
   0.003780752634000    0.002558042391870   -0.002245559027999
  -0.002740086084000    0.001815511235360   -0.001435302604000
  -0.000221304438002    0.000294101243350   -0.000835749708000
   0.002456169642000   -0.000092188609710   -0.000011978772001
  -0.000342793349999    0.001268763829851   -0.005208308636002
  -0.002021129250000   -0.001618110140330   -0.002268287980000
  -0.000519227490000    0.002381837015971   -0.001213541748001
  -0.000888068220000    0.004110437290560    0.001681942447999
   0.000707997276001    0.000117129757120    0.000373184820002
   0.001591445772000   -0.001291832263120    0.002066798892000
  -0.000047475036000   -0.000206168802140    0.000570066688000
  -0.001110945330002    0.002427463142290   -0.003355899048000
   0.002122763177997   -0.000932015778130   -0.000508329940000
   0.000000000000000    0.000000000000000    0.000000000000000
   0.000000000000000    0.000000000000000    0.000000000000000
   0.000000000000000    0.000000000000000    0.000000000000000
   0.000000000000000    0.000000000000000    0.000000000000000
   0.000000000000000    0.000000000000000    0.000000000000000
   0.000000000000000    0.000000000000000    0.000000000000000
   0.000000000000000    0.000000000000000    0.000000000000000
   0.000000000000000    0.000000000000000    0.000000000000000
   0.000000000000000    0.000000000000000    0.000000000000000
   0.000000000000000    0.000000000000000    0.000000000000000
   0.000000000000000    0.000000000000000    0.000000000000000
   0.000000000000000    0.000000000000000    0.000000000000000
   0.000000000000000    0.000000000000000    0.000000000000000
   0.000000000000000    0.000000000000000    0.000000000000000
   0.000000000000000    0.000000000000000    0.000000000000000
   0.000000000000000    0.000000000000000    0.000000000000000
   0.005491377456000    0.001748604266540   -0.003727855275997
  -0.004625867250001    0.000031921263748   -0.005411640612000
  -0.001598227920002   -0.007130273964679    0.000290869156000
  -0.000223368570000    0.001887780976490    0.001321350695999
   0.002772424152001    0.003495676312420   -0.000470857883998
   0.002452532838000   -0.002366004069150   -0.003155024255999
  -0.001899198024001   -0.001348524427540   -0.005336082204002
  -0.005919045948000   -0.002817413300259   -0.008146486404002
   0.003575862959998    0.003148372962819   -0.004551319064001
  -0.003401443805999   -0.004138102385810    0.002285181120001
   0.004898578403999    0.001500044026140    0.000081701368000
   0.008307099234000    0.001904294910270    0.000279197531999
  -0.001382526126000   -0.004994102994530    0.004277957344001
  -0.004577114418000    0.001772353686770   -0.002399440176001
  -0.002934949974000   -0.003143861424211    0.002541035403997
   0.005801832738000    0.000735210546690   -0.003649225388001
   0.002793212910001    0.001766735544351    0.001662284976000
  -0.005595517829999   -0.001967796944290   -0.000993623779998
  -0.000073571561998   -0.002393754287770    0.006044058343999
   0.002762988120002    0.004369723075580   -0.002072327556000
  -0.001446071903999   -0.004704087672940    0.003520837524000
   0.000112446047999   -0.002699432309440   -0.003277576308001
   0.000211278654003   -0.001990780254189   -0.001724021724000
  -0.007326931410001   -0.001954347451830    0.003021107727999
  -0.007707812910001    0.001330393149730    0.001590719492000
  -0.002344018470000   -0.005557108963711   -0.003908765448001
  -0.002155199538000    0.000560196897970    0.000437071604001
  -0.001889761991999    0.002061517774660   -0.001275278496001
   0.006465058008001   -0.004552908567820    0.002151264591999
   0.009913878558000    0.005039899367590   -0.001093754028002
  -0.001871627118000    0.020264895079050    0.005834890555999
  -0.022813327470001   -0.000794286165470    0.018808822076004
  -0.014349747371998    0.002572257994659   -0.022548656123998
  -0.003965148426000    0.022300024609010   -0.002736995827998
  -0.014331612498001   -0.004771420258610   -0.010037596639998
   0.013793955258000    0.017659438970090   -0.010143255552000
   0.025518470747999    0.015144979743660    0.024938574711999
   0.000593880264000   -0.021026664117179    0.019792002824000
   0.028250398596000   -0.010969848691900   -0.011507299820000
   0.008830405842000   -0.025371786538830    0.014190237600001
  -0.011697976650000    0.007048470406110   -0.004189498719999
   0.009996886152001   -0.003542494165920   -0.018922466836003
   0.009627553961998   -0.004459868724410   -0.003238568511998
  -0.006875672838001    0.015463766764310   -0.023722268632001
  -0.005726344482000   -0.007506263889970   -0.001802958760001
   0.016412994744000    0.006329433299721   -0.011848848396001
  -0.016767533987998    0.001482508611921   -0.025474240824000
   0.015156822983998   -0.005576091475221    0.029666503875999
   0.014625358140000   -0.013748105241961    0.002360739527999
   0.008578336008001    0.024459519382540    0.021697549015999
   0.004466191895999    0.008264457746560   -0.022497055260001
  -0.009290363255998    0.026810626861940    0.014963636264000
  -0.006237315444000   -0.032428769281940   -0.021144682616001
   0.011514809508000    0.014043483335859   -0.000166167067999
   0.005993600430000    0.012477809191450    0.010849081656001
  -0.014442928187999   -0.001644072768180   -0.024461573867999
   0.013254233886000   -0.013379435926490    0.008006734063999
  -0.009289134606001   -0.031037087305810    0.008621644359998
   0.006125065979999   -0.031143576641680    0.019601878211997
   0.017872041192001    0.009926917162661   -0.005146879036001
   0.015598645524000    0.019048056504900   -0.013530790843999
   0.004482410076000    0.013242302177419   -0.002709352508001
   0.020111968434001   -0.017811128815429   -0.002707202472001
  -0.010404699660000   -0.031509947626160    0.013363702332001
   0.018599942598000   -0.013137174815470    0.060015797756000
   0.019351090061999   -0.026366708487391   -0.005505320752000
  -0.007422028920000   -0.010200333427100   -0.012008565356005
  -0.004250490102001   -0.008744638676730    0.005578421976001
   0.012918714144002   -0.001835259857200   -0.024808343960004
  -0.003344581884001   -0.011637215912700    0.018291891991996
   0.002229065976000   -0.008762599707800   -0.014868727532001
   0.002429335925999    0.013389139990671   -0.027636255596001
  -0.001125984006000   -0.003321428774031    0.003597010227995
  -0.005124600857999    0.029260392327170    0.023326969155999
   0.014016340907999   -0.010811178730219   -0.018435330108000
   0.003194047686000    0.007869740679871    0.022405525156001
   0.001725810936000    0.002308205300920   -0.005412254908002
  -0.012916994034000   -0.007264173025690   -0.044932680919999
  -0.019449824376000   -0.017621559070440   -0.009099259499999
   0.002019015971999    0.027444625721700   -0.017833012879999
  -0.003536595305997    0.013986535801331   -0.001498267944001
   0.011716602984000    0.005395800177560    0.021698777608000
  -0.014897479541998   -0.013105679168570    0.018882537595999
  -0.021604434162000   -0.031120508208410   -0.039584619944000
  -0.014349943956000    0.031127573448120    0.018138010843998
  -0.015603510977998    0.001088302285450   -0.010822052631999
   0.012873745554000   -0.000064438391090    0.023526615355999
  -0.016106372849999    0.032795565883270    0.002924048960001
   0.000805945254000    0.017205901654730    0.000571295279999
   0.004950918894000   -0.017331033008630    0.026321047860000
   0.005599252925998   -0.002383879976851    0.002372718300000
   0.001048579056000    0.000909287838340    0.004872903020001
   0.008697367620000   -0.003523256284300    0.033619191488000