 Ni_Pol_CO_COH(LH)                            
   1.00000000000000     
     9.8291997910000006    0.0000000000000000    0.0000000000000000
     4.9145998955000003    8.5123367178000002    0.0000000000000000
     0.0000000000000000    0.0000000000000000   33.0128002167000005
   Ni   O    O    H    C    O    H 
    64     3    30    60     1     1     1
Selective dynamics
Direct
  0.8430944870868109  0.5914735131425289  0.1224291598649274   T   T   T
  0.3368594235733953  0.0790742190859750  0.1254914282547540   T   T   T
  0.8470927278847915  0.0738804498560985  0.1217583135537708   T   T   T
  0.3384608845763406  0.5706734037118572  0.1257329299858009   T   T   T
  0.5860045357411440  0.8338711631342510  0.1208244661519673   T   T   T
  0.8445026102643777  0.8369799857671361  0.1215899126492141   T   T   T
  0.0847147256819024  0.3320828254272887  0.1229912353781697   T   T   T
  0.8317838073324451  0.3327698951698393  0.1254342133898068   T   T   T
  0.5981630351764715  0.5777562418221500  0.1215697537370591   T   T   T
  0.0870477023152583  0.5846112283864544  0.1283682885770500   T   T   T
  0.0874862624762969  0.0765944756122134  0.1205063825139342   T   T   T
  0.5888967723558619  0.0816453002393696  0.1197355924713876   T   T   T
  0.3315275652493510  0.8318935416690701  0.1216123941072148   T   T   T
  0.0988032938848457  0.8194060204137998  0.1233099763709714   T   T   T
  0.3256493696707960  0.3288764807212609  0.1274871148103408   T   T   T
  0.5933046768102700  0.3232470176722317  0.1229950447283092   T   T   T
  0.9354242015631893  0.6589565433908908  0.1847297820871589   T   T   T
  0.9220024983736450  0.4134486370820286  0.1872515378145397   T   T   T
  0.6804886460058776  0.6568439367196728  0.1833139798117921   T   T   T
  0.1696912058275655  0.1629688650406340  0.1874137637365183   T   T   T
  0.9128615556607806  0.1659790822986693  0.1835895855744446   T   T   T
  0.9223811270671145  0.9097718023613620  0.1840745944555154   T   T   T
  0.4177752610452086  0.9083108808757775  0.1848474065827429   T   T   T
  0.4178811353996624  0.1593486580813735  0.1838138401562740   T   T   T
  0.6651084717724696  0.1613301697205184  0.1806949741744316   T   T   T
  0.1843710615772391  0.6567639298873922  0.1893633977412316   T   T   T
  0.4327661111006048  0.6539650303588151  0.1841059580982126   T   T   T
  0.4156500124724340  0.4074992839915788  0.1850735736447662   T   T   T
  0.6608301762957803  0.9163895940517652  0.1816501477511265   T   T   T
  0.1686783562959754  0.4127978735165936  0.1897913865860817   T   T   T
  0.6661161643135269  0.4088529421553236  0.1826712817805390   T   T   T
  0.1715532555194935  0.9071869222872767  0.1825757591257607   T   T   T
  0.0027781671194939  0.2460746602548096  0.2467309666148434   T   T   T
  0.5017464781618648  0.2484076686561555  0.2399465813808524   T   T   T
 -0.0007961708312166  0.7466859148620977  0.2523551286028164   T   T   T
  0.5054969303628847  0.7455327826625610  0.2459450920747509   T   T   T
  0.7565419495818344  0.7425910561411146  0.2409914107449211   T   T   T
  0.0026747022773071  0.4950800393457946  0.2523108162334793   T   T   T
  0.7544543852446830  0.4974622921457518  0.2524437311000061   T   T   T
  0.2409140674478716  0.9882108952294164  0.2470376928789450   T   T   T
  1.0039125453170203  1.0027707075147680  0.2448164954493421   T   T   T
  0.4965213399691672 -0.0062297554329989  0.2476735746184830   T   T   T
  0.2479284760184896  0.7378875766118215  0.2472565085906698   T   T   T
  0.7458243266408648  0.0014633995891518  0.2426908572782955   T   T   T
  0.2469411160959358  0.2487141586954508  0.2538521015178286   T   T   T
  0.7479035725729788  0.2534716226028574  0.2410948354705060   T   T   T
  0.2522297510401315  0.4817327881322875  0.2615976117806833   T   T   T
  0.4984347568689463  0.4918714637060065  0.2465337183257248   T   T   T
  0.9970724700000000  0.2558556700000000  0.0591330300000000   F   F   F
  0.4999618000000000  0.2500875800000000  0.0594854500000000   F   F   F
  0.9968841600000000  0.7476992099999999  0.0595123730000000   F   F   F
  0.5054474799999999  0.7476858800000000  0.0599706820000000   F   F   F
  0.7507219800000000  0.7486395100000000  0.0599869240000000   F   F   F
  0.9979410800000000  0.5014025600000001  0.0599954460000000   F   F   F
  0.7507273000000000  0.5014379100000000  0.0601539400000000   F   F   F
  0.2484077400000000  0.9989653600000000  0.0601723560000000   F   F   F
  0.0026835402000000  0.9989392600000000  0.0602141140000000   F   F   F
  0.5037179200000000  0.9979203100000000  0.0602187790000000   F   F   F
  0.2483221500000000  0.7533767700000000  0.0603571820000000   F   F   F
  0.7484137000000000  0.9978805400000000  0.0603965990000000   F   F   F
  0.2473094700000000  0.2543786700000000  0.0604625580000000   F   F   F
  0.7483561800000000  0.2543461500000000  0.0604678370000000   F   F   F
  0.2472922000000000  0.4989472700000000  0.0606285480000000   F   F   F
  0.5037960500000001  0.4989156800000000  0.0606927010000000   F   F   F
  0.3400065993151861  0.0336467530874560  0.2864447332731239   T   T   T
  0.8356536460560003  0.0900450245486350  0.2779824650495389   T   T   T
  0.3402929545885690  0.5972101580287765  0.2864774203604266   T   T   T
  0.7552013566014696  0.5102862613533107  0.6048601717540233   T   T   T
  0.5331269587326565  0.3524306093383265  0.5351742526949831   T   T   T
  0.1524671723936751  0.3963080850915643  0.3996114566556206   T   T   T
  0.9180706097177448  0.5142395581493252  0.4678276664000042   T   T   T
  0.8788145339776999  0.2086618547554547  0.3482462409015613   T   T   T
  0.1053751928315474  0.5217478497089189  0.5314507614146934   T   T   T
  1.0024108098664533  0.7644362448043840  0.3123116359840784   T   T   T
  0.7012434734909718  0.2454339613093406  0.4184439826367016   T   T   T
  0.1768872190246498  0.1225742768100752  0.3545142656393718   T   T   T
  0.7053448094770778  0.8363963048066568  0.5953053869044260   T   T   T
  0.0519710389630958  0.7904939557654034  0.4132982886883136   T   T   T
  0.4703001049178251  0.8683904434942267  0.6436026650247988   T   T   T
  0.2687135271554839  1.0709618510376935  0.5276058282093994   T   T   T
  0.6504203500880547  0.9949094442320193  0.3318391821183919   T   T   T
  0.4668249721140046  0.5294013360095534  0.6074389749919138   T   T   T
  0.2760011866948825  0.8630578226308747  0.3964171164057552   T   T   T
  0.2404062497655247  0.6260093115338247  0.4811818971031153   T   T   T
  0.4885577985447118  0.6105131505546376  0.3496646119908672   T   T   T
  0.5563824980064092  1.0516719245174919  0.5393310745562918   T   T   T
  0.3990863233473250  0.4702116243024911  0.4100329141058227   T   T   T
  0.1895257421217590  0.4457251554050686  0.6365385927753185   T   T   T
  0.0206927328533732  0.7547556260931849  0.5985436011246688   T   T   T
  0.3628470694049271  0.8232750728949673  0.4793163061878575   T   T   T
  0.8318440354273932  0.2885306953972911  0.4841727943561702   T   T   T
  0.7547728871431517  0.4978076839615047  0.3144424483075007   T   T   T
  0.2395797749362234  0.8861963468744443  0.5988711090201326   T   T   T
  0.7256776314969914  0.9545206172466411  0.4123400450024318   T   T   T
  0.0974953558104027  0.3204432774994881  0.5832232852259538   T   T   T
  0.6399055950066747  0.8193324828608516  0.4738905525214910   T   T   T
 -0.1250690284818374  0.6363602660642773  0.3635656867527325   T   T   T
  0.6500289380573852  0.5314350026991348  0.5961529212458351   T   T   T
  0.7811418174784519  0.4300135660197947  0.6263020853283119   T   T   T
  0.4485938016843521  0.4256994767080138  0.5167747837929735   T   T   T
  0.5560077435450536  0.2442008103912900  0.5278631312974064   T   T   T
  0.1203648349005991  0.3834124251756973  0.4266919213647533   T   T   T
  0.2488441130917984  0.4088479066144654  0.4031234329673636   T   T   T
  0.8792335722813942  0.4400765720455161  0.4745783591782847   T   T   T
 -0.0032523774205191  0.4998881225929507  0.4900940108932842   T   T   T
  0.8592474050711261  0.1727983360262431  0.3213941778693733   T   T   T
  0.9929282888647076  0.1823846496388204  0.3520042589577958   T   T   T
  0.0509912096722982  0.6193802802300120  0.5486273818190167   T   T   T
  0.1213943775298294  0.4387847052095635  0.5505186979443114   T   T   T
  0.9805081457372726  0.6904128515013391  0.3280068324539147   T   T   T
  0.9085631466790542  0.8635767949441399  0.3199033431972187   T   T   T
  0.7500534987405449  0.2393615447690157  0.3915218007378333   T   T   T
  0.6935785839735411  0.1455837486423892  0.4190270359741521   T   T   T
  0.1835642697998168  0.2136701153526685  0.3653453486470337   T   T   T
  0.2285296824328012  0.1130101581864678  0.3268555448627999   T   T   T
  0.6188215804202724  0.8856016005444991  0.6151041453332314   T   T   T
  0.7211833550806845  0.7317659589510560  0.5939701012921804   T   T   T
  0.0903700084124280  0.6873891477773585  0.4005057506297683   T   T   T
  0.1071771990521558  0.8419949520080721  0.3988324222919478   T   T   T
  0.4495381388569392  0.8266894167907017  0.6685543826875698   T   T   T
  0.3747130762260631  0.8952251181382155  0.6263825738636175   T   T   T
  0.3657292123496053  1.0614714051743210  0.5416790226425406   T   T   T
  0.3131674439237448  0.9685710214215841  0.5115614657283064   T   T   T
  0.6938584997047688  0.9591293131185334  0.3601030248249937   T   T   T
  0.5694934978249664  0.9656241445418000  0.3253289166171213   T   T   T
  0.4522678503167090  0.4730482657514513  0.5833842902257602   T   T   T
  0.3891279712951389  0.6396753122368243  0.6059208630978407   T   T   T
  0.2497713928644451  0.9583793132390332  0.3811388467604853   T   T   T
  0.3374145040122849  0.7810705844719883  0.3773954677558742   T   T   T
  0.1952483274272142  0.5769174041349520  0.4999015087143004   T   T   T
  0.1469385642514361  0.7106944300433815  0.4633356019289711   T   T   T
  0.4874944573923801  0.5386291147075160  0.3697050174850887   T   T   T
  0.4252378842652388  0.5878769385104133  0.3273001435384630   T   T   T
  0.6243471371111696  0.9855282940336766  0.5618605246516275   T   T   T
  0.6142141995299384  0.9689139186741064  0.5201718278617941   T   T   T
  0.3535491416921965  0.5124573328382229  0.4380510651490268   T   T   T
  0.5084578554509186  0.3866516942215934  0.4120128013295013   T   T   T
  0.1719281630358910  0.3706267288794452  0.6177997955783704   T   T   T
  0.2894403450299656  0.4302522795898409  0.6271767591701292   T   T   T
 -0.0939088464379154  0.8086306724985355  0.6028590473755451   T   T   T
  0.0872486052608755  0.6627222709321759  0.6148902255409873   T   T   T
  0.3365537162202573  0.7369273644684367  0.4841978845351075   T   T   T
  0.3180751710259820  0.8522134055125480  0.4508675340378199   T   T   T
  0.7731979010283186  0.2721212267590319  0.4609457732716692   T   T   T
  0.7681587005254771  0.3212074385677444  0.5086609252413419   T   T   T
  0.6468609660943608  0.5456127958912836  0.3271533042559149   T   T   T
  0.8162972289578982  0.3856747452845355  0.3274380450384157   T   T   T
  0.2455977465680843  0.9235345007332584  0.5712451088702831   T   T   T
  0.1398910773346005  0.8830460672649433  0.5980313205261182   T   T   T
  0.6798870336944915  0.9230258138704202  0.4335198102204791   T   T   T
  0.8356483702800245  0.8766572565732479  0.4150303889658918   T   T   T
 -0.0169448107848453  0.3801578648454933  0.5874370332109841   T   T   T
  0.1336516181626427  0.2169876533159864  0.5701163520075773   T   T   T
  0.7288677855640652  0.7133302508637620  0.4684076104143666   T   T   T
  0.5542900640695130  0.8014768260344686  0.4780135855788774   T   T   T
 -0.0342293619244551  0.5594691843650605  0.3798245323994165   T   T   T
  0.8555548107737344  0.5752458810597811  0.3427779200783310   T   T   T
  0.3920356482922575  0.2969592894020712  0.2872316532189569   T   T   T
  0.4232681783744980  0.2731788725620454  0.3270511157397950   T   T   T
  0.5145144679383943  0.1695712311310598  0.3291174659959870   T   T   T
 
  0.15630245E-02 -0.43452189E-02  0.82220367E-04
 -0.37598725E-02  0.28232237E-02 -0.82942839E-03
 -0.48236693E-02  0.15721953E-02  0.97595091E-03
  0.11702860E-02  0.62282946E-02 -0.11405557E-02
  0.74270479E-03 -0.23457207E-02  0.16203425E-02
 -0.32985186E-02  0.19953715E-02 -0.29540766E-03
  0.23181436E-02  0.10236114E-02  0.24997045E-02
  0.32482869E-02 -0.21305242E-03  0.43993275E-02
 -0.14410970E-02 -0.98709930E-03  0.36029419E-02
 -0.31213243E-02 -0.54903822E-04  0.28284249E-02
  0.20872727E-03 -0.24731453E-03  0.48548426E-03
 -0.27833775E-02 -0.31421028E-02 -0.39684597E-02
  0.33581238E-02 -0.12671751E-02  0.18675704E-02
  0.41459194E-03  0.39179541E-02 -0.13313413E-02
  0.24091708E-02  0.14124864E-02 -0.36850994E-03
 -0.35741354E-02  0.41239045E-02 -0.13134006E-02
  0.77164870E-03 -0.21748296E-03  0.51294636E-03
 -0.16488060E-02  0.34459542E-03 -0.18679056E-03
 -0.29738759E-03  0.98468439E-04  0.92973709E-03
 -0.65384430E-04 -0.83641513E-03  0.20640434E-02
  0.45646755E-03 -0.14417159E-02  0.33099150E-02
 -0.14287267E-02  0.10189965E-02 -0.20714346E-02
  0.14026468E-02  0.23774809E-02  0.33350560E-02
 -0.17282438E-03 -0.14306398E-02  0.66854250E-03
  0.49521400E-04  0.14280200E-02  0.19576303E-02
 -0.16642682E-02  0.26937199E-02 -0.18713436E-02
  0.22828898E-02 -0.12728188E-02 -0.14164714E-02
  0.51491276E-02  0.17535395E-03  0.18940146E-02
  0.91770491E-03  0.16920219E-02 -0.22039299E-02
 -0.67161214E-02 -0.13199812E-02 -0.17051070E-02
 -0.14256979E-02 -0.31973270E-03  0.35890731E-03
  0.17537190E-02  0.42797922E-02 -0.30512061E-02
  0.10493883E-02  0.39674039E-02 -0.10318711E-02
  0.13443963E-02 -0.50584435E-02 -0.22503503E-03
 -0.16785246E-02  0.32210061E-02 -0.13995353E-02
 -0.79289235E-04  0.10023822E-02  0.70769896E-03
 -0.12388847E-03 -0.23349975E-02  0.10262334E-05
  0.15713598E-02  0.49142243E-02 -0.39196208E-02
 -0.14212855E-02 -0.12223391E-02 -0.23524989E-02
  0.48301224E-03  0.23189954E-02 -0.24383545E-02
  0.15042304E-02 -0.21643310E-02 -0.44984882E-03
  0.22945971E-02  0.23878000E-02 -0.23269514E-04
 -0.19221238E-02 -0.45834500E-03 -0.32074140E-03
 -0.15961257E-03  0.14522115E-02 -0.35344790E-02
  0.29259013E-02  0.16853676E-03 -0.47894327E-03
 -0.35307364E-02  0.27684081E-02  0.16289250E-02
  0.25463976E-02  0.21863495E-03  0.99432378E-03
 -0.14461447E-02 -0.25638141E-02 -0.60595166E-03
  0.00000000E+00  0.00000000E+00  0.00000000E+00
  0.00000000E+00  0.00000000E+00  0.00000000E+00
  0.00000000E+00  0.00000000E+00  0.00000000E+00
  0.00000000E+00  0.00000000E+00  0.00000000E+00
  0.00000000E+00  0.00000000E+00  0.00000000E+00
  0.00000000E+00  0.00000000E+00  0.00000000E+00
  0.00000000E+00  0.00000000E+00  0.00000000E+00
  0.00000000E+00  0.00000000E+00  0.00000000E+00
  0.00000000E+00  0.00000000E+00  0.00000000E+00
  0.00000000E+00  0.00000000E+00  0.00000000E+00
  0.00000000E+00  0.00000000E+00  0.00000000E+00
  0.00000000E+00  0.00000000E+00  0.00000000E+00
  0.00000000E+00  0.00000000E+00  0.00000000E+00
  0.00000000E+00  0.00000000E+00  0.00000000E+00
  0.00000000E+00  0.00000000E+00  0.00000000E+00
  0.00000000E+00  0.00000000E+00  0.00000000E+00
 -0.37632098E-02  0.25937593E-02  0.26682510E-02
  0.72179708E-02  0.44025702E-02 -0.16301521E-02
 -0.22400466E-02  0.38353258E-02 -0.15990488E-02
  0.24762486E-02  0.14265709E-02  0.83445421E-02
  0.56016180E-02  0.22252623E-02  0.70636374E-02
  0.74837717E-02  0.10298312E-02  0.75958568E-02
  0.42513026E-02  0.18359976E-02 -0.44333500E-02
  0.37242710E-02  0.67266316E-03 -0.46969492E-02
 -0.32010417E-02 -0.65987800E-03 -0.44019116E-02
 -0.12981267E-03 -0.40045909E-02 -0.11014852E-02
  0.18666159E-02 -0.55477538E-02 -0.14935607E-02
 -0.24015046E-02 -0.25251355E-02  0.17550152E-02
 -0.52677800E-02 -0.47880016E-02 -0.95892781E-03
 -0.24175723E-02  0.91497047E-02 -0.95446572E-04
  0.25967405E-02 -0.29778954E-02 -0.49844494E-04
 -0.71175374E-02 -0.58586822E-03  0.11856977E-01
  0.12860065E-02  0.39092221E-02 -0.18028107E-02
 -0.10734635E-03  0.16718755E-02 -0.74707925E-05
 -0.69578436E-02  0.93415655E-03  0.25276205E-02
  0.36322874E-02  0.24837938E-02 -0.10277084E-01
  0.45810093E-02  0.25176251E-02 -0.13075164E-02
  0.12178490E-02 -0.68569989E-04  0.80340395E-02
 -0.75875617E-02  0.21193429E-02 -0.79295557E-02
  0.10287245E-02  0.62294941E-03  0.15083274E-02
 -0.21672082E-02  0.27428810E-02 -0.36587408E-02
  0.43833271E-02 -0.71705785E-02  0.50881614E-02
 -0.55750975E-02 -0.15402778E-02  0.41199476E-02
  0.46473587E-02 -0.21666146E-02  0.67884120E-02
 -0.60625639E-02 -0.54978987E-02 -0.23096497E-02
  0.35119504E-02  0.14004823E-03  0.55986805E-02
 -0.17907246E-02 -0.43550789E-03 -0.51021104E-02
 -0.36336827E-02  0.55781212E-02 -0.13630387E-02
 -0.42899868E-02  0.43712231E-02  0.49719703E-02
 -0.11348096E-02  0.10132415E-01  0.17533694E-01
  0.10251800E-01  0.53707272E-02  0.11338457E-01
 -0.64351381E-02 -0.11145286E-01  0.12100809E-01
  0.20567086E-01  0.82035142E-02  0.23401334E-02
 -0.40699677E-02  0.12761343E-01  0.33371574E-01
 -0.28653605E-01  0.86280118E-02 -0.47326179E-02
 -0.20288515E-01  0.13483769E-01  0.39260738E-02
 -0.17424127E-02 -0.27449214E-01  0.38824977E-02
  0.14553828E-01 -0.15554540E-01  0.57191289E-02
 -0.86186830E-02 -0.69652790E-02  0.11978042E-01
 -0.21272048E-01 -0.19467200E-03 -0.24652073E-01
  0.22723455E-01  0.73643701E-02  0.82709854E-02
 -0.26833859E-01  0.14319777E-01  0.20665776E-01
 -0.10884312E-01 -0.60045745E-02 -0.27249616E-01
 -0.23178918E-01  0.17227460E-01  0.21493006E-01
  0.16460480E-01  0.13796757E-01  0.83919532E-02
  0.16424493E-01  0.10468333E-01 -0.21167463E-02
 -0.21451853E-02 -0.92392570E-02  0.24568969E-01
 -0.42551866E-03 -0.14933908E-01 -0.33593010E-02
  0.74895509E-02 -0.13703912E-01 -0.94180449E-03
 -0.72200678E-02 -0.28091478E-01  0.16415106E-01
 -0.11027258E-01  0.12061067E-01 -0.11878014E-01
  0.17337522E-01  0.25195439E-01 -0.87329311E-02
 -0.23015311E-01  0.12581324E-01  0.67229078E-02
 -0.59781941E-02 -0.27795064E-01  0.39256464E-02
  0.62913503E-02  0.35627418E-01 -0.31855319E-02
  0.35877973E-02  0.76628578E-02 -0.17886102E-02
  0.21766164E-01  0.73465000E-02 -0.91633629E-02
 -0.10392782E-02  0.63639631E-02 -0.90030812E-02
 -0.24328734E-01  0.15055672E-01  0.49040729E-02
  0.50118460E-02 -0.13690313E-01  0.20580778E-02
 -0.19393491E-02 -0.41013312E-02 -0.14938600E-02
  0.21556823E-01  0.61416544E-04  0.12097159E-01
 -0.28114826E-02 -0.26279254E-02 -0.36357652E-02
  0.21555741E-02  0.13773162E-01  0.17506440E-01
  0.18607819E-01 -0.86286645E-03  0.84027342E-02
  0.71236858E-04 -0.13493443E-01 -0.78268905E-02
 -0.31604186E-01 -0.29581771E-01 -0.21249542E-01
 -0.56322719E-02 -0.19744355E-01 -0.49799415E-03
  0.30049198E-02  0.55144173E-02  0.25409086E-02
 -0.34058465E-02  0.15948094E-01  0.89842497E-02
  0.15701982E-01 -0.17214717E-01 -0.10744245E-01
  0.21558101E-01  0.36268661E-01  0.15619548E-02
 -0.30817963E-02 -0.23856116E-01 -0.12757622E-01
  0.15450379E-01  0.22468549E-01  0.12865135E-01
  0.21227567E-01 -0.14210197E-01  0.13878408E-01
 -0.17556408E-01 -0.21194994E-02 -0.17288110E-01
  0.23777973E-01  0.27745612E-02 -0.27280397E-02
  0.12219018E-01  0.62147121E-02  0.35052386E-02
  0.10825153E-02 -0.11371321E-02  0.16883230E-02
 -0.86206315E-02  0.25223807E-01  0.23960637E-01
  0.17601854E-02  0.76114480E-02 -0.30121582E-01
 -0.37231933E-01 -0.11245316E-01 -0.48771054E-02
 -0.35996989E-02 -0.59911160E-02  0.84031830E-02
  0.99014480E-02  0.18937564E-02  0.20849534E-01
 -0.11565506E-01 -0.20602436E-01  0.19480938E-02
  0.13850166E-01  0.11263338E-01  0.16788729E-01
 -0.71001393E-02 -0.51350107E-02  0.13883304E-01
  0.87688695E-02 -0.24203039E-01 -0.43586285E-02
  0.88845432E-02 -0.14006093E-01 -0.86467591E-02
 -0.54118336E-02 -0.40988914E-02 -0.31746032E-02
 -0.20810588E-02  0.31414462E-02  0.63042047E-02
 -0.14996187E-01 -0.24448104E-02 -0.64933338E-02
 
           1
   1.00000000000000     
  0.14282760E+00  0.53900799E-02  0.47295037E-02  0.13776781E+00
  0.84350874E+00  0.59096305E+00  0.12243165E+00
  0.33631107E+00  0.79405882E-01  0.12546630E+00
  0.84650963E+00  0.74065146E-01  0.12178788E+00
  0.33821411E+00  0.57140508E+00  0.12569838E+00
  0.58621788E+00  0.83359560E+00  0.12087355E+00
  0.84404982E+00  0.83721440E+00  0.12158096E+00
  0.84890443E-01  0.33220308E+00  0.12306695E+00
  0.83212679E+00  0.33274487E+00  0.12556747E+00
  0.59807440E+00  0.57764028E+00  0.12167889E+00
  0.86733371E-01  0.58460478E+00  0.12845397E+00
  0.87522025E-01  0.76565422E-01  0.12052109E+00
  0.58879816E+00  0.81276177E-01  0.11961538E+00
  0.33194364E+00  0.83174468E+00  0.12166897E+00
  0.98615340E-01  0.81986629E+00  0.12326965E+00
  0.32581151E+00  0.32904241E+00  0.12747595E+00
  0.59269882E+00  0.32373148E+00  0.12295526E+00
  0.93551548E+00  0.65893099E+00  0.18474532E+00
  0.92181451E+00  0.41348912E+00  0.18724588E+00
  0.68045261E+00  0.65685550E+00  0.18334214E+00
  0.16973368E+00  0.16287061E+00  0.18747629E+00
  0.91299268E+00  0.16580971E+00  0.18368985E+00
  0.92217592E+00  0.90989151E+00  0.18401185E+00
  0.41777831E+00  0.90859018E+00  0.18494843E+00
  0.41794759E+00  0.15918059E+00  0.18383409E+00
  0.66502963E+00  0.16149793E+00  0.18075427E+00
  0.18404352E+00  0.65708038E+00  0.18930671E+00
  0.43307313E+00  0.65381550E+00  0.18406305E+00
  0.41616357E+00  0.40751988E+00  0.18513095E+00
  0.66082416E+00  0.91658837E+00  0.18158339E+00
  0.16807261E+00  0.41264281E+00  0.18973974E+00
  0.66598990E+00  0.40881538E+00  0.18268215E+00
  0.17148029E+00  0.90768970E+00  0.18248333E+00
  0.26518910E-02  0.24654074E+00  0.24669971E+00
  0.50218038E+00  0.24781342E+00  0.23993976E+00
  0.99884386E+00  0.74706431E+00  0.25231273E+00
  0.50542999E+00  0.74565054E+00  0.24596653E+00
  0.75666650E+00  0.74231675E+00  0.24099144E+00
  0.25459157E-02  0.49565735E+00  0.25219209E+00
  0.75438159E+00  0.49731870E+00  0.25237247E+00
  0.24082699E+00  0.98848332E+00  0.24696383E+00
  0.41927113E-02  0.25164494E-02  0.24480287E+00
  0.49661453E+00  0.99405076E+00  0.24767287E+00
  0.24775985E+00  0.73783373E+00  0.24724679E+00
  0.74572279E+00  0.16340004E-02  0.24258379E+00
  0.24722889E+00  0.24873396E+00  0.25383759E+00
  0.74738175E+00  0.25379685E+00  0.24114418E+00
  0.25247597E+00  0.48175847E+00  0.26162773E+00
  0.49843822E+00  0.49157028E+00  0.24651536E+00
  0.99707247E+00  0.25585567E+00  0.59133030E-01
  0.49996180E+00  0.25008758E+00  0.59485450E-01
  0.99688416E+00  0.74769921E+00  0.59512373E-01
  0.50544748E+00  0.74768588E+00  0.59970682E-01
  0.75072198E+00  0.74863951E+00  0.59986924E-01
  0.99794108E+00  0.50140256E+00  0.59995446E-01
  0.75072730E+00  0.50143791E+00  0.60153940E-01
  0.24840774E+00  0.99896536E+00  0.60172356E-01
  0.26835402E-02  0.99893926E+00  0.60214114E-01
  0.50371792E+00  0.99792031E+00  0.60218779E-01
  0.24832215E+00  0.75337677E+00  0.60357182E-01
  0.74841370E+00  0.99788054E+00  0.60396599E-01
  0.24730947E+00  0.25437867E+00  0.60462558E-01
  0.74835618E+00  0.25434615E+00  0.60467837E-01
  0.24729220E+00  0.49894727E+00  0.60628548E-01
  0.50379605E+00  0.49891568E+00  0.60692701E-01
  0.33947139E+00  0.33951459E-01  0.28652556E+00
  0.83612939E+00  0.90562223E-01  0.27793309E+00
  0.33983978E+00  0.59766072E+00  0.28642898E+00
  0.75536949E+00  0.51045385E+00  0.60511294E+00
  0.53356615E+00  0.35269203E+00  0.53538822E+00
  0.15316806E+00  0.39642907E+00  0.39984154E+00
  0.91839528E+00  0.51445524E+00  0.46769337E+00
  0.87915392E+00  0.20874088E+00  0.34810396E+00
  0.10508829E+00  0.52167033E+00  0.53131742E+00
  0.26328258E-02  0.76396580E+00  0.31227827E+00
  0.70175924E+00  0.24478223E+00  0.41839874E+00
  0.17679122E+00  0.12227763E+00  0.35456743E+00
  0.70509012E+00  0.83583383E+00  0.59527634E+00
  0.51187643E-01  0.79156883E+00  0.41329540E+00
  0.47073921E+00  0.86804061E+00  0.64360116E+00
  0.26802382E+00  0.70893025E-01  0.52796499E+00
  0.65032156E+00  0.99536869E+00  0.33178457E+00
  0.46671585E+00  0.52959774E+00  0.60743875E+00
  0.27523844E+00  0.86316756E+00  0.39649368E+00
  0.24062990E+00  0.62630110E+00  0.48087059E+00
  0.48887598E+00  0.61080891E+00  0.34962501E+00
  0.55651043E+00  0.51663869E-01  0.53957444E+00
  0.39818990E+00  0.47046060E+00  0.40979272E+00
  0.18959381E+00  0.44579834E+00  0.63658428E+00
  0.20311134E-01  0.75507785E+00  0.59843277E+00
  0.36371421E+00  0.82243270E+00  0.47947043E+00
  0.83136731E+00  0.28834975E+00  0.48429759E+00
  0.75537296E+00  0.49755316E+00  0.31464808E+00
  0.23928592E+00  0.88555047E+00  0.59880115E+00
  0.72602670E+00  0.95453707E+00  0.41250964E+00
  0.97338753E-01  0.32039212E+00  0.58306874E+00
  0.63920826E+00  0.81998778E+00  0.47384926E+00
  0.87423776E+00  0.63687378E+00  0.36371629E+00
  0.64931832E+00  0.53262532E+00  0.59668404E+00
  0.78186934E+00  0.43064450E+00  0.62664554E+00
  0.44859376E+00  0.42439017E+00  0.51714133E+00
  0.55761833E+00  0.24516453E+00  0.52793402E+00
  0.11920119E+00  0.38491158E+00  0.42770279E+00
  0.24542217E+00  0.40986150E+00  0.40298008E+00
  0.87637745E+00  0.44166060E+00  0.47469728E+00
  0.99818267E+00  0.49666348E+00  0.49021162E+00
  0.86164172E+00  0.17097104E+00  0.32156742E+00
  0.99246057E+00  0.18156639E+00  0.35236709E+00
  0.48838476E-01  0.61935741E+00  0.54788064E+00
  0.12327364E+00  0.43964985E+00  0.55076924E+00
  0.97693701E+00  0.69209509E+00  0.32863283E+00
  0.90780850E+00  0.86287140E+00  0.31907792E+00
  0.74668342E+00  0.24138537E+00  0.39217285E+00
  0.69444284E+00  0.14720454E+00  0.41928124E+00
  0.18462037E+00  0.21489990E+00  0.36528123E+00
  0.22885413E+00  0.11192476E+00  0.32759977E+00
  0.61965548E+00  0.88384722E+00  0.61500239E+00
  0.72275027E+00  0.73015607E+00  0.59394157E+00
  0.91285500E-01  0.68408906E+00  0.40100299E+00
  0.10534687E+00  0.84341184E+00  0.39847262E+00
  0.44982208E+00  0.82964929E+00  0.66828985E+00
  0.37163255E+00  0.89670313E+00  0.62658622E+00
  0.36675364E+00  0.58206137E-01  0.54179794E+00
  0.31171482E+00  0.97275641E+00  0.51146497E+00
  0.69377341E+00  0.96002952E+00  0.36004885E+00
  0.57127642E+00  0.96648719E+00  0.32505135E+00
  0.45178831E+00  0.47379588E+00  0.58311158E+00
  0.38576848E+00  0.64144400E+00  0.60606941E+00
  0.25108543E+00  0.95677102E+00  0.38120119E+00
  0.33745810E+00  0.78058877E+00  0.37735022E+00
  0.19743786E+00  0.57692462E+00  0.50026795E+00
  0.14680689E+00  0.71038571E+00  0.46322547E+00
  0.48690475E+00  0.54024714E+00  0.37023531E+00
  0.42718168E+00  0.58777557E+00  0.32755467E+00
  0.62514697E+00  0.98394313E+00  0.56162344E+00
  0.61273645E+00  0.96543875E+00  0.51952815E+00
  0.35413588E+00  0.51013783E+00  0.43803598E+00
  0.50843966E+00  0.38729951E+00  0.41208977E+00
  0.17064490E+00  0.37250026E+00  0.61807194E+00
  0.29204899E+00  0.42822995E+00  0.62685130E+00
  0.90615407E+00  0.81289139E+00  0.60290636E+00
  0.88336338E-01  0.65991974E+00  0.61450378E+00
  0.33680584E+00  0.73956689E+00  0.48458759E+00
  0.32106950E+00  0.85054404E+00  0.45128793E+00
  0.77153625E+00  0.27187224E+00  0.46042209E+00
  0.77041484E+00  0.32153338E+00  0.50857829E+00
  0.64773906E+00  0.54634288E+00  0.32725948E+00
  0.81647415E+00  0.38554116E+00  0.32748919E+00
  0.24323910E+00  0.92649771E+00  0.57197091E+00
  0.13962307E+00  0.88394023E+00  0.59711890E+00
  0.67675967E+00  0.92170475E+00  0.43337208E+00
  0.83563405E+00  0.87595344E+00  0.41528493E+00
  0.98395130E+00  0.38038034E+00  0.58806859E+00
  0.13368512E+00  0.21456735E+00  0.57017536E+00
  0.72961528E+00  0.71465343E+00  0.46891616E+00
  0.55386933E+00  0.80087358E+00  0.47843413E+00
  0.96808441E+00  0.55662589E+00  0.37969250E+00
  0.85728140E+00  0.57360049E+00  0.34251600E+00
  0.39172582E+00  0.29647777E+00  0.28713549E+00
  0.42287193E+00  0.27354792E+00  0.32724208E+00
  0.51313239E+00  0.16928402E+00  0.32892077E+00
  0.00000000E+00  0.00000000E+00  0.00000000E+00
  0.00000000E+00  0.00000000E+00  0.00000000E+00
  0.00000000E+00  0.00000000E+00  0.00000000E+00
  0.00000000E+00  0.00000000E+00  0.00000000E+00
  0.00000000E+00  0.00000000E+00  0.00000000E+00
  0.00000000E+00  0.00000000E+00  0.00000000E+00
  0.00000000E+00  0.00000000E+00  0.00000000E+00
  0.00000000E+00  0.00000000E+00  0.00000000E+00
  0.00000000E+00  0.00000000E+00  0.00000000E+00
  0.00000000E+00  0.00000000E+00  0.00000000E+00
  0.00000000E+00  0.00000000E+00  0.00000000E+00
  0.00000000E+00  0.00000000E+00  0.00000000E+00
  0.00000000E+00  0.00000000E+00  0.00000000E+00
  0.00000000E+00  0.00000000E+00  0.00000000E+00
  0.00000000E+00  0.00000000E+00  0.00000000E+00
  0.00000000E+00  0.00000000E+00  0.00000000E+00
  0.00000000E+00  0.00000000E+00  0.00000000E+00
  0.00000000E+00  0.00000000E+00  0.00000000E+00
  0.00000000E+00  0.00000000E+00  0.00000000E+00
  0.00000000E+00  0.00000000E+00  0.00000000E+00
  0.00000000E+00  0.00000000E+00  0.00000000E+00
  0.00000000E+00  0.00000000E+00  0.00000000E+00
  0.00000000E+00  0.00000000E+00  0.00000000E+00
  0.00000000E+00  0.00000000E+00  0.00000000E+00
  0.00000000E+00  0.00000000E+00  0.00000000E+00
  0.00000000E+00  0.00000000E+00  0.00000000E+00
  0.00000000E+00  0.00000000E+00  0.00000000E+00
  0.00000000E+00  0.00000000E+00  0.00000000E+00
  0.00000000E+00  0.00000000E+00  0.00000000E+00
  0.00000000E+00  0.00000000E+00  0.00000000E+00
  0.00000000E+00  0.00000000E+00  0.00000000E+00
  0.00000000E+00  0.00000000E+00  0.00000000E+00
  0.00000000E+00  0.00000000E+00  0.00000000E+00
  0.00000000E+00  0.00000000E+00  0.00000000E+00
  0.00000000E+00  0.00000000E+00  0.00000000E+00
  0.00000000E+00  0.00000000E+00  0.00000000E+00
  0.00000000E+00  0.00000000E+00  0.00000000E+00
  0.00000000E+00  0.00000000E+00  0.00000000E+00
  0.00000000E+00  0.00000000E+00  0.00000000E+00
  0.00000000E+00  0.00000000E+00  0.00000000E+00
  0.00000000E+00  0.00000000E+00  0.00000000E+00
  0.00000000E+00  0.00000000E+00  0.00000000E+00
  0.00000000E+00  0.00000000E+00  0.00000000E+00