Nb                                      
   1.00000000000000     
    13.0459995269999993    0.0000000000000000    0.0000000000000000
     0.0000000000000000    9.2249002457000007    0.0000000000000000
     0.0000000000000000    0.0000000000000000   16.9186992644999989
   Nb   C    O 
    64     1     1
Selective dynamics
Direct
  0.0000000000000000  0.2500000000000000  0.0000000000000000   F   F   F
  0.0000000000000000  0.0000000000000000  0.1363100000000017   F   F   F
  0.0000048614376564  0.2484613712415328  0.2750271524652821   T   T   T
  0.0000030513072325 -0.0010424983248240  0.4081502952942327   T   T   T
  0.1250000000000000  0.0000000000000000  0.0000000000000000   F   F   F
  0.1250000000000000  0.2500000000000000  0.1363100000000017   F   F   F
  0.1248378527886074  0.0002181085143231  0.2743069927461740   T   T   T
  0.1264812403425390  0.2472769544145149  0.4091829975499530   T   T   T
  0.2500000000000000  0.2500000000000000  0.0000000000000000   F   F   F
  0.2500000000000000  0.0000000000000000  0.1363100000000017   F   F   F
  0.2500591913400420  0.2499822423914328  0.2737483309298518   T   T   T
  0.2522118148894054  0.0033432393760874  0.4072608833523965   T   T   T
  0.3750000000000000  0.0000000000000000  0.0000000000000000   F   F   F
  0.3750000000000000  0.2500000000000000  0.1363100000000017   F   F   F
  0.3752089665950167  0.0002046123136898  0.2736965540516559   T   T   T
  0.3740860372678473  0.2510856031342465  0.4081617746084126   T   T   T
  0.5000000000000000  0.2500000000000000  0.0000000000000000   F   F   F
  0.5000000000000000  0.0000000000000000  0.1363100000000017   F   F   F
  0.5000049823947798  0.2502816692801331  0.2739146407895124   T   T   T
  0.5000126645297251 -0.0010143839638470  0.4075173485581882   T   T   T
  0.6250000000000000  0.0000000000000000  0.0000000000000000   F   F   F
  0.6250000000000000  0.2500000000000000  0.1363100000000017   F   F   F
  0.6248208342634253  0.0002044979161884  0.2736968186088036   T   T   T
  0.6259618271267890  0.2510818283007231  0.4081581605021573   T   T   T
  0.7500000000000000  0.2500000000000000  0.0000000000000000   F   F   F
  0.7500000000000000  0.0000000000000000  0.1363100000000017   F   F   F
  0.7499590050782173  0.2499715025694922  0.2737544876173245   T   T   T
  0.7477704789622400  0.0033864730681795  0.4072792388646846   T   T   T
  0.8750000000000000  0.0000000000000000  0.0000000000000000   F   F   F
  0.8750000000000000  0.2500000000000000  0.1363100000000017   F   F   F
  0.8752147714458025  0.0002094321537754  0.2743292681979357   T   T   T
  0.8735925911557709  0.2472506576969230  0.4091884840175824   T   T   T
  0.0000000000000000  0.7500000000000000  0.0000000000000000   F   F   F
  0.0000000000000000  0.5000000000000000  0.1363100000000017   F   F   F
  0.0000244555830173  0.7494953250866467  0.2747118139070563   T   T   T
 -0.0000075723412307  0.4940754942952449  0.4092838069217661   T   T   T
  0.1250000000000000  0.5000000000000000  0.0000000000000000   F   F   F
  0.1250000000000000  0.7500000000000000  0.1363100000000017   F   F   F
  0.1246715562494987  0.4984518208662127  0.2746958393659539   T   T   T
  0.1271701705896766  0.7509341221960526  0.4075073074564677   T   T   T
  0.2500000000000000  0.7500000000000000  0.0000000000000000   F   F   F
  0.2500000000000000  0.5000000000000000  0.1363100000000017   F   F   F
  0.2498515548383048  0.7502218943442299  0.2736899403789356   T   T   T
  0.2506310166508516  0.4962597741341505  0.4071438351942324   T   T   T
  0.3750000000000000  0.5000000000000000  0.0000000000000000   F   F   F
  0.3750000000000000  0.7500000000000000  0.1363100000000017   F   F   F
  0.3749129512779080  0.5005532486246818  0.2739205842507165   T   T   T
  0.3764245376278351  0.7510694609688618  0.4080996987309756   T   T   T
  0.5000000000000000  0.7500000000000000  0.0000000000000000   F   F   F
  0.5000000000000000  0.5000000000000000  0.1363100000000017   F   F   F
  0.5000417241461634  0.7504905036101289  0.2739572078144561   T   T   T
  0.5000083615836179  0.5007612730940104  0.4068704462206548   T   T   T
  0.6250000000000000  0.5000000000000000  0.0000000000000000   F   F   F
  0.6250000000000000  0.7500000000000000  0.1363100000000017   F   F   F
  0.6251128076105776  0.5005404758638269  0.2739159601687020   T   T   T
  0.6236245994557642  0.7510524314803558  0.4080754097736540   T   T   T
  0.7500000000000000  0.7500000000000000  0.0000000000000000   F   F   F
  0.7500000000000000  0.5000000000000000  0.1363100000000017   F   F   F
  0.7501973241191308  0.7502232733431384  0.2736838468039046   T   T   T
  0.7493829926869444  0.4961781537696296  0.4071577104601354   T   T   T
  0.8750000000000000  0.5000000000000000  0.0000000000000000   F   F   F
  0.8750000000000000  0.7500000000000000  0.1363100000000017   F   F   F
  0.8753633102452516  0.4984716811875323  0.2747279862940555   T   T   T
  0.8727288856037716  0.7509183131425314  0.4075990095068772   T   T   T
 -0.0003532712433139  0.7137813707689291  0.4931041824516303   T   T   T
  0.0005924469699540  0.7033673468133322  0.5647584449595149   T   T   T
 
  0.00000000E+00  0.00000000E+00  0.00000000E+00
  0.00000000E+00  0.00000000E+00  0.00000000E+00
  0.00000000E+00  0.00000000E+00  0.00000000E+00
  0.00000000E+00  0.00000000E+00  0.00000000E+00
  0.00000000E+00  0.00000000E+00  0.00000000E+00
  0.00000000E+00  0.00000000E+00  0.00000000E+00
  0.00000000E+00  0.00000000E+00  0.00000000E+00
  0.00000000E+00  0.00000000E+00  0.00000000E+00
  0.00000000E+00  0.00000000E+00  0.00000000E+00
  0.00000000E+00  0.00000000E+00  0.00000000E+00
  0.00000000E+00  0.00000000E+00  0.00000000E+00
  0.00000000E+00  0.00000000E+00  0.00000000E+00
  0.00000000E+00  0.00000000E+00  0.00000000E+00
  0.00000000E+00  0.00000000E+00  0.00000000E+00
  0.00000000E+00  0.00000000E+00  0.00000000E+00
  0.00000000E+00  0.00000000E+00  0.00000000E+00
  0.00000000E+00  0.00000000E+00  0.00000000E+00
  0.00000000E+00  0.00000000E+00  0.00000000E+00
  0.00000000E+00  0.00000000E+00  0.00000000E+00
  0.00000000E+00  0.00000000E+00  0.00000000E+00
  0.00000000E+00  0.00000000E+00  0.00000000E+00
  0.00000000E+00  0.00000000E+00  0.00000000E+00
  0.00000000E+00  0.00000000E+00  0.00000000E+00
  0.00000000E+00  0.00000000E+00  0.00000000E+00
  0.00000000E+00  0.00000000E+00  0.00000000E+00
  0.00000000E+00  0.00000000E+00  0.00000000E+00
  0.00000000E+00  0.00000000E+00  0.00000000E+00
  0.00000000E+00  0.00000000E+00  0.00000000E+00
  0.00000000E+00  0.00000000E+00  0.00000000E+00
  0.00000000E+00  0.00000000E+00  0.00000000E+00
  0.00000000E+00  0.00000000E+00  0.00000000E+00
  0.00000000E+00  0.00000000E+00  0.00000000E+00
  0.00000000E+00  0.00000000E+00  0.00000000E+00
  0.00000000E+00  0.00000000E+00  0.00000000E+00
  0.00000000E+00  0.00000000E+00  0.00000000E+00
  0.00000000E+00  0.00000000E+00  0.00000000E+00
  0.00000000E+00  0.00000000E+00  0.00000000E+00
  0.00000000E+00  0.00000000E+00  0.00000000E+00
  0.00000000E+00  0.00000000E+00  0.00000000E+00
  0.00000000E+00  0.00000000E+00  0.00000000E+00
  0.00000000E+00  0.00000000E+00  0.00000000E+00
  0.00000000E+00  0.00000000E+00  0.00000000E+00
  0.00000000E+00  0.00000000E+00  0.00000000E+00
  0.00000000E+00  0.00000000E+00  0.00000000E+00
  0.00000000E+00  0.00000000E+00  0.00000000E+00
  0.00000000E+00  0.00000000E+00  0.00000000E+00
  0.00000000E+00  0.00000000E+00  0.00000000E+00
  0.00000000E+00  0.00000000E+00  0.00000000E+00
  0.00000000E+00  0.00000000E+00  0.00000000E+00
  0.00000000E+00  0.00000000E+00  0.00000000E+00
  0.00000000E+00  0.00000000E+00  0.00000000E+00
  0.00000000E+00  0.00000000E+00  0.00000000E+00
  0.00000000E+00  0.00000000E+00  0.00000000E+00
  0.00000000E+00  0.00000000E+00  0.00000000E+00
  0.00000000E+00  0.00000000E+00  0.00000000E+00
  0.00000000E+00  0.00000000E+00  0.00000000E+00
  0.00000000E+00  0.00000000E+00  0.00000000E+00
  0.00000000E+00  0.00000000E+00  0.00000000E+00
  0.00000000E+00  0.00000000E+00  0.00000000E+00
  0.00000000E+00  0.00000000E+00  0.00000000E+00
  0.00000000E+00  0.00000000E+00  0.00000000E+00
  0.00000000E+00  0.00000000E+00  0.00000000E+00
  0.00000000E+00  0.00000000E+00  0.00000000E+00
  0.00000000E+00  0.00000000E+00  0.00000000E+00
  0.00000000E+00  0.00000000E+00  0.00000000E+00
  0.00000000E+00  0.00000000E+00  0.00000000E+00
