 CONTCAR\(15)                           
   1.00000000000000     
     9.8291997910000006    0.0000000000000000    0.0000000000000000
     4.9145998955000003    8.5123367178000002    0.0000000000000000
     0.0000000000000000    0.0000000000000000   19.0128002167000005
   Ni   O 
    64     1
Selective dynamics
Direct
  0.0820859239999976  0.0853893090000000  0.1769045570000003   F   F   F
  0.3320606220000002  0.0853895819999977  0.1768983500000019   F   F   F
  0.3321350229999993  0.8353552940000029  0.1769282579999967   F   F   F
  0.5820235719999971  0.3354048120000002  0.1769164199999977   F   F   F
  0.3320824970000018  0.5853625190000002  0.1769149029999966   F   F   F
  0.3320413989999977  0.3353577580000007  0.1768658209999998   F   F   F
  0.8320489050000006  0.0854081170000001  0.1769476569999995   F   F   F
  0.5819999280000019  0.0854048260000013  0.1769176740000020   F   F   F
  0.8320446789999991  0.3354047560000026  0.1769184890000020   F   F   F
  0.5820607089999967  0.5854306920000028  0.1769178999999994   F   F   F
  0.0820949029999980  0.8352966440000031  0.1769376880000024   F   F   F
  0.5820859990000002  0.8354016760000036  0.1769298999999975   F   F   F
  0.0820782139999992  0.3353299730000003  0.1769054849999989   F   F   F
  0.8320439359999980  0.5854464330000013  0.1769503530000023   F   F   F
  0.0820345919999994  0.5853827979999977  0.1768957540000002   F   F   F
  0.8320200599999978  0.8354260990000029  0.1769315929999991   F   F   F
  0.1655216050502926  0.1686803922378212  0.2816238167194385   T   T   T
  0.1656034780984560  0.9181628140954418  0.2816774472970217   T   T   T
  0.4161515529125380  0.1690100609103065  0.2826178873870732   T   T   T
  0.4152217878441921  0.9186383843650410  0.2820323931815847   T   T   T
  0.4154410128430246  0.4184318343460661  0.2818323396868706   T   T   T
  0.4162676222560786  0.6671207807858703  0.2825077558347602   T   T   T
  0.9151806578406357  0.1686875439547382  0.2816125261955711   T   T   T
  0.6642474059997192  0.1690259712347222  0.2825904644536030   T   T   T
  0.6641788462345561  0.4192863566883295  0.2826176307796159   T   T   T
  0.1660251489439602  0.6671575658303968  0.2825423075432330   T   T   T
  0.9155378798829014  0.4184796097303938  0.2819915330926251   T   T   T
  0.6654566324688582  0.6685040227551535  0.2819075799791247   T   T   T
  0.9155722469784694  0.9186736733871289  0.2820519598013085   T   T   T
  0.6653536504536642  0.9187862954341514  0.2819554527746344   T   T   T
  0.1659877158510720  0.4191808767321729  0.2826085797303149   T   T   T
  0.9155132050631396  0.6685835770321057  0.2818744847199913   T   T   T
  0.2487511027973023  0.0015980332999445  0.3874438361396108   T   T   T
  0.5009851851556414  0.2474201633186480  0.3925047901341188   T   T   T
  0.5009016556776413  0.5034436168977897  0.3925974896019495   T   T   T
  0.2465923278894588  0.2490179443029872  0.3864417144871565   T   T   T
  0.9988736213587943  0.2516961613694528  0.3874442368699404   T   T   T
  0.7538570544194801  0.2489815025021430  0.3864847929463305   T   T   T
  0.4991934577614159  0.7524903081442904  0.3871955275963450   T   T   T
  0.2467318696924594  0.7559949607924915  0.3863612265333541   T   T   T
  0.4992069774993576  0.0005502775584107  0.3873392927872262   T   T   T
  0.9990060466859350  0.0016400280489889  0.3874660376210367   T   T   T
  0.2452170712806520  0.5034671681887950  0.3925009692366591   T   T   T
  0.7494910000007957  0.5024294036483899  0.3872494993743639   T   T   T
  0.7494783205988080  0.0005457779037851  0.3873720750098914   T   T   T
  0.9975716662804190  0.7525559087979466  0.3872644028408889   T   T   T
  0.7488252778152124  0.7518681179835901  0.3880284757692324   T   T   T
  0.9975181028807353  0.5025110994099854  0.3872356489210196   T   T   T
  0.2488099890000015  0.0018900000000031  0.0714200000000034   F   F   F
  0.4986599900000002  0.2520299789999996  0.0714200000000034   F   F   F
  0.4987100749999982  0.5019500149999985  0.0714200000000034   F   F   F
  0.2486699889999997  0.2519600139999980  0.0714200000000034   F   F   F
  0.9988300199999998  0.2520000100000033  0.0714200000000034   F   F   F
  0.7487000469999998  0.2521199990000014  0.0714200000000034   F   F   F
  0.4986899749999978  0.7520999730000000  0.0714200000000034   F   F   F
  0.2487699630000009  0.7521200280000002  0.0714200000000034   F   F   F
  0.4985999800000016  0.0021100000000018  0.0714200000000034   F   F   F
  0.9987700320000030  0.0022099999999980  0.0714200000000034   F   F   F
  0.2487500120000021  0.5021200269999966  0.0714200000000034   F   F   F
  0.7486699880000032  0.5022699849999981  0.0714200000000034   F   F   F
  0.7485899979999999  0.0024500000000032  0.0714200000000034   F   F   F
  0.9987000519999967  0.7524499689999971  0.0714200000000034   F   F   F
  0.7486699279999982  0.7524300270000026  0.0714200000000034   F   F   F
  0.9986899559999998  0.5022000199999965  0.0714200000000034   F   F   F
  0.4158101695530377  0.4178095164065931  0.4520219445002235   T   T   T
 
  0.00000000E+00  0.00000000E+00  0.00000000E+00
  0.00000000E+00  0.00000000E+00  0.00000000E+00
  0.00000000E+00  0.00000000E+00  0.00000000E+00
  0.00000000E+00  0.00000000E+00  0.00000000E+00
  0.00000000E+00  0.00000000E+00  0.00000000E+00
  0.00000000E+00  0.00000000E+00  0.00000000E+00
  0.00000000E+00  0.00000000E+00  0.00000000E+00
  0.00000000E+00  0.00000000E+00  0.00000000E+00
  0.00000000E+00  0.00000000E+00  0.00000000E+00
  0.00000000E+00  0.00000000E+00  0.00000000E+00
  0.00000000E+00  0.00000000E+00  0.00000000E+00
  0.00000000E+00  0.00000000E+00  0.00000000E+00
  0.00000000E+00  0.00000000E+00  0.00000000E+00
  0.00000000E+00  0.00000000E+00  0.00000000E+00
  0.00000000E+00  0.00000000E+00  0.00000000E+00
  0.00000000E+00  0.00000000E+00  0.00000000E+00
  0.00000000E+00  0.00000000E+00  0.00000000E+00
  0.00000000E+00  0.00000000E+00  0.00000000E+00
  0.00000000E+00  0.00000000E+00  0.00000000E+00
  0.00000000E+00  0.00000000E+00  0.00000000E+00
  0.00000000E+00  0.00000000E+00  0.00000000E+00
  0.00000000E+00  0.00000000E+00  0.00000000E+00
  0.00000000E+00  0.00000000E+00  0.00000000E+00
  0.00000000E+00  0.00000000E+00  0.00000000E+00
  0.00000000E+00  0.00000000E+00  0.00000000E+00
  0.00000000E+00  0.00000000E+00  0.00000000E+00
  0.00000000E+00  0.00000000E+00  0.00000000E+00
  0.00000000E+00  0.00000000E+00  0.00000000E+00
  0.00000000E+00  0.00000000E+00  0.00000000E+00
  0.00000000E+00  0.00000000E+00  0.00000000E+00
  0.00000000E+00  0.00000000E+00  0.00000000E+00
  0.00000000E+00  0.00000000E+00  0.00000000E+00
  0.00000000E+00  0.00000000E+00  0.00000000E+00
  0.00000000E+00  0.00000000E+00  0.00000000E+00
  0.00000000E+00  0.00000000E+00  0.00000000E+00
  0.00000000E+00  0.00000000E+00  0.00000000E+00
  0.00000000E+00  0.00000000E+00  0.00000000E+00
  0.00000000E+00  0.00000000E+00  0.00000000E+00
  0.00000000E+00  0.00000000E+00  0.00000000E+00
  0.00000000E+00  0.00000000E+00  0.00000000E+00
  0.00000000E+00  0.00000000E+00  0.00000000E+00
  0.00000000E+00  0.00000000E+00  0.00000000E+00
  0.00000000E+00  0.00000000E+00  0.00000000E+00
  0.00000000E+00  0.00000000E+00  0.00000000E+00
  0.00000000E+00  0.00000000E+00  0.00000000E+00
  0.00000000E+00  0.00000000E+00  0.00000000E+00
  0.00000000E+00  0.00000000E+00  0.00000000E+00
  0.00000000E+00  0.00000000E+00  0.00000000E+00
  0.00000000E+00  0.00000000E+00  0.00000000E+00
  0.00000000E+00  0.00000000E+00  0.00000000E+00
  0.00000000E+00  0.00000000E+00  0.00000000E+00
  0.00000000E+00  0.00000000E+00  0.00000000E+00
  0.00000000E+00  0.00000000E+00  0.00000000E+00
  0.00000000E+00  0.00000000E+00  0.00000000E+00
  0.00000000E+00  0.00000000E+00  0.00000000E+00
  0.00000000E+00  0.00000000E+00  0.00000000E+00
  0.00000000E+00  0.00000000E+00  0.00000000E+00
  0.00000000E+00  0.00000000E+00  0.00000000E+00
  0.00000000E+00  0.00000000E+00  0.00000000E+00
  0.00000000E+00  0.00000000E+00  0.00000000E+00
  0.00000000E+00  0.00000000E+00  0.00000000E+00
  0.00000000E+00  0.00000000E+00  0.00000000E+00
  0.00000000E+00  0.00000000E+00  0.00000000E+00
  0.00000000E+00  0.00000000E+00  0.00000000E+00
  0.00000000E+00  0.00000000E+00  0.00000000E+00
