Generated by VASPKIT code               
   1.00000000000000     
     9.8291997910000006    0.0000000000000000    0.0000000000000000
     4.9145998955000003    8.5123367178000002    0.0000000000000000
     0.0000000000000000    0.0000000000000000   19.0128002167000005
   Ni   O 
    64     4
Selective dynamics
Direct
  0.8327397700000034  0.5848465560000022  0.2711432870000010   F   F   F
  0.3327867980000008  0.0844697879999998  0.2704246639999965   F   F   F
  0.8330972790000004  0.0844843389999994  0.2705219090000028   F   F   F
  0.3327105939999981  0.5848667619999972  0.2707228960000023   F   F   F
  0.5829190019999970  0.8349167109999982  0.2711634930000031   F   F   F
  0.8327777980000022  0.8347151279999991  0.2711151239999978   F   F   F
  0.0826775880000028  0.3346015210000033  0.2708706559999996   F   F   F
  0.8330727219999972  0.3345142300000035  0.2709999679999981   F   F   F
  0.5830215809999970  0.5844401120000029  0.2713987529999997   F   F   F
  0.0826841149999993  0.5845832230000028  0.2711662050000001   F   F   F
  0.0827012580000002  0.0848529559999989  0.2705956100000009   F   F   F
  0.5829693680000005  0.0844429140000003  0.2714003030000001   F   F   F
  0.3330761189999976  0.8346145750000034  0.2709240020000010   F   F   F
  0.0825572310000027  0.8344835640000028  0.2708239849999998   F   F   F
  0.3327263890000012  0.3345220980000008  0.2714989779999968   F   F   F
  0.5831073519999990  0.3344676489999969  0.2715477650000011   F   F   F
  0.9161076005858454  0.6676216952862989  0.3760591646853645   T   T   T
  0.9160867557373372  0.4180894696911709  0.3759430089875015   T   T   T
  0.6666582793625218  0.6675494754259576  0.3760686687299471   T   T   T
  0.1667742061536373  0.1673691361967812  0.3757026135412322   T   T   T
  0.9162413286986526  0.1674265197190495  0.3757279268053946   T   T   T
  0.9161884347127717  0.9181811536296868  0.3758958954045670   T   T   T
  0.4160742361168237  0.9181564254512946  0.3759052546045119   T   T   T
  0.4160115917742617  0.1673739816097959  0.3760202860224145   T   T   T
  0.6669381132020020  0.1672860452914368  0.3760508220432121   T   T   T
  0.1666570220890516  0.6676176788632888  0.3758721105510058   T   T   T
  0.4159870953728201  0.6676606437525053  0.3759238686364051   T   T   T
  0.4160359321849143  0.4182121596262764  0.3760021574931923   T   T   T
  0.6664828311596217  0.9175130952582388  0.3783216057569952   T   T   T
  0.1661799983757733  0.4175431673980685  0.3781966484912886   T   T   T
  0.6665033489617551  0.4175105982563933  0.3783258664553161   T   T   T
  0.1663674807650995  0.9175381145731085  0.3780984777445865   T   T   T
  0.0000024495876669  0.2501059137696404  0.4792410328679330   T   T   T
  0.5000020596585818  0.2500663423585482  0.4795649376644763   T   T   T
  0.0000023575855300  0.7501869988861307  0.4795577693901412   T   T   T
  0.4999125344118527  0.7501769032622730  0.4795799687228223   T   T   T
  0.7483533481632674  0.7533639969338896  0.4856754733998055   T   T   T
  0.0032453373746846  0.4984209671437206  0.4856038257539345   T   T   T
  0.7483551195476658  0.4984448378095944  0.4856242296603617   T   T   T
  0.2482553286187987  0.9984044171376102  0.4853822232123643   T   T   T
  0.0033582652022548  0.9984617657284950  0.4854029431964043   T   T   T
  0.5033457678681600  0.9983568043584405  0.4855665974807172   T   T   T
  0.2483698906541752  0.7532609109094583  0.4854112313832505   T   T   T
  0.7483561294319840  0.9983914673592645  0.4856107458138956   T   T   T
  0.2482945434840020  0.2533144956671240  0.4854531964801264   T   T   T
  0.7484226926931236  0.2532707896061390  0.4854846112441265   T   T   T
  0.2482903773276301  0.4983486670845874  0.4854443837583476   T   T   T
  0.5032943015870454  0.4984016961181202  0.4854807579898783   T   T   T
  0.9970725180000031  0.2558556800000034  0.1637004020000035   F   F   F
  0.4999617639999983  0.2500875890000032  0.1643123180000003   F   F   F
  0.9968841080000033  0.7476992010000032  0.1643590629999991   F   F   F
  0.5054475669999974  0.7476858500000034  0.1651548450000035   F   F   F
  0.7507219310000011  0.7486395239999979  0.1651830520000033   F   F   F
  0.9979411360000014  0.5014025569999987  0.1651978490000019   F   F   F
  0.7507272960000009  0.5014379019999993  0.1654730440000023   F   F   F
  0.2484077510000020  0.9989653230000002  0.1655050219999978   F   F   F
  0.0026835649999981  0.9989392760000015  0.1655775309999967   F   F   F
  0.5037178990000015  0.9979203339999998  0.1655856369999995   F   F   F
  0.2483221740000019  0.7533767819999966  0.1658259479999984   F   F   F
  0.7484136819999989  0.9978805780000002  0.1658943890000018   F   F   F
  0.2473094610000004  0.2543786760000017  0.1660089189999994   F   F   F
  0.7483561640000005  0.2543461619999974  0.1660180840000010   F   F   F
  0.2472922059999973  0.4989472629999980  0.1662971379999973   F   F   F
  0.5037960410000011  0.4989156720000025  0.1664085239999977   F   F   F
  0.3331776288849959  0.0832320719829127  0.5448532717982441   T   T   T
  0.8336493484297857  0.0832508599882542  0.5448816403340548   T   T   T
  0.3333078868896658  0.5833058755803312  0.5448375775706019   T   T   T
  0.8333535563911491  0.5832917697342697  0.5449840091732746   T   T   T
 
  0.00000000E+00  0.00000000E+00  0.00000000E+00
  0.00000000E+00  0.00000000E+00  0.00000000E+00
  0.00000000E+00  0.00000000E+00  0.00000000E+00
  0.00000000E+00  0.00000000E+00  0.00000000E+00
  0.00000000E+00  0.00000000E+00  0.00000000E+00
  0.00000000E+00  0.00000000E+00  0.00000000E+00
  0.00000000E+00  0.00000000E+00  0.00000000E+00
  0.00000000E+00  0.00000000E+00  0.00000000E+00
  0.00000000E+00  0.00000000E+00  0.00000000E+00
  0.00000000E+00  0.00000000E+00  0.00000000E+00
  0.00000000E+00  0.00000000E+00  0.00000000E+00
  0.00000000E+00  0.00000000E+00  0.00000000E+00
  0.00000000E+00  0.00000000E+00  0.00000000E+00
  0.00000000E+00  0.00000000E+00  0.00000000E+00
  0.00000000E+00  0.00000000E+00  0.00000000E+00
  0.00000000E+00  0.00000000E+00  0.00000000E+00
  0.00000000E+00  0.00000000E+00  0.00000000E+00
  0.00000000E+00  0.00000000E+00  0.00000000E+00
  0.00000000E+00  0.00000000E+00  0.00000000E+00
  0.00000000E+00  0.00000000E+00  0.00000000E+00
  0.00000000E+00  0.00000000E+00  0.00000000E+00
  0.00000000E+00  0.00000000E+00  0.00000000E+00
  0.00000000E+00  0.00000000E+00  0.00000000E+00
  0.00000000E+00  0.00000000E+00  0.00000000E+00
  0.00000000E+00  0.00000000E+00  0.00000000E+00
  0.00000000E+00  0.00000000E+00  0.00000000E+00
  0.00000000E+00  0.00000000E+00  0.00000000E+00
  0.00000000E+00  0.00000000E+00  0.00000000E+00
  0.00000000E+00  0.00000000E+00  0.00000000E+00
  0.00000000E+00  0.00000000E+00  0.00000000E+00
  0.00000000E+00  0.00000000E+00  0.00000000E+00
  0.00000000E+00  0.00000000E+00  0.00000000E+00
  0.00000000E+00  0.00000000E+00  0.00000000E+00
  0.00000000E+00  0.00000000E+00  0.00000000E+00
  0.00000000E+00  0.00000000E+00  0.00000000E+00
  0.00000000E+00  0.00000000E+00  0.00000000E+00
  0.00000000E+00  0.00000000E+00  0.00000000E+00
  0.00000000E+00  0.00000000E+00  0.00000000E+00
  0.00000000E+00  0.00000000E+00  0.00000000E+00
  0.00000000E+00  0.00000000E+00  0.00000000E+00
  0.00000000E+00  0.00000000E+00  0.00000000E+00
  0.00000000E+00  0.00000000E+00  0.00000000E+00
  0.00000000E+00  0.00000000E+00  0.00000000E+00
  0.00000000E+00  0.00000000E+00  0.00000000E+00
  0.00000000E+00  0.00000000E+00  0.00000000E+00
  0.00000000E+00  0.00000000E+00  0.00000000E+00
  0.00000000E+00  0.00000000E+00  0.00000000E+00
  0.00000000E+00  0.00000000E+00  0.00000000E+00
  0.00000000E+00  0.00000000E+00  0.00000000E+00
  0.00000000E+00  0.00000000E+00  0.00000000E+00
  0.00000000E+00  0.00000000E+00  0.00000000E+00
  0.00000000E+00  0.00000000E+00  0.00000000E+00
  0.00000000E+00  0.00000000E+00  0.00000000E+00
  0.00000000E+00  0.00000000E+00  0.00000000E+00
  0.00000000E+00  0.00000000E+00  0.00000000E+00
  0.00000000E+00  0.00000000E+00  0.00000000E+00
  0.00000000E+00  0.00000000E+00  0.00000000E+00
  0.00000000E+00  0.00000000E+00  0.00000000E+00
  0.00000000E+00  0.00000000E+00  0.00000000E+00
  0.00000000E+00  0.00000000E+00  0.00000000E+00
  0.00000000E+00  0.00000000E+00  0.00000000E+00
  0.00000000E+00  0.00000000E+00  0.00000000E+00
  0.00000000E+00  0.00000000E+00  0.00000000E+00
  0.00000000E+00  0.00000000E+00  0.00000000E+00
  0.00000000E+00  0.00000000E+00  0.00000000E+00
  0.00000000E+00  0.00000000E+00  0.00000000E+00
  0.00000000E+00  0.00000000E+00  0.00000000E+00
  0.00000000E+00  0.00000000E+00  0.00000000E+00
