Ni_CO2CHOH
   1.00000000000000     
     9.8291997910000006    0.0000000000000000    0.0000000000000000
     4.9145998955000003    8.5123367178000002    0.0000000000000000
     0.0000000000000000    0.0000000000000000   19.0128002167000005
   Ni   O    C    H 
    64     3     2     2
Selective dynamics
Direct
      0.8325650434005517      0.5922746889195306      0.2705962972046330   T T T
      0.3325767104734525      0.0922960418256230      0.2696845822693445   T T T
      0.8321485831603683      0.0923266975415923      0.2705596510721286   T T T
      0.3324665693980970      0.5919983998705481      0.2694491617762878   T T T
      0.5826287721265501      0.8426372356760814      0.2692184265986577   T T T
      0.8327125777531252      0.8416426279787912      0.2699420084507475   T T T
      0.0822504757858152      0.3426267621104038      0.2698105283106170   T T T
      0.8325367359690595      0.3424542022426980      0.2702369088440840   T T T
      0.5828040481884282      0.5920531273698656      0.2697591342502221   T T T
      0.0823558867677950      0.5918769584826569      0.2704638692304817   T T T
      0.0816206489777729      0.0928939498013283      0.2693291598111839   T T T
      0.5829030520575176      0.0921003584466456      0.2704252961787947   T T T
      0.3323309521508589      0.8425406785453121      0.2693318583545538   T T T
      0.0822312462925148      0.8421982268778793      0.2695503724210744   T T T
      0.3317817334078947      0.3423317232823438      0.2700261572915188   T T T
      0.5824294019476595      0.3417341678396220      0.2701068354421958   T T T
      0.9166073320792149      0.6733289079663208      0.3771102003583293   T T T
      0.9159889000562095      0.4258528692161174      0.3764066025436049   T T T
      0.6665566811532448      0.6742878046294923      0.3752042978031212   T T T
      0.1657613228840853      0.1754945637816120      0.3742020577991705   T T T
      0.9143877675340644      0.1765138696583519      0.3759007867340877   T T T
      0.9160318922743567      0.9246802487989931      0.3748638603381442   T T T
      0.4164467793208230      0.9249204192810221      0.3745774561358065   T T T
      0.4161331506372973      0.1751181671283085      0.3749719677142953   T T T
      0.6669251674302867      0.1766131472979491      0.3772457308578533   T T T
      0.1660945995308500      0.6749177106138474      0.3749263869721350   T T T
      0.4161307809663091      0.6753617641595597      0.3741834492324139   T T T
      0.4155646974704728      0.4249398099674100      0.3745842984481967   T T T
      0.6666253535121628      0.9245084319240084      0.3750054800409226   T T T
      0.1636867902404113      0.4261329314434766      0.3770617231452693   T T T
      0.6663905139524680      0.4246810243093060      0.3756398489651093   T T T
      0.1656147731270936      0.9257742638049752      0.3743931206041637   T T T
      0.0039304000826690      0.2542562245198212      0.4785026578591998   T T T
      0.4975563754597979      0.2590999422901708      0.4803901608629269   T T T
     -0.0004255762516042      0.7610911651701615      0.4806207957510890   T T T
      0.4984395593088354      0.7593737054317079      0.4797075582236836   T T T
      0.7471036849963805      0.7608412639823213      0.4804842983620244   T T T
     -0.0009471052677703      0.5119833052747530      0.4893776974670076   T T T
      0.7473203307456164      0.5076104364602443      0.4834429668449652   T T T
      0.2505301074808801      0.0073733763564453      0.4801048878782835   T T T
      0.0002850671146759      0.0071944018676739      0.4797922188029278   T T T
      0.4995977485874485      0.0085718858562097      0.4805493362639393   T T T
      0.2492181468287799      0.7597242777561882      0.4803868244712447   T T T
      0.7492054976824386      0.0084035049570428      0.4807507683025905   T T T
      0.2517093934594179      0.2566824266673369      0.4802034276355385   T T T
      0.7474181953813117      0.2590421758179922      0.4883357473816118   T T T
      0.2497556067076107      0.5099814148023454      0.4805484308939898   T T T
      0.4946558048401903      0.5114949208993169      0.4788187656331753   T T T
     -0.0017820305287307      0.2597994263260730      0.1639878576705985   F F F
      0.4982792729718226      0.2596972703769331      0.1644244209292553   F F F
     -0.0016518384029889      0.7596376528002466      0.1641342526360741   F F F
      0.4987020143937212      0.7593223342423506      0.1638666436868678   F F F
      0.7489211700977372      0.7595706308424656      0.1641461300540845   F F F
     -0.0016006198505424      0.5098308890441545      0.1643670383464266   F F F
      0.7486326101147507      0.5097524808983789      0.1643270413126327   F F F
      0.2482863793649701      0.0096983619042476      0.1638726738798627   F F F
     -0.0016666587300900      0.0096886225525465      0.1640139209769469   F F F
      0.4982118346784669      0.0098894974214843      0.1639645756142661   F F F
      0.2484021296708638      0.7594222413061457      0.1637914464798864   F F F
      0.7485075968865249      0.0098871107061544      0.1644812320607335   F F F
      0.2482316104656065      0.2598343022321710      0.1641337664198501   F F F
      0.7485576982517969      0.2597804522787223      0.1646087010158657   F F F
      0.2482349219842394      0.5097785585486270      0.1642658207988230   F F F
      0.4985081635986096      0.5096845195071156      0.1641049619772898   F F F
      0.9994735227300585      0.4835950191620514      0.5898700530678943   T T T
      0.0160237539362827      0.2598910638552434      0.6334548344345047   T T T
      0.7487174570747223      0.3141158628763578      0.5930201010445187   T T T
      0.9433252017395337      0.3908955677948848      0.6035714054357395   T T T
      0.7759852498511534      0.4427876691718050      0.5810262393014857   T T T
      0.6848579716837451      0.5500680622960270      0.6070771411544645   T T T
      0.8525017028342669      0.2356680409544376      0.6156877008686151   T T T
 
  0.00000000E+00  0.00000000E+00  0.00000000E+00
  0.00000000E+00  0.00000000E+00  0.00000000E+00
  0.00000000E+00  0.00000000E+00  0.00000000E+00
  0.00000000E+00  0.00000000E+00  0.00000000E+00
  0.00000000E+00  0.00000000E+00  0.00000000E+00
  0.00000000E+00  0.00000000E+00  0.00000000E+00
  0.00000000E+00  0.00000000E+00  0.00000000E+00
  0.00000000E+00  0.00000000E+00  0.00000000E+00
  0.00000000E+00  0.00000000E+00  0.00000000E+00
  0.00000000E+00  0.00000000E+00  0.00000000E+00
  0.00000000E+00  0.00000000E+00  0.00000000E+00
  0.00000000E+00  0.00000000E+00  0.00000000E+00
  0.00000000E+00  0.00000000E+00  0.00000000E+00
  0.00000000E+00  0.00000000E+00  0.00000000E+00
  0.00000000E+00  0.00000000E+00  0.00000000E+00
  0.00000000E+00  0.00000000E+00  0.00000000E+00
  0.00000000E+00  0.00000000E+00  0.00000000E+00
  0.00000000E+00  0.00000000E+00  0.00000000E+00
  0.00000000E+00  0.00000000E+00  0.00000000E+00
  0.00000000E+00  0.00000000E+00  0.00000000E+00
  0.00000000E+00  0.00000000E+00  0.00000000E+00
  0.00000000E+00  0.00000000E+00  0.00000000E+00
  0.00000000E+00  0.00000000E+00  0.00000000E+00
  0.00000000E+00  0.00000000E+00  0.00000000E+00
  0.00000000E+00  0.00000000E+00  0.00000000E+00
  0.00000000E+00  0.00000000E+00  0.00000000E+00
  0.00000000E+00  0.00000000E+00  0.00000000E+00
  0.00000000E+00  0.00000000E+00  0.00000000E+00
  0.00000000E+00  0.00000000E+00  0.00000000E+00
  0.00000000E+00  0.00000000E+00  0.00000000E+00
  0.00000000E+00  0.00000000E+00  0.00000000E+00
  0.00000000E+00  0.00000000E+00  0.00000000E+00
  0.00000000E+00  0.00000000E+00  0.00000000E+00
  0.00000000E+00  0.00000000E+00  0.00000000E+00
  0.00000000E+00  0.00000000E+00  0.00000000E+00
  0.00000000E+00  0.00000000E+00  0.00000000E+00
  0.00000000E+00  0.00000000E+00  0.00000000E+00
  0.00000000E+00  0.00000000E+00  0.00000000E+00
  0.00000000E+00  0.00000000E+00  0.00000000E+00
  0.00000000E+00  0.00000000E+00  0.00000000E+00
  0.00000000E+00  0.00000000E+00  0.00000000E+00
  0.00000000E+00  0.00000000E+00  0.00000000E+00
  0.00000000E+00  0.00000000E+00  0.00000000E+00
  0.00000000E+00  0.00000000E+00  0.00000000E+00
  0.00000000E+00  0.00000000E+00  0.00000000E+00
  0.00000000E+00  0.00000000E+00  0.00000000E+00
  0.00000000E+00  0.00000000E+00  0.00000000E+00
  0.00000000E+00  0.00000000E+00  0.00000000E+00
  0.00000000E+00  0.00000000E+00  0.00000000E+00
  0.00000000E+00  0.00000000E+00  0.00000000E+00
  0.00000000E+00  0.00000000E+00  0.00000000E+00
  0.00000000E+00  0.00000000E+00  0.00000000E+00
  0.00000000E+00  0.00000000E+00  0.00000000E+00
  0.00000000E+00  0.00000000E+00  0.00000000E+00
  0.00000000E+00  0.00000000E+00  0.00000000E+00
  0.00000000E+00  0.00000000E+00  0.00000000E+00
  0.00000000E+00  0.00000000E+00  0.00000000E+00
  0.00000000E+00  0.00000000E+00  0.00000000E+00
  0.00000000E+00  0.00000000E+00  0.00000000E+00
  0.00000000E+00  0.00000000E+00  0.00000000E+00
  0.00000000E+00  0.00000000E+00  0.00000000E+00
  0.00000000E+00  0.00000000E+00  0.00000000E+00
  0.00000000E+00  0.00000000E+00  0.00000000E+00
  0.00000000E+00  0.00000000E+00  0.00000000E+00
  0.00000000E+00  0.00000000E+00  0.00000000E+00
  0.00000000E+00  0.00000000E+00  0.00000000E+00
  0.00000000E+00  0.00000000E+00  0.00000000E+00
  0.00000000E+00  0.00000000E+00  0.00000000E+00
  0.00000000E+00  0.00000000E+00  0.00000000E+00
  0.00000000E+00  0.00000000E+00  0.00000000E+00
  0.00000000E+00  0.00000000E+00  0.00000000E+00
