Ti                                      
   1.00000000000000     
    11.5504999999999995    0.0000000000000000    0.0000000000000007
    -5.7752499999999989   10.0030264264121591    0.0000000000000007
     0.0000000000000000    0.0000000000000000   16.8194000000000017
   Ti   H 
    64     1
Selective dynamics
Direct
  0.0833299999999966  0.1666700000000034  0.0000000000000000   F   F   F
  0.0832862110258914  0.1665337832550775  0.2761639564163756   T   T   T
  0.1666700000000034  0.0833299999999966  0.1351500000000030   F   F   F
  0.1662208100651034  0.0832051526367315  0.4062790687649856   T   T   T
  0.3333332999999996  0.1666700000000034  0.0000000000000000   F   F   F
  0.3348308073971526  0.1676206345380029  0.2783367706580750   T   T   T
  0.4166700000000034  0.0833299999999966  0.1351500000000030   F   F   F
  0.4175149649489255  0.0829518854357465  0.4080274163786636   T   T   T
  0.5833299999999966  0.1666700000000034  0.0000000000000000   F   F   F
  0.5825206489812832  0.1650697587538340  0.2771947981596222   T   T   T
  0.6666667000000004  0.0833299999999966  0.1351500000000030   F   F   F
  0.6655650471513193  0.0831289053507791  0.4079502236724692   T   T   T
  0.8333299999999966  0.1666700000000034  0.0000000000000000   F   F   F
  0.8329796012594779  0.1678307282223681  0.2783268905388454   T   T   T
  0.9166700000000034  0.0833299999999966  0.1351500000000030   F   F   F
  0.9169524076553153  0.0832890439893355  0.4063192635202393   T   T   T
  0.0833299999999966  0.4166700000000034  0.0000000000000000   F   F   F
  0.0830822377797224  0.4161372247879380  0.2772480299426764   T   T   T
  0.1666700000000034  0.3333332999999996  0.1351500000000030   F   F   F
  0.1654375561279832  0.3308146478726851  0.4058294831752704   T   T   T
  0.3333332999999996  0.4166700000000034  0.0000000000000000   F   F   F
  0.3331284165265355  0.4159199983716270  0.2772143792052869   T   T   T
  0.4166700000000034  0.3333332999999996  0.1351500000000030   F   F   F
  0.4173022511440581  0.3348954381320240  0.4079765490714176   T   T   T
  0.5833299999999966  0.4166700000000034  0.0000000000000000   F   F   F
  0.5824770112510411  0.4176061979765893  0.2771784083062627   T   T   T
  0.6666667000000004  0.3333332999999996  0.1351500000000030   F   F   F
  0.6667768946937457  0.3335083938359817  0.4048829143807475   T   T   T
  0.8333299999999966  0.4166700000000034  0.0000000000000000   F   F   F
  0.8352302500360608  0.4176629421542756  0.2771732925938049   T   T   T
  0.9166700000000034  0.3333332999999996  0.1351500000000030   F   F   F
  0.9178550587720929  0.3351325331477684  0.4079269597762987   T   T   T
  0.0833299999999966  0.6666667000000004  0.0000000000000000   F   F   F
  0.0832730215262298  0.6673042846609527  0.2773001020952526   T   T   T
  0.1666700000000034  0.5833299999999966  0.1351500000000030   F   F   F
  0.1721250277573572  0.5862612177782134  0.4072587704788015   T   T   T
  0.3333332999999996  0.6666667000000004  0.0000000000000000   F   F   F
  0.3334835402987475  0.6668493989481780  0.2749090199268899   T   T   T
  0.4166700000000034  0.5833299999999966  0.1351500000000030   F   F   F
  0.4145675483252411  0.5861478644717237  0.4070899155604811   T   T   T
  0.5833299999999966  0.6666667000000004  0.0000000000000000   F   F   F
  0.5845549092222162  0.6675717474041896  0.2772725343999666   T   T   T
  0.6666667000000004  0.5833299999999966  0.1351500000000030   F   F   F
  0.6652431646426019  0.5825768026750436  0.4077542767367767   T   T   T
  0.8333299999999966  0.6666667000000004  0.0000000000000000   F   F   F
  0.8328238929116640  0.6652869955932783  0.2783226050178960   T   T   T
  0.9166700000000034  0.5833299999999966  0.1351500000000030   F   F   F
  0.9176810738565192  0.5826612059973015  0.4077800417293337   T   T   T
  0.0833299999999966  0.9166700000000034  0.0000000000000000   F   F   F
  0.0830722207316692  0.9169973462405330  0.2762214681697889   T   T   T
  0.1666700000000034  0.8333299999999966  0.1351500000000030   F   F   F
  0.1651438095510705  0.8348084761593048  0.4060634997923613   T   T   T
  0.3333332999999996  0.9166700000000034  0.0000000000000000   F   F   F
  0.3327753327490975  0.9174632251142164  0.2771225483500530   T   T   T
  0.4166700000000034  0.8333299999999966  0.1351500000000030   F   F   F
  0.4149198507288335  0.8294417215397478  0.4069227804908526   T   T   T
  0.5833299999999966  0.9166700000000034  0.0000000000000000   F   F   F
  0.5849669779777309  0.9174698779805552  0.2771239180619550   T   T   T
  0.6666667000000004  0.8333299999999966  0.1351500000000030   F   F   F
  0.6699612939972838  0.8349479935410598  0.4061316484163788   T   T   T
  0.8333299999999966  0.9166700000000034  0.0000000000000000   F   F   F
  0.8342542073401232  0.9171540367600864  0.2762087551228704   T   T   T
  0.9166700000000034  0.8333299999999966  0.1351500000000030   F   F   F
  0.9167542031744041  0.8334533436826961  0.4063179074738983   T   T   T
  0.3339942050274306  0.6671130484150887  0.4725500592662087   T   T   T
 
  0.00000000E+00  0.00000000E+00  0.00000000E+00
  0.00000000E+00  0.00000000E+00  0.00000000E+00
  0.00000000E+00  0.00000000E+00  0.00000000E+00
  0.00000000E+00  0.00000000E+00  0.00000000E+00
  0.00000000E+00  0.00000000E+00  0.00000000E+00
  0.00000000E+00  0.00000000E+00  0.00000000E+00
  0.00000000E+00  0.00000000E+00  0.00000000E+00
  0.00000000E+00  0.00000000E+00  0.00000000E+00
  0.00000000E+00  0.00000000E+00  0.00000000E+00
  0.00000000E+00  0.00000000E+00  0.00000000E+00
  0.00000000E+00  0.00000000E+00  0.00000000E+00
  0.00000000E+00  0.00000000E+00  0.00000000E+00
  0.00000000E+00  0.00000000E+00  0.00000000E+00
  0.00000000E+00  0.00000000E+00  0.00000000E+00
  0.00000000E+00  0.00000000E+00  0.00000000E+00
  0.00000000E+00  0.00000000E+00  0.00000000E+00
  0.00000000E+00  0.00000000E+00  0.00000000E+00
  0.00000000E+00  0.00000000E+00  0.00000000E+00
  0.00000000E+00  0.00000000E+00  0.00000000E+00
  0.00000000E+00  0.00000000E+00  0.00000000E+00
  0.00000000E+00  0.00000000E+00  0.00000000E+00
  0.00000000E+00  0.00000000E+00  0.00000000E+00
  0.00000000E+00  0.00000000E+00  0.00000000E+00
  0.00000000E+00  0.00000000E+00  0.00000000E+00
  0.00000000E+00  0.00000000E+00  0.00000000E+00
  0.00000000E+00  0.00000000E+00  0.00000000E+00
  0.00000000E+00  0.00000000E+00  0.00000000E+00
  0.00000000E+00  0.00000000E+00  0.00000000E+00
  0.00000000E+00  0.00000000E+00  0.00000000E+00
  0.00000000E+00  0.00000000E+00  0.00000000E+00
  0.00000000E+00  0.00000000E+00  0.00000000E+00
  0.00000000E+00  0.00000000E+00  0.00000000E+00
  0.00000000E+00  0.00000000E+00  0.00000000E+00
  0.00000000E+00  0.00000000E+00  0.00000000E+00
  0.00000000E+00  0.00000000E+00  0.00000000E+00
  0.00000000E+00  0.00000000E+00  0.00000000E+00
  0.00000000E+00  0.00000000E+00  0.00000000E+00
  0.00000000E+00  0.00000000E+00  0.00000000E+00
  0.00000000E+00  0.00000000E+00  0.00000000E+00
  0.00000000E+00  0.00000000E+00  0.00000000E+00
  0.00000000E+00  0.00000000E+00  0.00000000E+00
  0.00000000E+00  0.00000000E+00  0.00000000E+00
  0.00000000E+00  0.00000000E+00  0.00000000E+00
  0.00000000E+00  0.00000000E+00  0.00000000E+00
  0.00000000E+00  0.00000000E+00  0.00000000E+00
  0.00000000E+00  0.00000000E+00  0.00000000E+00
  0.00000000E+00  0.00000000E+00  0.00000000E+00
  0.00000000E+00  0.00000000E+00  0.00000000E+00
  0.00000000E+00  0.00000000E+00  0.00000000E+00
  0.00000000E+00  0.00000000E+00  0.00000000E+00
  0.00000000E+00  0.00000000E+00  0.00000000E+00
  0.00000000E+00  0.00000000E+00  0.00000000E+00
  0.00000000E+00  0.00000000E+00  0.00000000E+00
  0.00000000E+00  0.00000000E+00  0.00000000E+00
  0.00000000E+00  0.00000000E+00  0.00000000E+00
  0.00000000E+00  0.00000000E+00  0.00000000E+00
  0.00000000E+00  0.00000000E+00  0.00000000E+00
  0.00000000E+00  0.00000000E+00  0.00000000E+00
  0.00000000E+00  0.00000000E+00  0.00000000E+00
  0.00000000E+00  0.00000000E+00  0.00000000E+00
  0.00000000E+00  0.00000000E+00  0.00000000E+00
  0.00000000E+00  0.00000000E+00  0.00000000E+00
  0.00000000E+00  0.00000000E+00  0.00000000E+00
  0.00000000E+00  0.00000000E+00  0.00000000E+00
  0.00000000E+00  0.00000000E+00  0.00000000E+00
