 Ni_Pol_COOHCH
   1.000
    9.8292000000000002    0.0000000000000000    0.0000000000000000
    4.9146000000000001    8.5123370000000005    0.0000000000000000
    0.0000000000000000    0.0000000000000000   33.0128020000000006
   Ni   O    H    C 
   64   35   62    2
Selective Dynamics
Direct
    0.8161304600000000    0.5889720300000000    0.1200248400000000    T  T  T
    0.3267620200000000    0.0893950100000000    0.1211907300000000    T  T  T
    0.8281435400000000    0.0930463300000000    0.1197676300000000    T  T  T
    0.3295063100000000    0.5878229699999999    0.1215391800000000    T  T  T
    0.5760458100000000    0.8344788000000000    0.1202235300000000    T  T  T
    0.8191150400000000    0.8479825300000000    0.1227014700000000    T  T  T
    0.0724901800000000    0.3403221100000000    0.1244834100000000    T  T  T
    0.8360157000000000    0.3349392400000000    0.1203170300000000    T  T  T
    0.5719467400000000    0.5928171900000000    0.1215288300000000    T  T  T
    0.0639449900000000    0.5965508800000000    0.1207646700000000    T  T  T
    0.0879175800000000    0.0802031900000000    0.1190218400000000    T  T  T
    0.5738104600000000    0.0977474800000000    0.1218458600000000    T  T  T
    0.3280706100000000    0.8348992500000000    0.1225252200000000    T  T  T
    0.0801046300000000    0.8404303200000000    0.1228029800000000    T  T  T
    0.3222068800000000    0.3505104500000000    0.1209987600000000    T  T  T
    0.5919944600000000    0.3370575900000000    0.1200636500000000    T  T  T
    0.9093135300000000    0.6737645000000000    0.1831809500000000    T  T  T
    0.9126973400000000    0.4246179600000000    0.1866796200000000    T  T  T
    0.6645683700000000    0.6666828800000000    0.1812179500000000    T  T  T
    0.1715048200000000    0.1667711100000000    0.1852490500000000    T  T  T
    0.9200703900000000    0.1696439600000000    0.1841488700000000    T  T  T
    0.9097917300000000    0.9289310900000000    0.1817396600000000    T  T  T
    0.4051836000000000    0.9213037900000000    0.1814545600000000    T  T  T
    0.4202817000000000    0.1721522400000000    0.1863765300000000    T  T  T
    0.6501178800000000    0.1888914600000000    0.1843782200000000    T  T  T
    0.1574091400000000    0.6807279600000000    0.1834976900000000    T  T  T
    0.4151904000000000    0.6682613200000000    0.1856588000000000    T  T  T
    0.4076200600000000    0.4236050800000000    0.1835593000000000    T  T  T
    0.6562157500000000    0.9314887800000000    0.1839107000000000    T  T  T
    0.1531012800000000    0.4334823200000000    0.1821691300000000    T  T  T
    0.6546500700000000    0.4343603000000000    0.1818391700000000    T  T  T
    0.1641392000000000    0.9249023800000000    0.1844733800000000    T  T  T
    1.0117614500000001    0.2556761900000000    0.2485523600000000    T  T  T
    0.5031363400000000    0.2588688500000000    0.2454265700000000    T  T  T
    0.9915427800000000    0.7581680300000000    0.2446058200000000    T  T  T
    0.4911931400000000    0.7568669200000000    0.2447492400000000    T  T  T
    0.7424583800000000    0.7540628200000000    0.2415829200000000    T  T  T
    1.0091220999999999    0.5076711400000000    0.2505177800000000    T  T  T
    0.7550603200000000    0.5008757700000001    0.2531864300000000    T  T  T
    0.2459670600000000    0.0160572900000000    0.2470404400000000    T  T  T
    1.0064446400000000    1.0015249799999999    0.2426705900000000    T  T  T
    0.5082686000000000    1.0038946099999999    0.2506095000000000    T  T  T
    0.2382616800000000    0.7706082900000000    0.2454720700000000    T  T  T
    0.7546006400000000    0.0060699100000000    0.2437294100000000    T  T  T
    0.2517676100000000    0.2584966900000000    0.2423823400000000    T  T  T
    0.7508646600000000    0.2646932600000000    0.2434063100000000    T  T  T
    0.2551860200000000    0.4993221000000000    0.2444909200000000    T  T  T
    0.5179763100000000    0.4906251400000000    0.2485705300000000    T  T  T
    0.9970724600000000    0.2558556800000000    0.0591330300000000    F  F  F
    0.4999617900000000    0.2500875900000000    0.0594854500000000    F  F  F
    0.9968841700000000    0.7476992000000000    0.0595123700000000    F  F  F
    0.5054474500000000    0.7476859100000000    0.0599706800000000    F  F  F
    0.7507219900000000    0.7486395200000000    0.0599869200000000    F  F  F
    0.9979410800000000    0.5014025600000001    0.0599954500000000    F  F  F
    0.7507273000000000    0.5014379000000000    0.0601539400000000    F  F  F
    0.2484077800000000    0.9989653800000000    0.0601723600000000    F  F  F
    0.0026835400000000    0.9989392800000000    0.0602141100000000    F  F  F
    0.5037179000000001    0.9979203300000000    0.0602187800000000    F  F  F
    0.2483221600000000    0.7533767800000000    0.0603571800000000    F  F  F
    0.7484136200000000    0.9978805200000000    0.0603966000000000    F  F  F
    0.2473094800000000    0.2543786800000000    0.0604625600000000    F  F  F
    0.7483561600000000    0.2543461600000000    0.0604678400000000    F  F  F
    0.2472921900000000    0.4989472600000000    0.0606285500000000    F  F  F
    0.5037960400000000    0.4989156700000000    0.0606927000000000    F  F  F
    0.5976440000000000    0.8138371400000000    0.2850616100000000    T  T  T
    0.8365675100000000    0.0890613100000000    0.2793825400000000    T  T  T
    0.3363536300000000    0.5864693200000000    0.2839288600000000    T  T  T
    0.3859380100000000    0.3793703600000000    0.5651209300000000    T  T  T
    0.5648522000000000    0.8588460999999999    0.4680818000000000    T  T  T
    0.4613834900000000    0.6398241500000000    0.4884382500000000    T  T  T
    0.0929239300000000    0.7908035500000000    0.4562645600000000    T  T  T
    0.9788141200000000    0.7931510899999999    0.3075710400000000    T  T  T
    0.3367150000000000    0.1282099400000000    0.5850647900000000    T  T  T
    1.0045050900000001    0.5170894300000000    0.3121262600000000    T  T  T
    0.3793974700000000    0.4944416400000000    0.3631316800000000    T  T  T
    0.5545203300000000    0.5971079200000000    0.3911260400000000    T  T  T
    0.9230679899999999    0.0637110600000000    0.5014889800000000    T  T  T
    0.2058709000000000    0.4805376100000000    0.5013859600000000    T  T  T
    0.8802030600000000    0.7083955000000000    0.5767714000000000    T  T  T
    0.3740748900000000    0.6749471300000000    0.5690134800000000    T  T  T
    0.7103137100000000    0.9784436399999999    0.3578619500000000    T  T  T
    0.8209769099999999    0.7745988000000000    0.4184343200000000    T  T  T
    0.3893836000000000    0.3327425600000000    0.4371315900000000    T  T  T
    1.0362916300000000    0.2675482100000000    0.3904252800000000    T  T  T
    0.7595893200000000    0.4841115800000000    0.3234140800000000    T  T  T
    0.1582626300000000    0.1757691300000000    0.5069528000000000    T  T  T
    0.8169808300000000    0.5107865700000001    0.4371614300000000    T  T  T
    0.8131569900000000    0.4045504600000000    0.5788085600000000    T  T  T
    1.0421883000000001   -0.1376290100000000    0.5704278600000000    T  T  T
    0.3550903000000000    0.0425585700000000    0.4170991400000000    T  T  T
    1.1548732300000000   -0.2066918000000000    0.3748034800000000    T  T  T
    0.7971387100000000    0.2124330100000000    0.3510429500000000    T  T  T
    0.5939344600000001   -0.0437333200000000    0.5447699400000000    T  T  T
    0.9314590500000000    0.5010444700000000    0.5182504700000000    T  T  T
    0.2658384600000000   -0.0827414700000000    0.6199395700000000    T  T  T
    0.5993705400000000    0.3162420900000000    0.5034346700000000    T  T  T
    0.3929702100000000   -0.1379460400000000    0.3496458700000000    T  T  T
    0.2645161100000000    0.2428705900000000    0.3520991300000000    T  T  T
    0.4542442000000000    0.1463958700000000    0.3048427200000000    T  T  T
    0.3402746400000000    0.3339245100000000    0.5835963100000000    T  T  T
    0.3186831300000000    0.4022456500000000    0.5401528100000000    T  T  T
    0.5851597800000000   -0.1098432200000000    0.4967081200000000    T  T  T
    0.6663419400000000    0.8173418700000000    0.4549326000000000    T  T  T
    0.3658983800000000    0.6877720000000000    0.4712992300000000    T  T  T
    0.4950534100000000    0.7157606200000000    0.4815423300000000    T  T  T
    0.1044705500000000    0.8110405400000000    0.4274781800000000    T  T  T
    1.0336129999999999   -0.1037279800000000    0.4695526600000000    T  T  T
   -0.1317256800000000    0.8803554600000000    0.3142639500000000    T  T  T
    1.0587947900000001    0.7828992500000000    0.3281317100000000    T  T  T
    0.2805780300000000    0.1575470700000000    0.5585342400000000    T  T  T
    0.3041991800000000    0.0609619500000000    0.5985201300000000    T  T  T
    0.1611945900000000    0.2655481800000000    0.3625163900000000    T  T  T
    0.9548798200000000    0.6323162800000000    0.3160835500000000    T  T  T
    0.3584053700000000    0.5077014200000000    0.3336454800000000    T  T  T
    0.4738300500000000    0.5009412300000000    0.3706219700000000    T  T  T
    0.5013367100000000    0.7011368800000000    0.3808980100000000    T  T  T
    0.6293699699999999    0.5742029600000000    0.4149415200000000    T  T  T
    0.8047668800000000    0.1303682600000000    0.5044757900000000    T  T  T
    0.9654562000000000   -0.0002437800000000    0.5274949900000000    T  T  T
    0.1679345000000000    0.5913634800000001    0.4970776400000000    T  T  T
    0.2737864100000000    0.4367159600000000    0.4759021600000000    T  T  T
    0.7691934600000000    0.7897480800000000    0.5732483500000000    T  T  T
    0.8944700400000000    0.6411010700000001    0.5536643700000000    T  T  T
    0.3918768200000000    0.6687435900000001    0.5385458300000000    T  T  T
    0.3802768200000000    0.5723042300000000    0.5738034900000000    T  T  T
    0.6093963700000000    1.0358675100000001    0.3406955400000000    T  T  T
    0.7524083000000000    0.0473376100000000    0.3577090100000000    T  T  T
    0.7752945700000000    0.8542387700000000    0.3944210300000000    T  T  T
    0.9160997700000000    0.7646669100000000    0.4296572500000000    T  T  T
    0.5007537700000000    0.3032329000000000    0.4441680700000000    T  T  T
    0.3951772100000000    0.3511801400000000    0.4064394000000000    T  T  T
    0.0953489200000000    0.1870715200000000    0.4092297000000000    T  T  T
    0.9392388800000000    0.3654295500000000    0.4037374500000000    T  T  T
    0.6789499600000000    0.5649012900000000    0.3412133200000000    T  T  T
    0.7425454200000000    0.3962253200000000    0.3333286000000000    T  T  T
    1.0741331500000000    0.1544558300000000    0.5020041700000000    T  T  T
    0.2084270900000000    0.1502499700000000    0.4807325400000000    T  T  T
    0.8171285800000000    0.6139007200000000    0.4275071000000000    T  T  T
    0.8511576100000000    0.4854627900000000    0.4658852200000000    T  T  T
    0.6978987900000000    0.4714622000000000    0.5751906500000000    T  T  T
    0.8371759600000001    0.4405000900000000    0.6036918600000000    T  T  T
    1.1483462000000000   -0.2257143600000000    0.5681990200000000    T  T  T
    0.9792315700000001   -0.1944217200000000    0.5762273400000000    T  T  T
    0.4377051200000000   -0.0121214900000000    0.4408489500000000    T  T  T
    0.3653117800000000    0.1412180900000000    0.4149420600000000    T  T  T
    0.2192258800000000    0.6751398400000000    0.3761364200000000    T  T  T
    1.2371751099999999   -0.1792058800000000    0.3744390300000000    T  T  T
    0.8318085500000000    0.1490491800000000    0.3238219300000000    T  T  T
    0.8933958900000000    0.1744549200000000    0.3683948900000000    T  T  T
    0.4879187600000000    0.0340206400000000    0.5608554500000000    T  T  T
    0.6558640100000001    0.0088901100000000    0.5457041800000000    T  T  T
    0.9296305900000000    0.4261942500000000    0.5411148800000000    T  T  T
    1.0433960799999999    0.4517601000000000    0.5113825200000000    T  T  T
    0.1574084500000000   -0.0590049000000000    0.6108626200000000    T  T  T
    0.3349656900000000   -0.1776423900000000    0.6041678200000000    T  T  T
    0.5354777500000000    0.3162512200000000    0.5254836100000000    T  T  T
    0.5743783200000000    0.4265265500000000    0.5012332800000000    T  T  T
    0.3910864700000000   -0.0591299100000000    0.3683744700000000    T  T  T
    0.4677683300000000   -0.1453012900000000    0.3282208400000000    T  T  T
    0.9167598900000000    0.4992305200000000    0.3195787800000000    T  T  T
    0.1087513300000000    0.1780477500000000    0.3078316200000000    T  T  T
    0.3117800200000000    0.1831081600000000    0.3163605400000000    T  T  T
    0.2078594800000000    0.1626328700000000    0.2898275400000000    T  T  T

   0.000000000000000    0.000000000000000    0.000000000000000
   0.000000000000000    0.000000000000000    0.000000000000000
   0.000000000000000    0.000000000000000    0.000000000000000
   0.000000000000000    0.000000000000000    0.000000000000000
   0.000000000000000    0.000000000000000    0.000000000000000
   0.000000000000000    0.000000000000000    0.000000000000000
   0.000000000000000    0.000000000000000    0.000000000000000
   0.000000000000000    0.000000000000000    0.000000000000000
   0.000000000000000    0.000000000000000    0.000000000000000
   0.000000000000000    0.000000000000000    0.000000000000000
   0.000000000000000    0.000000000000000    0.000000000000000
   0.000000000000000    0.000000000000000    0.000000000000000
   0.000000000000000    0.000000000000000    0.000000000000000
   0.000000000000000    0.000000000000000    0.000000000000000
   0.000000000000000    0.000000000000000    0.000000000000000
   0.000000000000000    0.000000000000000    0.000000000000000
  -0.003453243690000    0.000129472645770   -0.001230057002521
   0.000493671570000   -0.002615415543251   -0.002311886524060
   0.000558888312000    0.000119683458220    0.001254156347980
   0.002048749302000    0.001107199673590    0.000844137347141
   0.002697869670000   -0.002417929324850   -0.000330128019999
  -0.000623417009999   -0.001214114626309    0.000343333140799
   0.002545123902001   -0.001061403300530   -0.001857300240519
  -0.000572010294000   -0.001666289967750   -0.001155448070000
   0.003407587055999    0.002445083679880   -0.001916063028081
   0.000857695992000    0.000653236741380    0.004466632110600
  -0.001176506094001   -0.002191501160650    0.001295092222459
  -0.000611916846000    0.001151974566210    0.001292451198299
  -0.002667988902001    0.001938684751750    0.002190069284680
  -0.000544046220000    0.000167012051940   -0.000864935412401
   0.000933626561999   -0.003784159413350    0.000642759254940
   0.000994764185999   -0.000029367562650    0.002003216825360
  -0.002932640112000   -0.001478763183640   -0.001200675608741
   0.000864920454001    0.001800444398870   -0.000752031629560
   0.003717059418001   -0.002139235411470    0.000157471065540
  -0.002511606330000    0.004832538838270   -0.001768825931160
   0.000839462826001   -0.002952163594970    0.003471296130300
   0.003102636126004   -0.001599042505450    0.002267319241360
   0.001200243611999   -0.002267175836581   -0.000936243064722
  -0.000061530792000   -0.002951567731380   -0.000125118519581
  -0.002505315641997   -0.004012800785167    0.001439358167200
  -0.000057205944000   -0.001627218340920    0.002655219664861
  -0.001143774858000   -0.000651278903869    0.001008210973081
  -0.000581593764001    0.000727804813500   -0.000965294330481
   0.003810485964000    0.001841729233320    0.003102873259978
   0.002495486442001    0.002033682432670    0.001995293752881
  -0.002171761740001   -0.000210935710860    0.001160730118320
  -0.000972501048000    0.002966208951020   -0.001649319587921
   0.000000000000000    0.000000000000000    0.000000000000000
   0.000000000000000    0.000000000000000    0.000000000000000
   0.000000000000000    0.000000000000000    0.000000000000000
   0.000000000000000    0.000000000000000    0.000000000000000
   0.000000000000000    0.000000000000000    0.000000000000000
   0.000000000000000    0.000000000000000    0.000000000000000
   0.000000000000000    0.000000000000000    0.000000000000000
   0.000000000000000    0.000000000000000    0.000000000000000
   0.000000000000000    0.000000000000000    0.000000000000000
   0.000000000000000    0.000000000000000    0.000000000000000
   0.000000000000000    0.000000000000000    0.000000000000000
   0.000000000000000    0.000000000000000    0.000000000000000
   0.000000000000000    0.000000000000000    0.000000000000000
   0.000000000000000    0.000000000000000    0.000000000000000
   0.000000000000000    0.000000000000000    0.000000000000000
   0.000000000000000    0.000000000000000    0.000000000000000
  -0.000488855261999   -0.003737171313110   -0.000710435499039
   0.000477355098001   -0.000982068319690    0.005897737077300
   0.002727553854000    0.000869364977810   -0.005535256511342
   0.000184690668000   -0.001017224271500   -0.001645027923654
   0.005931578178000   -0.001919446870129    0.002060989228861
  -0.001793878146001   -0.000374627951370   -0.000896297574300
   0.008529583176000    0.003086232902721   -0.008792299556660
  -0.010173615168002   -0.001781802380839   -0.003868770266381
  -0.001126573758000    0.000485288332370    0.002523828712899
   0.005381978460001   -0.007542271075479    0.002050755260241
   0.007800256536000   -0.008626061822320   -0.000560887505980
  -0.001735787574001    0.002360726420210    0.001672758677339
  -0.005323494720001   -0.005628357224400   -0.007122842159518
  -0.003561610619999    0.005505439078120    0.002839431100018
   0.007318920612001    0.007843437558541   -0.004716539021743
  -0.001091729243999   -0.002687344790899    0.000422233737581
  -0.000908119787997   -0.003958406951741   -0.006790073115360
  -0.002606605547999   -0.004669187091241    0.003350139146960
   0.008270141442000   -0.004984228683610    0.003344857098639
   0.005814610698000    0.001962519295350   -0.004861135094501
  -0.002128709843998   -0.005473092197520   -0.001382906275779
   0.004081575300000    0.003283548874380    0.001148845509597
  -0.004142958654002    0.007456551841890   -0.000803201472662
  -0.001289738478000   -0.002892917729450   -0.003124001453259
   0.003740993519999   -0.000431575485900   -0.001804149629301
  -0.004532342412000    0.000635701327160   -0.002052405900338
  -0.000733209173999   -0.001576059195550   -0.006740884040381
  -0.000044231400000    0.004219395204160   -0.003798452998119
   0.004192055507999   -0.004358827284220   -0.002857588141119
   0.001886911524000   -0.003090489071219    0.007744143093159
  -0.000416315766000    0.001622536555570    0.002367017903399
   0.000548125338001    0.001536561951870   -0.002023684762598
  -0.000782109444000   -0.006832171922940    0.003763789556020
  -0.000318908394000   -0.005880918263190   -0.000446002955020
  -0.002685190002000    0.004663483825450   -0.004519122465780
   0.009663332250000   -0.023235700692050   -0.006474800856260
  -0.006420335147999    0.017735624386240    0.019148745672080
   0.011690260728000   -0.001824193819100    0.017268666598181
   0.011197473786000    0.000367137094810   -0.024480643323100
   0.001307578475999    0.009348588986880    0.012435262257359
   0.011610398478000   -0.023501115359710    0.000920066791739
  -0.009635073299999    0.003918228721099   -0.027783244035181
   0.023094688320001   -0.000156627000800   -0.007157505601620
  -0.012915568800000   -0.026109550786621    0.001753970170261
  -0.012700309320000    0.015809793263360    0.024469749098440
   0.003058945332000    0.033278130267800    0.000165394138023
   0.006281448552000   -0.002166049273020    0.013216675280695
   0.006530864501999   -0.015714369965590    0.010365359571958
  -0.001092171558001   -0.000724144508589    0.004348446279440
  -0.001783360902000   -0.015813794061750    0.015948484646200
   0.003878749757999   -0.020865525577770   -0.002787931128900
  -0.002042065446000    0.006718361977250    0.008421565790201
  -0.022252473317998   -0.020161895801350   -0.019145114263859
  -0.001031132226000    0.000492608942190   -0.005891794772939
   0.002681012592001   -0.005813755924260    0.012074102203481
   0.002802894672000   -0.004590533097360    0.000891345654001
  -0.005197336938000   -0.011685310616750   -0.000441051034722
  -0.013190000064000   -0.002622821276439   -0.011060939310102
   0.009646032858001    0.004710301678949    0.016755647655099
  -0.004390605348001   -0.001798656808100    0.023824348819339
  -0.002550333377999   -0.017773504285890    0.007600537404457
   0.002824076598001    0.001123373113890    0.004683856347759
   0.008738060508001    0.018052283322640    0.016341667118020
  -0.001512369858000    0.008184697148870    0.006930707651881
   0.022300685544000   -0.010576578722500    0.008359171594421
  -0.004588565436000   -0.001668077558520   -0.009052440436422
   0.004101479430000   -0.000109043036970    0.003366645547960
   0.006930765504000   -0.000083931642820   -0.015667875829200
   0.011987544882000    0.005052667873090    0.011070843150700
   0.006507323568000   -0.019547219946580   -0.012951252352620
  -0.021293290836001    0.003979517547500   -0.018202928894780
  -0.007033677227998   -0.002801920846920   -0.034706028614579
   0.003657003006000   -0.011800737906470   -0.008686988718280
  -0.024623669525999    0.027246884133191    0.000727272028060
   0.012161816598001   -0.018843164553310    0.021567263546601
   0.014463127194000    0.000763301258790    0.014210360620901
   0.006714179082000   -0.024926421066990   -0.011867772190978
   0.010112723274002   -0.023008421294150    0.001383896659842
  -0.004018815858000    0.033848201476690    0.012147390623923
  -0.014968495512000    0.008667431780140   -0.017719951601521
   0.006227486244000   -0.018657169989860   -0.005784833294461
  -0.001246588290000    0.008497951150470   -0.001533774780921
   0.004577311002002    0.008656280618670   -0.006800967340020
  -0.011209809431998    0.001490850702180    0.020839001134481
   0.003808815000001   -0.008945614953300   -0.010714304889101
   0.007078547526000    0.015885467939290    0.003681257551019
   0.003864300834000   -0.006826979397370    0.002457142852865
  -0.000556676742001    0.011045182874350    0.007166419058159
  -0.006077984112000    0.007347849298400   -0.001011182125257
  -0.011873329578000   -0.017533286135750   -0.010464728105983
  -0.004409280828000    0.019738236788860    0.001728550312720
  -0.004189794792000   -0.017917958644780    0.018425435180259
  -0.009061097166001   -0.015814645295450   -0.021870321068960
   0.029351318142000    0.016056736159730    0.016784038664820
  -0.007038149514000   -0.004203306887230    0.014514078399300
   0.028735961076000    0.001110008744800   -0.016673445778119
   0.012410888526000   -0.021540724148610    0.001501422234961
   0.000148126044000   -0.003101214615840    0.000711095755079
   0.006496658886000    0.002568257196270   -0.007162787649939