Ni                                      
   1.00000000000000     
     9.7777999999999992    0.0000000000000000    0.0000000000000006
    -4.8888999999999987    8.4678231931234844    0.0000000000000006
     0.0000000000000000    0.0000000000000000   20.9877000000000002
   Ni   C    O 
    64     1     1
Selective dynamics
Direct
  0.9999985999999979  0.0000014000000021  0.9987795999999989   F   F   F
  0.3333353000000017  0.1666680000000014  0.0946606999999986   F   F   F
  0.1673447273166843  0.3345951836138238  0.1909301759620121   T   T   T
  0.0003090192306816  0.0004431040896122  0.2866852412341597   T   T   T
  0.2499985999999979  0.0000014000000021  0.9987795999999989   F   F   F
  0.0833319999999986  0.1666680000000014  0.0946606999999986   F   F   F
  0.4165454451534236  0.3336912806394445  0.1905230021403074   T   T   T
  0.2502568552904753  0.0004086890244352  0.2864934915004292   T   T   T
  0.2499985999999979  0.2500014000000021  0.9987795999999989   F   F   F
  0.0833319999999986  0.4166680000000014  0.0946606999999986   F   F   F
  0.4165354961493618  0.0832668374714272  0.1904361994354547   T   T   T
  0.2502615587762314  0.2506858857045369  0.2865907658920728   T   T   T
  0.9999985999999979  0.2500014000000021  0.9987795999999989   F   F   F
  0.3333353000000017  0.4166680000000014  0.0946606999999986   F   F   F
  0.1668460422327259  0.0837500295722327  0.1906179762042700   T   T   T
  0.0006192472421820  0.2507549343036309  0.2865967701309777   T   T   T
  0.4999985999999979  0.0000014000000021  0.9987795999999989   F   F   F
  0.8333319999999986  0.1666680000000014  0.0946606999999986   F   F   F
  0.6667667458583956  0.3334757124149343  0.1904285995955231   T   T   T
  0.5019113316257691  0.0034994385397070  0.2861144297844750   T   T   T
  0.7499985999999979  0.0000014000000021  0.9987795999999989   F   F   F
  0.5833319999999986  0.1666680000000014  0.0946606999999986   F   F   F
  0.9171909904637320  0.3337235824003562  0.1905336163153081   T   T   T
  0.7504137699716531  0.0004778016213164  0.2865214302204607   T   T   T
  0.7499985999999979  0.2500014000000021  0.9987795999999989   F   F   F
  0.5833319999999986  0.4166680000000014  0.0946606999999986   F   F   F
  0.9170218520509569  0.0838143020259526  0.1906385790284305   T   T   T
  0.7505091767523410  0.2503903750527525  0.2865729355035661   T   T   T
  0.4999985999999979  0.2500014000000021  0.9987795999999989   F   F   F
  0.8333319999999986  0.4166680000000014  0.0946606999999986   F   F   F
  0.6668014057594857  0.0832451205428917  0.1904712281323541   T   T   T
  0.5000533983956622  0.2503531370203708  0.2865668578631973   T   T   T
  0.9999985999999979  0.5000014000000021  0.9987795999999989   F   F   F
  0.3333353000000017  0.6666646999999983  0.0946606999999986   F   F   F
  0.1670609033191847  0.8332626511695268  0.1907139540753274   T   T   T
 -0.0022849240517939  0.4992865761990058  0.2862706908977444   T   T   T
  0.2499985999999979  0.5000014000000021  0.9987795999999989   F   F   F
  0.0833319999999986  0.6666646999999983  0.0946606999999986   F   F   F
  0.4167229121433225  0.8333121187164798  0.1903903783002316   T   T   T
  0.2504575543092238  0.5004950597820124  0.2899602688974501   T   T   T
  0.2499985999999979  0.7500014000000021  0.9987795999999989   F   F   F
  0.0833319999999986  0.9166680000000014  0.0946606999999986   F   F   F
  0.4167868232148353  0.5838189182675969  0.1905603001184683   T   T   T
  0.2502364647006691  0.7513796510838047  0.2895032885077946   T   T   T
  0.9999985999999979  0.7500014000000021  0.9987795999999989   F   F   F
  0.3333353000000017  0.9166680000000014  0.0946606999999986   F   F   F
  0.1671825963833644  0.5837954479774977  0.1905728251281375   T   T   T
  0.0004102068397590  0.7504851433488622  0.2865273024446312   T   T   T
  0.4999985999999979  0.5000014000000021  0.9987795999999989   F   F   F
  0.8333319999999986  0.6666646999999983  0.0946606999999986   F   F   F
  0.6662816916518953  0.8333639582647102  0.1907208124786030   T   T   T
  0.5018837413869246  0.4991997845166627  0.2862953562463876   T   T   T
  0.7499985999999979  0.5000014000000021  0.9987795999999989   F   F   F
  0.5833319999999986  0.6666646999999983  0.0946606999999986   F   F   F
  0.9168919883648825  0.8336966277577006  0.1905964467684060   T   T   T
  0.7504493177999455  0.5006049141592429  0.2865774592267578   T   T   T
  0.7499985999999979  0.7500014000000021  0.9987795999999989   F   F   F
  0.5833319999999986  0.9166680000000014  0.0946606999999986   F   F   F
  0.9171321804176613  0.5837661653896172  0.1905252148093809   T   T   T
  0.7502955857975724  0.7504931682945034  0.2865268729833131   T   T   T
  0.4999985999999979  0.7500014000000021  0.9987795999999989   F   F   F
  0.8333319999999986  0.9166680000000014  0.0946606999999986   F   F   F
  0.6667973686798390  0.5838595185328158  0.1905241873564153   T   T   T
  0.5014750281895356  0.7512842991356073  0.2894468645201849   T   T   T
  0.3349357574295544  0.6691965830873605  0.3528241081574672   T   T   T
  0.3358260539948706  0.6707162212861240  0.4096969593910108   T   T   T
 
  0.00000000E+00  0.00000000E+00  0.00000000E+00
  0.00000000E+00  0.00000000E+00  0.00000000E+00
  0.00000000E+00  0.00000000E+00  0.00000000E+00
  0.00000000E+00  0.00000000E+00  0.00000000E+00
  0.00000000E+00  0.00000000E+00  0.00000000E+00
  0.00000000E+00  0.00000000E+00  0.00000000E+00
  0.00000000E+00  0.00000000E+00  0.00000000E+00
  0.00000000E+00  0.00000000E+00  0.00000000E+00
  0.00000000E+00  0.00000000E+00  0.00000000E+00
  0.00000000E+00  0.00000000E+00  0.00000000E+00
  0.00000000E+00  0.00000000E+00  0.00000000E+00
  0.00000000E+00  0.00000000E+00  0.00000000E+00
  0.00000000E+00  0.00000000E+00  0.00000000E+00
  0.00000000E+00  0.00000000E+00  0.00000000E+00
  0.00000000E+00  0.00000000E+00  0.00000000E+00
  0.00000000E+00  0.00000000E+00  0.00000000E+00
  0.00000000E+00  0.00000000E+00  0.00000000E+00
  0.00000000E+00  0.00000000E+00  0.00000000E+00
  0.00000000E+00  0.00000000E+00  0.00000000E+00
  0.00000000E+00  0.00000000E+00  0.00000000E+00
  0.00000000E+00  0.00000000E+00  0.00000000E+00
  0.00000000E+00  0.00000000E+00  0.00000000E+00
  0.00000000E+00  0.00000000E+00  0.00000000E+00
  0.00000000E+00  0.00000000E+00  0.00000000E+00
  0.00000000E+00  0.00000000E+00  0.00000000E+00
  0.00000000E+00  0.00000000E+00  0.00000000E+00
  0.00000000E+00  0.00000000E+00  0.00000000E+00
  0.00000000E+00  0.00000000E+00  0.00000000E+00
  0.00000000E+00  0.00000000E+00  0.00000000E+00
  0.00000000E+00  0.00000000E+00  0.00000000E+00
  0.00000000E+00  0.00000000E+00  0.00000000E+00
  0.00000000E+00  0.00000000E+00  0.00000000E+00
  0.00000000E+00  0.00000000E+00  0.00000000E+00
  0.00000000E+00  0.00000000E+00  0.00000000E+00
  0.00000000E+00  0.00000000E+00  0.00000000E+00
  0.00000000E+00  0.00000000E+00  0.00000000E+00
  0.00000000E+00  0.00000000E+00  0.00000000E+00
  0.00000000E+00  0.00000000E+00  0.00000000E+00
  0.00000000E+00  0.00000000E+00  0.00000000E+00
  0.00000000E+00  0.00000000E+00  0.00000000E+00
  0.00000000E+00  0.00000000E+00  0.00000000E+00
  0.00000000E+00  0.00000000E+00  0.00000000E+00
  0.00000000E+00  0.00000000E+00  0.00000000E+00
  0.00000000E+00  0.00000000E+00  0.00000000E+00
  0.00000000E+00  0.00000000E+00  0.00000000E+00
  0.00000000E+00  0.00000000E+00  0.00000000E+00
  0.00000000E+00  0.00000000E+00  0.00000000E+00
  0.00000000E+00  0.00000000E+00  0.00000000E+00
  0.00000000E+00  0.00000000E+00  0.00000000E+00
  0.00000000E+00  0.00000000E+00  0.00000000E+00
  0.00000000E+00  0.00000000E+00  0.00000000E+00
  0.00000000E+00  0.00000000E+00  0.00000000E+00
  0.00000000E+00  0.00000000E+00  0.00000000E+00
  0.00000000E+00  0.00000000E+00  0.00000000E+00
  0.00000000E+00  0.00000000E+00  0.00000000E+00
  0.00000000E+00  0.00000000E+00  0.00000000E+00
  0.00000000E+00  0.00000000E+00  0.00000000E+00
  0.00000000E+00  0.00000000E+00  0.00000000E+00
  0.00000000E+00  0.00000000E+00  0.00000000E+00
  0.00000000E+00  0.00000000E+00  0.00000000E+00
  0.00000000E+00  0.00000000E+00  0.00000000E+00
  0.00000000E+00  0.00000000E+00  0.00000000E+00
  0.00000000E+00  0.00000000E+00  0.00000000E+00
  0.00000000E+00  0.00000000E+00  0.00000000E+00
  0.00000000E+00  0.00000000E+00  0.00000000E+00
  0.00000000E+00  0.00000000E+00  0.00000000E+00
