 Ni\(1\1\1)                             
   1.00000000000000     
     9.8291997910000006    0.0000000000000000    0.0000000000000000
     4.9145998955000003    8.5123367178000002    0.0000000000000000
     0.0000000000000000    0.0000000000000000   19.0128002167000005
   Ni   O 
    64     3
Selective dynamics
Direct
  0.8327397982862864  0.5848465444452611  0.2711432971281213   T   T   T
  0.3327867970412733  0.0844697908298400  0.2704246667867686   T   T   T
  0.8330972868276963  0.0844843352484149  0.2705219085766014   T   T   T
  0.3327105807981292  0.5848667487998227  0.2707229051095409   T   T   T
  0.5829189836470596  0.8349167137074731  0.2711634833797979   T   T   T
  0.8327777999030721  0.8347151105934671  0.2711151276667359   T   T   T
  0.0826775865542523  0.3346015173141086  0.2708706595248964   T   T   T
  0.8330727509681549  0.3345142248692651  0.2709999748907567   T   T   T
  0.5830215580803840  0.5844401250743603  0.2713987477743225   T   T   T
  0.0826841152250367  0.5845832218579378  0.2711662011885352   T   T   T
  0.0827012554095585  0.0848529581696286  0.2705956111989037   T   T   T
  0.5829693910541385  0.0844429168521879  0.2714003015824100   T   T   T
  0.3330761325472522  0.8346146023284459  0.2709239981616730   T   T   T
  0.0825572286757948  0.8344835645238300  0.2708239707911040   T   T   T
  0.3327263870735337  0.3345221046952712  0.2714989633640496   T   T   T
  0.5831073398836610  0.3344676451089990  0.2715477592735948   T   T   T
  0.9162975268416585  0.6679326635936791  0.3755191310301470   T   T   T
  0.9164035023386755  0.4175656216933418  0.3754082938248544   T   T   T
  0.6660802949461543  0.6679616173740791  0.3755513558567786   T   T   T
  0.1669654001592983  0.1668017118848734  0.3759636062234308   T   T   T
  0.9166480687544764  0.1667986566421112  0.3760960645346282   T   T   T
  0.9163818214782106  0.9183970330482280  0.3760922369956264   T   T   T
  0.4154906703534434  0.9183831840067018  0.3760466473303834   T   T   T
  0.4160477045040374  0.1672462914058556  0.3761960516867439   T   T   T
  0.6670598447679572  0.1671649101357642  0.3762467438247347   T   T   T
  0.1668193180020847  0.6677619082859123  0.3760741760061447   T   T   T
  0.4155855032605449  0.6677900930945465  0.3761624543571843   T   T   T
  0.4160460209197356  0.4183034453003566  0.3762032192926579   T   T   T
  0.6657414660898756  0.9188448622910049  0.3780758927345957   T   T   T
  0.1671341936224357  0.4169172013056694  0.3778883662460877   T   T   T
  0.6661345792608606  0.4168385364971327  0.3779642564947793   T   T   T
  0.1662792580782507  0.9174910875861514  0.3783424682984402   T   T   T
  0.9971314632239525  0.2557695677076442  0.4798494991334012   T   T   T
  0.4999380852340979  0.2503133129981666  0.4796814623345161   T   T   T
  0.9969914773528128  0.7473910395232505  0.4800097592955179   T   T   T
  0.5056349483763939  0.7473838416878658  0.4799776345191593   T   T   T
  0.7506039780652135  0.7487793878829629  0.4810681405899614   T   T   T
  0.9983095018899262  0.5009751612231900  0.4809568819496354   T   T   T
  0.7507833624720227  0.5010489597859197  0.4810197647144359   T   T   T
  0.2483249175968694  0.9985071171383247  0.4855321629733962   T   T   T
  0.0032412211988650  0.9984520380768263  0.4856164063599316   T   T   T
  0.5036774122162480  0.9975644588751805  0.4860758767110580   T   T   T
  0.2483209722186143  0.7533546801497887  0.4855288861621424   T   T   T
  0.7488189464883974  0.9975417107734935  0.4861728777340719   T   T   T
  0.2472035465669712  0.2539234160887371  0.4859239211073547   T   T   T
  0.7489346893826475  0.2539296065915172  0.4860880621389657   T   T   T
  0.2470777170778975  0.4991484604790173  0.4859900633449419   T   T   T
  0.5038122016092919  0.4991076528482833  0.4860447457440126   T   T   T
  0.9970725127721352  0.2558556885660437  0.1637004079999969   F   F   F
  0.4999617694590981  0.2500875882756475  0.1643123229999972   F   F   F
  0.9968841279129421  0.7476992103265090  0.1643590609999990   F   F   F
  0.5054475948340738  0.7476858577758136  0.1651548419999997   F   F   F
  0.7507219237869691  0.7486395196294708  0.1651830500000031   F   F   F
  0.9979411352497110  0.5014025775462372  0.1651978530000022   F   F   F
  0.7507273207667993  0.5014378828407473  0.1654730440000023   F   F   F
  0.2484077576181107  0.9989653127437563  0.1655050250000016   F   F   F
  0.0026835648815862  0.9989392751868493  0.1655775360000007   F   F   F
  0.5037179278764583  0.9979203429349397  0.1655856349999993   F   F   F
  0.2483221759410768  0.7533768050877114  0.1658259539999989   F   F   F
  0.7484136803928223  0.9978805553618955  0.1658943879999981   F   F   F
  0.2473094549500487  0.2543786783860540  0.1660089160000027   F   F   F
  0.7483561418300297  0.2543461482530631  0.1660180849999975   F   F   F
  0.2472922028403062  0.4989472696402402  0.1662971390000010   F   F   F
  0.5037960297639756  0.4989156868822988  0.1664085239999977   F   F   F
  0.3330551629035690  0.0834040809841862  0.5450136105892444   T   T   T
  0.8336951643434947  0.0832606887601251  0.5451136519702592   T   T   T
  0.3331165715146783  0.5836307475946310  0.5450399359731902   T   T   T
 
  0.00000000E+00  0.00000000E+00  0.00000000E+00
  0.00000000E+00  0.00000000E+00  0.00000000E+00
  0.00000000E+00  0.00000000E+00  0.00000000E+00
  0.00000000E+00  0.00000000E+00  0.00000000E+00
  0.00000000E+00  0.00000000E+00  0.00000000E+00
  0.00000000E+00  0.00000000E+00  0.00000000E+00
  0.00000000E+00  0.00000000E+00  0.00000000E+00
  0.00000000E+00  0.00000000E+00  0.00000000E+00
  0.00000000E+00  0.00000000E+00  0.00000000E+00
  0.00000000E+00  0.00000000E+00  0.00000000E+00
  0.00000000E+00  0.00000000E+00  0.00000000E+00
  0.00000000E+00  0.00000000E+00  0.00000000E+00
  0.00000000E+00  0.00000000E+00  0.00000000E+00
  0.00000000E+00  0.00000000E+00  0.00000000E+00
  0.00000000E+00  0.00000000E+00  0.00000000E+00
  0.00000000E+00  0.00000000E+00  0.00000000E+00
  0.00000000E+00  0.00000000E+00  0.00000000E+00
  0.00000000E+00  0.00000000E+00  0.00000000E+00
  0.00000000E+00  0.00000000E+00  0.00000000E+00
  0.00000000E+00  0.00000000E+00  0.00000000E+00
  0.00000000E+00  0.00000000E+00  0.00000000E+00
  0.00000000E+00  0.00000000E+00  0.00000000E+00
  0.00000000E+00  0.00000000E+00  0.00000000E+00
  0.00000000E+00  0.00000000E+00  0.00000000E+00
  0.00000000E+00  0.00000000E+00  0.00000000E+00
  0.00000000E+00  0.00000000E+00  0.00000000E+00
  0.00000000E+00  0.00000000E+00  0.00000000E+00
  0.00000000E+00  0.00000000E+00  0.00000000E+00
  0.00000000E+00  0.00000000E+00  0.00000000E+00
  0.00000000E+00  0.00000000E+00  0.00000000E+00
  0.00000000E+00  0.00000000E+00  0.00000000E+00
  0.00000000E+00  0.00000000E+00  0.00000000E+00
  0.00000000E+00  0.00000000E+00  0.00000000E+00
  0.00000000E+00  0.00000000E+00  0.00000000E+00
  0.00000000E+00  0.00000000E+00  0.00000000E+00
  0.00000000E+00  0.00000000E+00  0.00000000E+00
  0.00000000E+00  0.00000000E+00  0.00000000E+00
  0.00000000E+00  0.00000000E+00  0.00000000E+00
  0.00000000E+00  0.00000000E+00  0.00000000E+00
  0.00000000E+00  0.00000000E+00  0.00000000E+00
  0.00000000E+00  0.00000000E+00  0.00000000E+00
  0.00000000E+00  0.00000000E+00  0.00000000E+00
  0.00000000E+00  0.00000000E+00  0.00000000E+00
  0.00000000E+00  0.00000000E+00  0.00000000E+00
  0.00000000E+00  0.00000000E+00  0.00000000E+00
  0.00000000E+00  0.00000000E+00  0.00000000E+00
  0.00000000E+00  0.00000000E+00  0.00000000E+00
  0.00000000E+00  0.00000000E+00  0.00000000E+00
  0.00000000E+00  0.00000000E+00  0.00000000E+00
  0.00000000E+00  0.00000000E+00  0.00000000E+00
  0.00000000E+00  0.00000000E+00  0.00000000E+00
  0.00000000E+00  0.00000000E+00  0.00000000E+00
  0.00000000E+00  0.00000000E+00  0.00000000E+00
  0.00000000E+00  0.00000000E+00  0.00000000E+00
  0.00000000E+00  0.00000000E+00  0.00000000E+00
  0.00000000E+00  0.00000000E+00  0.00000000E+00
  0.00000000E+00  0.00000000E+00  0.00000000E+00
  0.00000000E+00  0.00000000E+00  0.00000000E+00
  0.00000000E+00  0.00000000E+00  0.00000000E+00
  0.00000000E+00  0.00000000E+00  0.00000000E+00
  0.00000000E+00  0.00000000E+00  0.00000000E+00
  0.00000000E+00  0.00000000E+00  0.00000000E+00
  0.00000000E+00  0.00000000E+00  0.00000000E+00
  0.00000000E+00  0.00000000E+00  0.00000000E+00
  0.00000000E+00  0.00000000E+00  0.00000000E+00
  0.00000000E+00  0.00000000E+00  0.00000000E+00
  0.00000000E+00  0.00000000E+00  0.00000000E+00
