 Ni_O                                   
   1.00000000000000     
    11.6149000000000004    0.0000000000000000    0.0000000000000000
     0.0000000000000000    9.3666000000000000    0.0000000000000000
     0.0000000000000000    0.0000000000000000   33.0127979999999965
   Ni   P    O    H    K 
    24    16    94    60     1
Selective dynamics
Direct
  0.1346800000000030  0.0081199999999981  0.0493700000000032   F   F   F
  0.3831276483273353  0.2826545548988881  0.3464251752204370   T   T   T
  0.3750346268359157  0.5062668925830951  0.1886111657869488   T   T   T
  0.1275830954310799  0.2371819026960837  0.2063234312395680   T   T   T
  0.2504434739915442  0.0157044348376342  0.2817996443136342   T   T   T
  0.2592799900000031  0.2515699900000001  0.1184900100000021   F   F   F
  0.6346799700000005  0.0081199999999981  0.0493700000000032   F   F   F
  0.8700396289666565  0.2611026630722763  0.3392019167542488   T   T   T
  0.8726346039015236  0.4991505460773313  0.1902665776530709   T   T   T
  0.6264942552576459  0.2514713157241928  0.2016985828923092   T   T   T
  0.7316229956926836  1.0131583944295319  0.2755304449680767   T   T   T
  0.7592800099999977  0.2515699900000001  0.1184900100000021   F   F   F
  0.1346800000000030  0.5081200199999998  0.0493700000000032   F   F   F
  0.4200993450903491  0.7724018649133331  0.3766543125373327   T   T   T
  0.3842919438577469  0.9919097666043890  0.1879667316057290   T   T   T
  0.1129286324773875  0.7422220037964774  0.1975971534415387   T   T   T
  0.2458154910835374  0.4921573179465147  0.2792523960474240   T   T   T
  0.2592799900000031  0.7515700100000018  0.1184900100000021   F   F   F
  0.6346799700000005  0.5081200199999998  0.0493700000000032   F   F   F
  0.8414586167735784  0.7528764810431687  0.3432205741927379   T   T   T
  0.8725062286516907  0.9945923268050297  0.1884971795825982   T   T   T
  0.6154722157255863  0.7435885129227429  0.2100379995461855   T   T   T
  0.7394744170483769  0.5157808506519208  0.2772419481570341   T   T   T
  0.7592800099999977  0.7515700100000018  0.1184900100000021   F   F   F
  0.1264949568686376  0.2827654031984815  0.3102597866776322   T   T   T
  0.3856599900000006  0.0401900000000026  0.0895700000000019   F   F   F
  0.3809514546302353  0.2189927755806313  0.2433024258644335   T   T   T
  0.1271568121569990  0.4611389996601482  0.1480021104469504   T   T   T
  0.6212218799027226  0.2990001977440526  0.3067716123671589   T   T   T
  0.8856599900000006  0.0401900000000026  0.0895700000000019   F   F   F
  0.8730825601969864  0.2145082394889263  0.2442550868085632   T   T   T
  0.6312028355129946  0.4683090585574791  0.1488717375831446   T   T   T
  0.1990088289170406  0.7060500898896207  0.4340923176662502   T   T   T
  0.3856599900000006  0.5401899700000001  0.0895700000000019   F   F   F
  0.3531054293241078  0.7166763531205297  0.2537123623167730   T   T   T
  0.1198346406652979  0.9600553409458655  0.1489064609985162   T   T   T
  0.6114324490193118  0.8073424118111966  0.3084934327703681   T   T   T
  0.8856599900000006  0.5401899700000001  0.0895700000000019   F   F   F
  0.8705573172405298  0.7194511113510564  0.2468848486840828   T   T   T
  0.6253042375678766  0.9580371900721220  0.1480237594633473   T   T   T
  1.0215538681722462  0.3535547861529519  0.3331443114227925   T   T   T
  0.1193190718812866  0.3344166748181744  0.2659621255702938   T   T   T
  0.1220351372498418  0.1241607671622382  0.1496111951455053   T   T   T
  0.2298696478869437  0.3624137938323351  0.3303163559059846   T   T   T
  0.4870899800000004  0.1014899999999983  0.0656600000000012   F   F   F
  0.3774075289935762  0.1031375288282075  0.1350780937901581   T   T   T
  0.3674046336722770  0.3867461750184356  0.2397942292978812   T   T   T
  0.2789900000000003  0.1186700000000016  0.0689899999999994   F   F   F
  0.4809060095457337  0.1577276258925277  0.2183441795979302   T   T   T
  0.3780693713865503  0.1620852980765032  0.2882460956593911   T   T   T
  0.3773300200000023  0.3781200100000035  0.0875899999999987   F   F   F
  0.2720456985993411  0.1303871645079809  0.2245083475165934   T   T   T
  0.0224576374849071  0.4130446991223264  0.1732372226827742   T   T   T
  0.1380499999999998  0.4057100200000008  0.1037800000000004   F   F   F
  0.1311360037208168  0.1141919178584417  0.3139690439162395   T   T   T
  0.2273663863071339  0.3726819921294286  0.1678644382938673   T   T   T
  0.5263464246457107  0.3608254656484837  0.3338941155459841   T   T   T
  0.6249410222065487  0.3498503712836974  0.2614417030372697   T   T   T
  0.6326725524512919  0.1201674892896379  0.1515775697804338   T   T   T
  0.7324608944370006  0.3786238703784942  0.3254797272292108   T   T   T
  0.9870900199999966  0.1014899999999983  0.0656600000000012   F   F   F
  0.8755954622283759  0.1037965858212144  0.1345029536468366   T   T   T
  0.8642313815477276  0.3766389826754463  0.2441176540541781   T   T   T
  0.7789900000000003  0.1186700000000016  0.0689899999999994   F   F   F
  0.9733052034362293  0.1500656065479309  0.2171179228880002   T   T   T
  0.8633089611528284  0.1639265235228703  0.2898871241356026   T   T   T
  0.8773299799999990  0.3781200100000035  0.0875899999999987   F   F   F
  0.7584816059585765  0.1304369380839152  0.2245360230462546   T   T   T
  0.5290965666941000  0.4016532635623225  0.1731453158941331   T   T   T
  0.6380499999999998  0.4057100200000008  0.1037800000000004   F   F   F
  0.6254161225522824  0.1347125799252893  0.3091602548253782   T   T   T
  0.7349158759703069  0.3822672713180484  0.1695894703971434   T   T   T
  0.2562391643070884  0.8247927354077702  0.4610597323465279   T   T   T
  0.0870872000691067  0.7602434734085727  0.4124213820281470   T   T   T
  0.1455469394618617  0.6217621223408094  0.1499789792207137   T   T   T
  0.2853294701335876  0.6758103407324456  0.3962179025471064   T   T   T
  0.4870899800000004  0.6014900099999991  0.0656600000000012   F   F   F
  0.3839851604442683  0.6044511171231631  0.1353846089143118   T   T   T
  0.3404575531280628  0.8816990947427658  0.2525967101956208   T   T   T
  0.2789900000000003  0.6186699699999991  0.0689899999999994   F   F   F
  0.4512600791869029  0.6632025347916299  0.2229609510282981   T   T   T
  0.3600140302807355  0.6418675391911975  0.2954089787258004   T   T   T
  0.3773300200000023  0.8781199599999994  0.0875899999999987   F   F   F
  0.2400203408762510  0.6409020188708116  0.2343982402622093   T   T   T
  0.0129983858650116  0.8900806808268409  0.1697524686212115   T   T   T
  0.1380499999999998  0.9057099899999983  0.1037800000000004   F   F   F
  0.1797297131764550  0.5711481794014064  0.4579089430250575   T   T   T
  0.2261661049554423  0.8845439064820009  0.1705753608992255   T   T   T
  0.5129893379566008  0.8614425002531847  0.3338423859021800   T   T   T
  0.6028718143055679  0.8600112252997292  0.2637994593861723   T   T   T
  0.6376685402011482  0.6272299593953258  0.1484831185915171   T   T   T
  0.7266482721354730  0.8861504010083900  0.3242818689877400   T   T   T
  0.9870900199999966  0.6014900099999991  0.0656600000000012   F   F   F
  0.8751629051636415  0.6015434823145391  0.1351050602902023   T   T   T
  0.8632079532095313  0.8881174712653550  0.2441971130942338   T   T   T
  0.7789900000000003  0.6186699699999991  0.0689899999999994   F   F   F
  0.9684063719130143  0.6598666005531199  0.2200069721634028   T   T   T
  0.8758858994663259  0.6626332497994560  0.2916243817476352   T   T   T
  0.8773299799999990  0.8781199599999994  0.0875899999999987   F   F   F
  0.7550143457419718  0.6415734997564720  0.2294787135155189   T   T   T
  0.5232887051120131  0.8884722075962419  0.1716980182583812   T   T   T
  0.6380499999999998  0.9057099899999983  0.1037800000000004   F   F   F
  0.6273302383156322  0.6446729307328676  0.3101991227865447   T   T   T
  0.7357611185449996  0.8822253336479159  0.1698737528493037   T   T   T
 -0.0124656694651015 -0.0465355269445078  0.3681571656005582   T   T   T
  0.0724480077333921  0.1713404580595400  0.5779561396018100   T   T   T
  0.5337690599828329  0.6081397143378320  0.3791819629405918   T   T   T
  0.4303796282103400  0.5478771009926080  0.5419127164460801   T   T   T
  0.9940127439094463  0.6964809110405645  0.5425889577670439   T   T   T
  0.3226202650052759  0.3564805451610051  0.4789313937169341   T   T   T
  0.3141660374321761  0.1065914785017970  0.3805840125097856   T   T   T
  0.3696992206652721  0.3975029852446817  0.3987117470600206   T   T   T
  0.9345288379879564  0.4048687790448982  0.5316052158649173   T   T   T
  0.7234011589607389  0.7374286998139322  0.5230643313222572   T   T   T
  0.5432117148304623  0.6612730110018176  0.4781278108408974   T   T   T
  0.6399778183189713  0.7733284852357172  0.5994486821258668   T   T   T
  0.8091903337413450  0.4942474643921353  0.4123466419250846   T   T   T
  0.6048036149023795  0.0897385732209530  0.4009097099197922   T   T   T
  0.6035488818336827  0.3809666458532742  0.4635230338799681   T   T   T
  0.8251621291647830  0.1335803784100537  0.3826297266538936   T   T   T
  0.4356275451803983  0.8708263404392494  0.4279193344580033   T   T   T
  0.9661640877007940  0.6137281064224143  0.3642455242145584   T   T   T
 -0.1271844994593003  0.8701878503365524  0.5959413678516383   T   T   T
  0.9125405853911144  0.0631516404609346  0.5034282956134160   T   T   T
  0.3569698393982448  0.1680492716515379  0.5694006385273063   T   T   T
  1.1405363676079703  0.1732737956632606  0.4274935234881293   T   T   T
  0.7135291832102603  0.2805337236753744  0.5281825070638974   T   T   T
  0.7705341608540369  0.7577967055500586  0.4005344796553250   T   T   T
  1.0053860100501588  0.4064417180548741  0.4455212622595097   T   T   T
  0.4904785722980449  0.9568915458810268  0.5627839462754289   T   T   T
  0.9323817476273746  0.7753976254990554  0.4666792258697015   T   T   T
  0.2544656677122605  0.7685370461808062  0.5422346295174097   T   T   T
  0.5070633196466811  0.3617346615943670  0.5951729004617222   T   T   T
  0.4714602202698392  1.1149961403000002  0.4824563839798873   T   T   T
  0.0296587648056930 -0.0136864142955556  0.3430645396069643   T   T   T
  0.0329186620323190 -0.1136118422453437  0.3862650027397006   T   T   T
  0.0285722190349238  0.1103170606796391  0.5966600993890974   T   T   T
  1.0139780778264074  0.2375060695230417  0.5649324452880968   T   T   T
  0.5584582668968379  0.5826029206790926  0.3505213302912505   T   T   T
  0.5022024492508893  0.5286555606892729  0.3927833787862530   T   T   T
  0.4442637925652781  0.4900419821010852  0.5683131791801953   T   T   T
  0.3686441723391139  0.6220036890631850  0.5465718175334384   T   T   T
  0.9742891918690668  0.7256966463868142  0.5153289493462864   T   T   T
 -0.0586040265950951  0.7520234756217684  0.5606054097223343   T   T   T
  0.2575901248280009  0.4238173696206232  0.4731794963817259   T   T   T
  0.3587380126707939  0.4023128164183933  0.5002065336614011   T   T   T
  0.2772561455964941  0.0538260830240877  0.3582805645616893   T   T   T
  0.2459285495835684  0.1435595905095261  0.3963955694617932   T   T   T
  0.3640354878257822  0.3845977438675974  0.4291765558738277   T   T   T
  0.3200108396867059  0.4890203416733028  0.3959828368293777   T   T   T
  0.9513874140798868  0.5074643890784094  0.5356851421440123   T   T   T
  0.8512714979142276  0.3810852653436355  0.5337279495499985   T   T   T
  0.7836229183769153  0.6905619194285363  0.5070713450252791   T   T   T
  0.6562501152721208  0.7393905997520669  0.5046465490394291   T   T   T
  0.4827146844793113  0.6314077697125082  0.4974833714684428   T   T   T
  0.5063531701685564  0.7269257198248076  0.4588461214852573   T   T   T
  0.6823130575887130  0.7390937194432181  0.5740002631467611   T   T   T
  0.6129610618705813  0.6828756175701232  0.6105063231760113   T   T   T
  0.8864161246954418  0.4725297388884304  0.4230696859299395   T   T   T
  0.8013037933420638  0.4415808163719860  0.3878576808586813   T   T   T
  0.5559243033717104  0.1697798134755667  0.4061693202222360   T   T   T
  0.5824471734061308  0.0628349239986610  0.3721212706753990   T   T   T
  0.6651425911790824  0.4017653636457185  0.4452512981734082   T   T   T
  0.5665555731993578  0.4752307857920173  0.4678892539640678   T   T   T
  0.7426610564707843  0.1108700477699567  0.3864861573766553   T   T   T
  0.8743333129962240  0.0469781301137046  0.3773072575515524   T   T   T
  0.4769510214270510  0.9597135987132617  0.4296205272979808   T   T   T
  0.3579693512967085  0.8774083363547890  0.4447347851791647   T   T   T
  0.0269459044232679  0.6615339127631951  0.3825234969975492   T   T   T
  1.0081404724375884  0.5532438779471465  0.3438972722151085   T   T   T
 -0.1670373323297840  0.7867553771443657  0.6085695663101280   T   T   T
 -0.1818189009490579  0.9060975017383789  0.5742026176355893   T   T   T
  0.9009351450149299 -0.0263027127817208  0.4874349618383806   T   T   T
  0.8976436106348330  0.1415677719453045  0.4850087529533265   T   T   T
  0.2819804511503924  0.1617653495172323  0.5808516188537207   T   T   T
  0.4018800039270683  1.0837625133819133  0.5738804734005315   T   T   T
  1.1040996335620721  0.2699710379757032  0.4271619728981429   T   T   T
  1.0848136852522736  0.1247553642037732  0.4103174316580474   T   T   T
  0.6647192497538483  0.3132735302510207  0.5045278523181072   T   T   T
  0.7400096557972955  0.1853530969467595  0.5201132262153906   T   T   T
  0.7677214527556762  0.6484382779681599  0.4055612927327211   T   T   T
  0.6935519120295728  0.8014475881415993  0.4003104200267989   T   T   T
  0.9862804200732650  0.4093283724132820  0.4746544940179843   T   T   T
  0.0731001625470514  0.4689587584706114  0.4447545745665742   T   T   T
  0.5519063137351917  0.8984289726056828  0.5752969671900872   T   T   T
  0.4498949572729591  0.8874379191893946  0.5449780510085830   T   T   T
  0.8670213297233116  0.7500515343407577  0.4495966480725307   T   T   T
  0.9939809643610737  0.7874080783990069  0.4449029802222786   T   T   T
  0.1729340126751755  0.7319562838516764  0.5467996730528735   T   T   T
  0.2524756905804592  0.7809196055779021  0.5124719418922625   T   T   T
  0.4506494889896668  0.2783111324611521  0.5901779946897692   T   T   T
  0.5780746361817632  0.3245920337559058  0.5823933378071191   T   T   T
  0.4350002343369542  0.2094730984440702  0.4811849311538222   T   T   T
  0.4891623119706338  0.0972410144580587  0.5114665896397472   T   T   T
  0.1817740578421680  0.0943583743417379  0.5057948437464941   T   T   T
 
  0.00000000E+00  0.00000000E+00  0.00000000E+00
  0.21991147E-02 -0.15858479E-02  0.14691374E-02
  0.53870890E-03  0.22459189E-02  0.37776034E-02
  0.90936635E-03 -0.75608772E-03  0.14116925E-02
 -0.11782162E-03 -0.36341535E-02 -0.26567499E-02
  0.00000000E+00  0.00000000E+00  0.00000000E+00
  0.00000000E+00  0.00000000E+00  0.00000000E+00
 -0.23148923E-03 -0.17601156E-03  0.25732180E-02
  0.37988513E-03  0.11232282E-02  0.24728898E-03
  0.25330687E-02 -0.18000456E-02 -0.35486242E-04
 -0.12052480E-03  0.98693839E-04  0.12182568E-02
  0.00000000E+00  0.00000000E+00  0.00000000E+00
  0.00000000E+00  0.00000000E+00  0.00000000E+00
  0.44860170E-02  0.64062695E-02  0.14801558E-02
  0.11663689E-02 -0.40699342E-03  0.34802181E-02
  0.15901760E-02  0.29364690E-02 -0.14688529E-02
 -0.41688689E-02 -0.89360129E-03 -0.20743235E-02
  0.00000000E+00  0.00000000E+00  0.00000000E+00
  0.00000000E+00  0.00000000E+00  0.00000000E+00
  0.10378695E-02 -0.21733455E-02 -0.29772723E-02
 -0.40985394E-02 -0.14303334E-02  0.65782135E-03
  0.94563475E-03  0.35932555E-03 -0.17638742E-02
 -0.25573223E-02 -0.20658086E-02 -0.44706233E-02
  0.00000000E+00  0.00000000E+00  0.00000000E+00
 -0.18547535E-02 -0.36599223E-02 -0.13356809E-02
  0.00000000E+00  0.00000000E+00  0.00000000E+00
  0.14130750E-02  0.35927981E-02 -0.10024290E-02
  0.43052791E-03 -0.28526787E-02 -0.57368382E-03
  0.49289094E-02  0.40381421E-02  0.30956563E-02
  0.00000000E+00  0.00000000E+00  0.00000000E+00
 -0.24645573E-02  0.13695498E-02 -0.32051048E-02
  0.33352926E-02 -0.20339398E-02 -0.10552030E-02
  0.11106535E-02  0.33936212E-02  0.79972628E-03
  0.00000000E+00  0.00000000E+00  0.00000000E+00
  0.10153122E-02  0.84964861E-02 -0.23624368E-02
 -0.56020823E-02 -0.19000199E-02 -0.21503686E-02
 -0.31166049E-02  0.24521540E-02 -0.26922906E-02
  0.00000000E+00  0.00000000E+00  0.00000000E+00
 -0.13662693E-02  0.34780669E-02 -0.68574831E-03
  0.42053267E-02  0.15709915E-02  0.57975077E-03
  0.54183738E-02 -0.43604725E-02 -0.23213223E-02
 -0.13864439E-04  0.22467995E-02 -0.29008264E-03
  0.47745877E-02 -0.34437778E-02  0.26286200E-02
  0.61561283E-03 -0.18683932E-03  0.22040471E-02
  0.00000000E+00  0.00000000E+00  0.00000000E+00
  0.75525715E-02  0.27465113E-02  0.17948267E-02
  0.19299682E-02  0.18215813E-02 -0.33533395E-02
  0.00000000E+00  0.00000000E+00  0.00000000E+00
  0.11280885E-02 -0.21023975E-02  0.36440402E-03
 -0.26132703E-02  0.18453189E-02 -0.40244701E-02
  0.00000000E+00  0.00000000E+00  0.00000000E+00
  0.22930879E-02  0.52265608E-03  0.10657404E-02
  0.96867411E-03  0.14579737E-02 -0.32626855E-02
  0.00000000E+00  0.00000000E+00  0.00000000E+00
 -0.73201857E-02 -0.51687047E-02  0.16090028E-02
 -0.26253396E-02 -0.37496412E-02  0.47081216E-02
  0.69539929E-02 -0.10376398E-02  0.26025628E-02
  0.80194236E-02 -0.42867106E-07  0.42481608E-02
 -0.27450901E-02  0.20224980E-02  0.57435007E-03
 -0.93748984E-02  0.23379023E-02 -0.69569423E-03
  0.00000000E+00  0.00000000E+00  0.00000000E+00
 -0.53778245E-02 -0.22073508E-02  0.46575306E-02
 -0.19596638E-03  0.26478629E-03  0.51368056E-02
  0.00000000E+00  0.00000000E+00  0.00000000E+00
 -0.18968133E-02  0.41668818E-02  0.34184027E-02
 -0.32558383E-02 -0.36464636E-03  0.76117379E-02
  0.00000000E+00  0.00000000E+00  0.00000000E+00
  0.65304266E-02 -0.38925710E-02  0.85466130E-02
 -0.28988495E-02 -0.20519799E-02 -0.61223697E-02
  0.00000000E+00  0.00000000E+00  0.00000000E+00
  0.17558528E-02 -0.29087435E-02 -0.82065250E-04
 -0.33248513E-02 -0.50490259E-02  0.10672503E-02
  0.42738959E-02 -0.73548110E-02 -0.67208203E-03
  0.36391978E-02  0.44415054E-02 -0.75652817E-03
  0.48485033E-02 -0.67604750E-02  0.80578646E-03
  0.40678131E-03  0.54799553E-02  0.21613303E-02
  0.00000000E+00  0.00000000E+00  0.00000000E+00
 -0.46481741E-02 -0.46769334E-03  0.59658920E-02
  0.34554658E-02 -0.18306839E-02  0.70065426E-02
  0.00000000E+00  0.00000000E+00  0.00000000E+00
  0.97608694E-02  0.10187822E-03 -0.29960877E-02
  0.51861157E-02  0.24139529E-02  0.17037428E-02
  0.00000000E+00  0.00000000E+00  0.00000000E+00
 -0.11033167E-02 -0.20482377E-02 -0.88882591E-02
  0.11239428E-02 -0.48480107E-03 -0.30859690E-03
  0.00000000E+00  0.00000000E+00  0.00000000E+00
 -0.46017359E-02  0.16430927E-02 -0.54158075E-03
  0.12946424E-02 -0.40547454E-02  0.53234093E-02
  0.49637966E-02 -0.68510887E-02  0.11310129E-03
 -0.36773611E-02 -0.12985982E-03  0.64607820E-02
  0.18609708E-02  0.15886288E-02 -0.38251813E-02
 -0.27275073E-02 -0.98825460E-03 -0.31229958E-02
  0.00000000E+00  0.00000000E+00  0.00000000E+00
  0.18827784E-02 -0.63101734E-02  0.27416479E-03
 -0.39799946E-03  0.50040881E-02  0.16077327E-02
  0.00000000E+00  0.00000000E+00  0.00000000E+00
 -0.34182334E-02 -0.51448333E-02  0.31659792E-04
  0.23458118E-03 -0.28984124E-02 -0.62713622E-02
  0.00000000E+00  0.00000000E+00  0.00000000E+00
 -0.23631645E-02 -0.63018306E-02 -0.43760649E-02
 -0.13062718E-02 -0.93655408E-02 -0.35607865E-02
  0.00000000E+00  0.00000000E+00  0.00000000E+00
  0.59643599E-02 -0.36548890E-02  0.79065868E-03
 -0.23018145E-02  0.28925437E-02  0.53114115E-03
 -0.41236909E-02 -0.29174804E-02  0.27529837E-02
  0.47727207E-02 -0.17837348E-02  0.43995125E-02
  0.14418572E-02  0.43516423E-02 -0.49561913E-02
  0.22710370E-03  0.93811389E-03 -0.35900910E-02
  0.73583637E-02 -0.19812499E-02 -0.69909636E-02
  0.36891972E-02 -0.27915213E-02  0.30590440E-02
  0.14276728E-02  0.41031421E-02  0.13658070E-02
  0.22948718E-02  0.22761724E-02  0.25480308E-02
  0.44390847E-02 -0.76525881E-02 -0.43095359E-02
 -0.82812055E-02  0.41940721E-03  0.97675288E-03
 -0.10280659E-01  0.60080747E-02 -0.44875321E-02
  0.57937971E-02 -0.60359533E-02  0.15806978E-02
  0.59645017E-02  0.14383083E-02 -0.54436479E-03
  0.53610980E-02 -0.33422237E-02  0.61029510E-02
  0.84320422E-03 -0.22476317E-02 -0.14725396E-02
  0.31235461E-02  0.45637773E-02  0.33447886E-02
  0.14987637E-03  0.51660899E-02  0.14352074E-02
  0.71657205E-03 -0.44031678E-02 -0.29880510E-02
  0.45690971E-02  0.40338303E-02  0.15378313E-02
 -0.90354848E-03 -0.20265610E-03  0.24027453E-02
  0.10050202E-02  0.86124223E-02  0.32018408E-02
  0.23178553E-02  0.29193101E-03  0.11080403E-02
  0.76497336E-02 -0.19704971E-02 -0.33993199E-02
  0.29158841E-02  0.43437909E-02  0.59698085E-03
  0.29523617E-02 -0.13100641E-01  0.52193373E-02
 -0.23782813E-03  0.50362172E-02  0.30553666E-02
  0.33233765E-02 -0.10902651E-03 -0.43317083E-02
 -0.50334206E-03  0.36931405E-02  0.77977330E-03
  0.22791886E-02  0.71236600E-03  0.42045807E-03
  0.10702991E-01 -0.21474195E-02  0.27900850E-02
 -0.92548119E-02 -0.14406387E-02  0.16996715E-01
 -0.74349997E-02 -0.17065520E-02 -0.18561160E-01
  0.91638304E-02  0.18334046E-01  0.73220416E-02
  0.28998411E-02  0.94460322E-02  0.76832797E-02
 -0.90403839E-02 -0.13754404E-01  0.12932755E-01
 -0.13847213E-01 -0.11474882E-01  0.17489413E-01
 -0.10744246E-01 -0.22592517E-01 -0.23457254E-01
 -0.48511458E-02  0.86641313E-02  0.12536783E-01
 -0.16420880E-01 -0.95014023E-02  0.10700587E-01
 -0.30027098E-01  0.21566038E-01 -0.84189325E-02
 -0.25134026E-01  0.12848761E-01 -0.23112141E-02
  0.77442129E-02  0.79612818E-02  0.17110458E-01
  0.14971115E-01 -0.19480408E-01 -0.47135797E-02
 -0.86257557E-02 -0.17441752E-01  0.12972502E-01
 -0.29966851E-04  0.13931547E-01 -0.11589192E-01
  0.13458112E-01  0.51551271E-02  0.26786105E-01
  0.95226578E-02 -0.25144206E-01 -0.25385932E-01
 -0.15577928E-01 -0.49525958E-02 -0.74497912E-02
  0.66214683E-02 -0.24732312E-02  0.16371796E-01
 -0.18159042E-01 -0.43957501E-02 -0.23074349E-01
  0.13918424E-01  0.30577396E-01  0.80314092E-02
 -0.24177022E-02  0.25983174E-01 -0.19631313E-01
  0.42544337E-02  0.25067962E-01  0.27645620E-03
  0.73470698E-02 -0.22049253E-02  0.12350705E-01
 -0.71288858E-02  0.19802808E-01  0.64566272E-02
 -0.20991086E-01  0.94777108E-03 -0.19860510E-01
 -0.58625406E-02 -0.16015525E-02  0.56645966E-03
 -0.11598933E-01 -0.22637585E-01  0.60365655E-02
  0.30029455E-01  0.15351006E-01  0.18211208E-01
 -0.17109405E-01  0.51662069E-02  0.11575043E-01
 -0.17943865E-01  0.64132899E-02 -0.17350847E-01
  0.16659697E-01 -0.17037926E-01  0.44259050E-01
 -0.60334618E-03  0.22119179E-01 -0.65661376E-02
 -0.15862020E-01  0.88279738E-02 -0.89132421E-02
 -0.19161145E-01  0.13985009E-01 -0.34863896E-02
  0.14217309E-01  0.20845589E-01  0.30129509E-01
  0.21970940E-02  0.72374007E-03 -0.69399929E-02
  0.27428857E-01 -0.50143422E-02  0.67243882E-02
  0.10975949E-01  0.48784730E-03  0.10707370E-01
 -0.32471738E-01  0.72832064E-02 -0.77040765E-02
 -0.13744061E-01 -0.15629818E-02 -0.23848433E-01
 -0.44770026E-02 -0.11855824E-01 -0.22428339E-02
 -0.15066285E-01 -0.22769132E-01  0.79322797E-02
  0.12645236E-01 -0.11369632E-03 -0.14917046E-02
 -0.19933811E-01  0.41333617E-02 -0.69199356E-02
  0.38378395E-03  0.39883566E-02  0.37070181E-02
  0.10053741E-01  0.20029192E-01  0.69378200E-02
  0.62763164E-02 -0.24734543E-01  0.23929194E-01
 -0.45611264E-02  0.45413730E-02  0.53228868E-02
  0.24644659E-01 -0.17582708E-02  0.43471909E-01
  0.62678110E-02  0.17409210E-02 -0.18063876E-01
  0.75951616E-02  0.12343156E-01  0.67439259E-02
  0.50182792E-02  0.11549748E-01 -0.16064187E-01
  0.17088661E-01  0.46823143E-02 -0.92806988E-02
 -0.69256676E-02  0.11513533E-01 -0.24295191E-01
 -0.18744681E-01  0.81508721E-02  0.10659746E-01
 -0.24438718E-02  0.94808992E-02  0.28445726E-01
  0.30445400E-01  0.13258284E-01  0.16721074E-01
  0.27596815E-01 -0.19761959E-01 -0.23838026E-01
 -0.15074267E-02 -0.89026060E-02 -0.38047249E-01
  0.14089033E-02 -0.25333717E-02 -0.17188806E-02
 
           1
   1.00000000000000     
  0.23633891E+00  0.56188262E-02  0.51899035E-02  0.23093454E+00
  0.13468000E+00  0.81200000E-02  0.49370000E-01
  0.38331698E+00  0.28248525E+00  0.34646968E+00
  0.37508101E+00  0.50650667E+00  0.18872559E+00
  0.12766139E+00  0.23710118E+00  0.20636619E+00
  0.25043333E+00  0.15316444E-01  0.28171917E+00
  0.25927999E+00  0.25156999E+00  0.11849001E+00
  0.63467997E+00  0.81200000E-02  0.49370000E-01
  0.87001970E+00  0.26108387E+00  0.33927986E+00
  0.87266731E+00  0.49927046E+00  0.19027407E+00
  0.62671234E+00  0.25127914E+00  0.20169751E+00
  0.73161262E+00  0.13168931E-01  0.27556735E+00
  0.75928001E+00  0.25156999E+00  0.11849001E+00
  0.13468000E+00  0.50812002E+00  0.49370000E-01
  0.42048557E+00  0.77308581E+00  0.37669915E+00
  0.38439236E+00  0.99186632E+00  0.18807215E+00
  0.11306554E+00  0.74253551E+00  0.19755266E+00
  0.24545657E+00  0.49206191E+00  0.27918956E+00
  0.25927999E+00  0.75157001E+00  0.11849001E+00
  0.63467997E+00  0.50812002E+00  0.49370000E-01
  0.84154797E+00  0.75264445E+00  0.34313039E+00
  0.87215336E+00  0.99443962E+00  0.18851711E+00
  0.61555363E+00  0.74362688E+00  0.20998457E+00
  0.73925424E+00  0.51556030E+00  0.27710653E+00
  0.75928001E+00  0.75157001E+00  0.11849001E+00
  0.12633527E+00  0.28237466E+00  0.31021933E+00
  0.38565999E+00  0.40190000E-01  0.89570000E-01
  0.38107312E+00  0.21937635E+00  0.24327206E+00
  0.12719388E+00  0.46083444E+00  0.14798473E+00
  0.62164624E+00  0.29943132E+00  0.30686538E+00
  0.88565999E+00  0.40190000E-01  0.89570000E-01
  0.87287037E+00  0.21465446E+00  0.24415800E+00
  0.63148999E+00  0.46809191E+00  0.14883977E+00
  0.19910445E+00  0.70641240E+00  0.43411654E+00
  0.38565999E+00  0.54018997E+00  0.89570000E-01
  0.35319284E+00  0.71758346E+00  0.25364080E+00
  0.11935232E+00  0.95985249E+00  0.14884132E+00
  0.61116412E+00  0.80760421E+00  0.30841188E+00
  0.88565999E+00  0.54018997E+00  0.89570000E-01
  0.87043969E+00  0.71982244E+00  0.24686408E+00
  0.62566630E+00  0.95820491E+00  0.14804132E+00
  0.22020370E-01  0.35308925E+00  0.33307400E+00
  0.11931788E+00  0.33465655E+00  0.26595334E+00
  0.12244621E+00  0.12379310E+00  0.14969082E+00
  0.22992265E+00  0.36239385E+00  0.33038312E+00
  0.48708998E+00  0.10149000E+00  0.65660000E-01
  0.37805778E+00  0.10343075E+00  0.13513246E+00
  0.36757080E+00  0.38694065E+00  0.23969265E+00
  0.27899000E+00  0.11867000E+00  0.68990000E-01
  0.48100313E+00  0.15750317E+00  0.21835522E+00
  0.37784438E+00  0.16228231E+00  0.28812419E+00
  0.37733002E+00  0.37812001E+00  0.87590000E-01
  0.27224313E+00  0.13044296E+00  0.22454063E+00
  0.22541037E-01  0.41320036E+00  0.17313839E+00
  0.13805000E+00  0.40571002E+00  0.10378000E+00
  0.13050576E+00  0.11364009E+00  0.31401778E+00
  0.22714035E+00  0.37228167E+00  0.16800705E+00
  0.52694514E+00  0.36071468E+00  0.33397295E+00
  0.62563146E+00  0.34985037E+00  0.26157039E+00
  0.63243621E+00  0.12038342E+00  0.15159497E+00
  0.73165375E+00  0.37887347E+00  0.32545865E+00
  0.98709002E+00  0.10149000E+00  0.65660000E-01
  0.87513245E+00  0.10356092E+00  0.13464404E+00
  0.86421451E+00  0.37666725E+00  0.24427325E+00
  0.77899000E+00  0.11867000E+00  0.68990000E-01
  0.97314189E+00  0.15051047E+00  0.21722147E+00
  0.86302865E+00  0.16388759E+00  0.29011769E+00
  0.87732998E+00  0.37812001E+00  0.87590000E-01
  0.75904385E+00  0.13002136E+00  0.22479491E+00
  0.52884699E+00  0.40143419E+00  0.17295986E+00
  0.63805000E+00  0.40571002E+00  0.10378000E+00
  0.62556729E+00  0.13440204E+00  0.30915777E+00
  0.73462962E+00  0.38172823E+00  0.16962180E+00
  0.25660713E+00  0.82400752E+00  0.46103937E+00
  0.87400522E-01  0.76071766E+00  0.41239847E+00
  0.14596438E+00  0.62104036E+00  0.15000339E+00
  0.28536449E+00  0.67639539E+00  0.39628337E+00
  0.48708998E+00  0.60149001E+00  0.65660000E-01
  0.38358497E+00  0.60440119E+00  0.13556532E+00
  0.34075506E+00  0.88150365E+00  0.25280895E+00
  0.27899000E+00  0.61866997E+00  0.68990000E-01
  0.45210045E+00  0.66321341E+00  0.22287020E+00
  0.36046054E+00  0.64212526E+00  0.29546059E+00
  0.37733002E+00  0.87811996E+00  0.87590000E-01
  0.23992535E+00  0.64068334E+00  0.23412900E+00
  0.13095153E-01  0.89002892E+00  0.16974312E+00
  0.13805000E+00  0.90570999E+00  0.10378000E+00
  0.17933352E+00  0.57132360E+00  0.45789254E+00
  0.22627757E+00  0.88411101E+00  0.17073661E+00
  0.51341670E+00  0.86071106E+00  0.33384581E+00
  0.60255521E+00  0.85999736E+00  0.26399516E+00
  0.63782876E+00  0.62739957E+00  0.14836725E+00
  0.72641344E+00  0.88604489E+00  0.32418727E+00
  0.98709002E+00  0.60149001E+00  0.65660000E-01
  0.87532501E+00  0.60086979E+00  0.13511337E+00
  0.86317369E+00  0.88865172E+00  0.24424581E+00
  0.77899000E+00  0.61866997E+00  0.68990000E-01
  0.96811207E+00  0.65931733E+00  0.22000793E+00
  0.87590610E+00  0.66232381E+00  0.29143441E+00
  0.87732998E+00  0.87811996E+00  0.87590000E-01
  0.75481089E+00  0.64090070E+00  0.22934616E+00
  0.52317624E+00  0.88747232E+00  0.17159016E+00
  0.63805000E+00  0.90570999E+00  0.10378000E+00
  0.62784375E+00  0.64428273E+00  0.31022307E+00
  0.73556294E+00  0.88253415E+00  0.16988984E+00
  0.98717930E+00  0.95315300E+00  0.36824056E+00
  0.72858921E-01  0.17115002E+00  0.57808941E+00
  0.53389320E+00  0.60860431E+00  0.37903183E+00
  0.43039918E+00  0.54797726E+00  0.54180397E+00
  0.99464627E+00  0.69626939E+00  0.54237719E+00
  0.32293789E+00  0.35618252E+00  0.47902406E+00
  0.31428895E+00  0.10702954E+00  0.38062538E+00
  0.36989680E+00  0.39774599E+00  0.39878893E+00
  0.93491103E+00  0.40405177E+00  0.53147467E+00
  0.72268818E+00  0.73747348E+00  0.52309392E+00
  0.54232659E+00  0.66191445E+00  0.47799188E+00
  0.64047664E+00  0.77268407E+00  0.59949656E+00
  0.80970386E+00  0.49440102E+00  0.41233015E+00