 Ni_COOHCH
   1.000
    9.8292000000000002    0.0000000000000000    0.0000000000000000
    4.9146000000000001    8.5123370000000005    0.0000000000000000
    0.0000000000000000    0.0000000000000000   30.7148000000000003
   Ni   O    H    C    H    C    O    O    H 
   64   30   60    1    1    1    1    1    1
Selective Dynamics
Direct
    0.0813515600000000    0.0888062900000000    0.1224179300000000    T  T  T
    0.3171134000000000    0.0991947700000000    0.1165188400000000    T  T  T
    0.3171584300000000    0.8407651400000000    0.1213474800000000    T  T  T
    0.5812278600000000    0.3383455600000000    0.1175925200000000    T  T  T
    0.3098565400000000    0.5922677900000000    0.1188317200000000    T  T  T
    0.3282465500000000    0.3534295900000000    0.1179838600000000    T  T  T
    0.8364589500000000    0.0982250800000000    0.1160607200000000    T  T  T
    0.5796115200000000    0.0904558100000000    0.1190872000000000    T  T  T
    0.8384243400000000    0.3410309300000000    0.1181367000000000    T  T  T
    0.5570444400000000    0.6071333100000000    0.1215266100000000    T  T  T
    0.0704865300000000    0.8624035400000000    0.1172282100000000    T  T  T
    0.5769532500000000    0.8439368700000000    0.1169669000000000    T  T  T
    0.0725742200000000    0.3544094600000000    0.1192911600000000    T  T  T
    0.8089359500000000    0.6071616300000000    0.1234370500000000    T  T  T
    0.0749752100000000    0.5947947500000000    0.1162059000000000    T  T  T
    0.8307536300000000    0.8443008000000000    0.1145840200000000    T  T  T
    0.1561566000000000    0.1875131900000000    0.1843671200000000    T  T  T
    0.1638262600000000    0.9231227100000000    0.1883392700000000    T  T  T
    0.4097516000000000    0.1785524700000000    0.1841058500000000    T  T  T
    0.4149945200000000    0.9252733500000000    0.1853883700000000    T  T  T
    0.4070959300000000    0.4438846900000000    0.1862063200000000    T  T  T
    0.4010878900000000    0.6909540000000000    0.1879758400000000    T  T  T
    0.9139261700000000    0.1861704000000000    0.1841978500000000    T  T  T
    0.6614290000000000    0.1789498400000000    0.1874895700000000    T  T  T
    0.6533131700000000    0.4249598800000000    0.1813568700000000    T  T  T
    0.1563459000000000    0.6890269999999999    0.1855867200000000    T  T  T
    0.9121988100000000    0.4313830900000000    0.1861395900000000    T  T  T
    0.6636399500000000    0.6795399700000000    0.1887843400000000    T  T  T
    0.9121149600000000    0.9366534300000000    0.1832019600000000    T  T  T
    0.6682409300000000    0.9267657800000000    0.1855089500000000    T  T  T
    0.1638439200000000    0.4300359200000000    0.1842656400000000    T  T  T
    0.9137222000000000    0.6862631300000001    0.1865644000000000    T  T  T
    0.2337382600000000    0.0279323200000000    0.2513460200000000    T  T  T
    0.4905646200000000    0.2520419500000000    0.2551743300000000    T  T  T
    0.4976165800000000    0.5032580100000000    0.2536037700000000    T  T  T
    0.2327578900000000    0.2648658700000000    0.2572002400000000    T  T  T
    0.9965233400000000    0.2561244400000000    0.2511197900000000    T  T  T
    0.7474499999999999    0.2582760200000000    0.2529003300000000    T  T  T
    0.4998768100000000    0.7656007800000000    0.2603358000000000    T  T  T
    0.2510759200000000    0.7760961199999999    0.2601414000000000    T  T  T
    0.4878311400000000    0.0127811500000000    0.2513460000000000    T  T  T
    0.9920169800000000    0.0215849700000000    0.2523838200000000    T  T  T
    0.2401774200000000    0.5055548800000000    0.2500148300000000    T  T  T
    0.7526504500000000    0.5067096300000000    0.2522613700000000    T  T  T
    0.7491291700000000    0.0051159300000000    0.2514355200000000    T  T  T
    0.0021267200000000    0.7547382800000000    0.2528775500000000    T  T  T
    0.7486210500000000    0.7597432500000000    0.2527046100000000    T  T  T
    0.9928131500000000    0.5187244900000000    0.2513241200000000    T  T  T
    0.2452110100000000    0.0011718700000000    0.0533406400000000    F  F  F
    0.4875166600000000    0.2607754800000000    0.0525288300000000    F  F  F
    0.4844525500000000    0.5066782200000000    0.0502079900000000    F  F  F
    0.2475237700000000    0.2561253300000000    0.0483893600000000    F  F  F
    0.0083441800000000    0.2458356300000000    0.0540615400000000    F  F  F
    0.7452534800000000    0.2590738000000000    0.0516454300000000    F  F  F
    0.4944824800000000    0.7560976400000000    0.0515501000000000    F  F  F
    0.2396173600000000    0.7604087400000000    0.0535453300000000    F  F  F
    0.4897301200000000    0.0080087400000000    0.0531167000000000    F  F  F
    0.9996820100000000    0.0172799200000000    0.0477636200000000    F  F  F
    0.2384822100000000    0.5087981800000000    0.0490981700000000    F  F  F
    0.7521119100000000    0.5031161900000000    0.0524690500000000    F  F  F
    0.7408742400000000    0.0086517100000000    0.0481009200000000    F  F  F
    0.9843716700000000    0.7727858800000000    0.0494569000000000    F  F  F
    0.7436785100000000    0.7539889400000001    0.0466960200000000    F  F  F
    0.9876381800000000    0.5071182800000000    0.0551065700000000    F  F  F
    0.0847009100000000    0.8116098400000000    0.5856559099999999    T  T  T
    0.9115065999999999    0.8004971800000000    0.7126521300000001    T  T  T
    0.6458290700000000    0.9758430200000000    0.4224054600000000    T  T  T
    0.1543845400000000    0.1905370700000000    0.4222688300000000    T  T  T
    0.3913257900000000    0.4865031900000000    0.3560873000000000    T  T  T
    0.1167877900000000    0.5246507600000000    0.6007362400000000    T  T  T
    0.3842780900000000    0.8214688999999999    0.4053972600000000    T  T  T
    0.1765666000000000    0.4458548900000000    0.4183913500000000    T  T  T
    0.4063681500000000    0.0998210800000000    0.3624714200000000    T  T  T
    0.2758917800000000    0.7329763400000000    0.4778312700000000    T  T  T
    0.9719654800000000    0.9057960700000000    0.4441221800000000    T  T  T
    0.3861198000000000    0.2552371200000000    0.5706551500000000    T  T  T
    0.3244720100000000    0.0287578900000000    0.5493029699999999    T  T  T
    0.6350557300000000    0.3071936700000000    0.4278609800000000    T  T  T
    0.6688032900000001    0.4699885700000000    0.5998139000000000    T  T  T
    0.3864315800000000    0.3969534900000000    0.4846814500000000    T  T  T
    0.7466770300000000    0.4666851300000000    0.4640455600000000    T  T  T
    0.9239759000000000    0.4782223800000000    0.5494417900000000    T  T  T
    0.0519368700000000    0.4395398700000000    0.6986129500000000    T  T  T
    0.6877113900000000    0.1859908400000000    0.5844893500000000    T  T  T
    0.9421363900000000    0.2852093100000000    0.6511216200000000    T  T  T
    0.3762179500000000    0.7550512100000000    0.5650138200000000    T  T  T
    0.8753558100000000    0.6536155500000000    0.4124487700000000    T  T  T
    0.8852605900000000    0.0069196700000000    0.6498759800000000    T  T  T
    0.5800997800000000    0.8635975700000000    0.4967119800000000    T  T  T
    0.9015391699999999    0.0207440800000000    0.5232222300000000    T  T  T
    0.9248414900000000    0.9562218500000000    0.3565882700000000    T  T  T
    0.0675575400000000    0.1757376500000000    0.5050837600000000    T  T  T
    0.2343615500000000    0.7928721100000000    0.3265429500000000    T  T  T
    0.9453289000000000    0.2202435100000000    0.3645276000000000    T  T  T
    0.1921501800000000    0.7944401800000001    0.5784747400000000    T  T  T
    0.0938726200000000    0.7054745900000000    0.5909556000000000    T  T  T
    0.8641413600000000    0.7775231300000000    0.7373579700000000    T  T  T
    0.9557171100000000    0.7047063000000000    0.6958332600000000    T  T  T
    0.5560854200000001    0.0224155700000000    0.4028659500000000    T  T  T
    0.6620046600000000    0.0645294400000000    0.4292530400000000    T  T  T
    0.1301183000000000    0.1731449200000000    0.4542066300000000    T  T  T
    0.1692912700000000    0.2939005500000000    0.4228067200000000    T  T  T
    0.3121972400000000    0.4649659900000000    0.3679807100000000    T  T  T
    0.4262881200000000    0.4222099800000000    0.3267780800000000    T  T  T
    0.1146897200000000    0.4704887600000000    0.6282675599999999    T  T  T
    0.0508763800000000    0.5040953200000000    0.5798875500000000    T  T  T
    0.2949161300000000    0.8514360700000000    0.3850833400000000    T  T  T
    0.4787811100000000    0.7520642700000000    0.3892395600000000    T  T  T
    0.0684672800000000    0.5304662200000000    0.4244713000000000    T  T  T
    0.2425558700000000    0.4327310300000000    0.4452668000000000    T  T  T
    0.3904230900000000    0.0962311200000000    0.3306401400000000    T  T  T
    0.3062243300000000    0.1199110200000000    0.3735040000000000    T  T  T
    0.3351380700000000    0.7502463600000000    0.4517783900000000    T  T  T
    0.3214747600000000    0.6162257300000000    0.4804337700000000    T  T  T
    0.9661674099999999    0.8834213600000000    0.4142032600000000    T  T  T
    0.0774434400000000    0.8299966900000000    0.4540637200000000    T  T  T
    0.4938919500000000    0.2391515800000000    0.5800573700000000    T  T  T
    0.2991729900000000    0.3517128800000000    0.5832280100000000    T  T  T
    0.3367441400000000    0.1133810200000000    0.5639736700000000    T  T  T
    0.4186269100000000    0.9833841800000001    0.5301457800000000    T  T  T
    0.6821251100000000    0.3661893100000000    0.4396461800000000    T  T  T
    0.5973968100000000    0.3428559100000000    0.3976664600000000    T  T  T
    0.5671953700000000    0.5638416100000000    0.5955521000000000    T  T  T
    0.6606477100000000    0.3710989200000000    0.5939616300000000    T  T  T
    0.4863865600000000    0.3434776000000000    0.4676431900000000    T  T  T
    0.3834187400000000    0.3476346600000000    0.5156522600000000    T  T  T
    0.7404537500000000    0.5678073700000000    0.4561139000000000    T  T  T
    0.7997159100000000    0.4283081000000000    0.4909675700000000    T  T  T
    0.9748697300000000    0.3643549400000000    0.5454894900000000    T  T  T
    0.8219794900000000    0.5076341800000000    0.5629851000000000    T  T  T
    0.1561858700000000    0.3541003400000000    0.6933118800000000    T  T  T
    0.9894011700000001    0.3922992100000000    0.6847411100000000    T  T  T
    0.7652413400000000    0.1236965400000000    0.5582803500000000    T  T  T
    0.7493332700000001    0.1165846200000000    0.6096987300000000    T  T  T
    0.9340393100000000    0.1904408400000000    0.6533574400000000    T  T  T
    0.8421919800000000    0.3659964100000000    0.6371998800000001    T  T  T
    0.3575504500000000    0.8656188600000000    0.5654469600000001    T  T  T
    0.3514345300000000    0.7383357500000000    0.5346651600000000    T  T  T
    0.8261015900000001    0.6229267900000000    0.3897137800000000    T  T  T
    0.8159085700000001    0.7687579200000000    0.4177177800000000    T  T  T
    0.9803183200000000    0.9456430000000000    0.6323416800000000    T  T  T
    0.8865296499999999    0.9287430800000001    0.6712707300000000    T  T  T
    0.6030467700000000    0.8775542800000000    0.4661620800000000    T  T  T
    0.6800364900000000    0.7895268900000000    0.5074828900000000    T  T  T
    0.9081003600000001    0.9712160100000000    0.4957004500000000    T  T  T
    0.9847851500000000    0.9263682300000000    0.5423735200000001    T  T  T
    0.9015919300000000    0.0687635400000000    0.3584437300000000    T  T  T
    0.8592648400000000    0.9515085800000000    0.3323900700000000    T  T  T
    0.1743504100000000    0.1040098200000000    0.5166166400000000    T  T  T
    0.9889105300000000    0.1390491200000000    0.5106547400000000    T  T  T
    0.1162156500000000    0.8452266200000000    0.3331164900000000    T  T  T
    0.2864984000000000    0.6759451300000000    0.3337001700000000    T  T  T
    0.9764453100000000    0.2126438100000000    0.3335532400000000    T  T  T
    0.0630303000000000    0.2041857700000000    0.4014799400000000    T  T  T
    0.6686894000000000    0.4294959700000000    0.2964330700000000    T  T  T
    0.7070215300000000    0.3120569700000000    0.3123493900000000    T  T  T
    0.6632614000000000    0.5449512800000000    0.3267646000000000    T  T  T
    0.5823927300000000    0.7002948400000000    0.3197825700000000    T  T  T
    0.7426647500000000    0.5045574300000000    0.3616189100000000    T  T  T
    0.8512858500000000    0.3463802700000000    0.3654672300000000    T  T  T

 -0.000233050332000    0.000342706687620    0.000408506840000
  -0.001032115146000    0.002880659964170   -0.001423016684000
  -0.001070301587999   -0.000199529179280   -0.000472700772000
   0.003841497089999    0.001564141923750    0.000987173672000
   0.004677568842000   -0.001334308824750   -0.003110487796000
  -0.000545373162001   -0.002144513060410   -0.001247635176000
  -0.000351049878001    0.000168459149230    0.001978033120000
  -0.001773679140001   -0.000200550659720   -0.002570214464000
   0.000029880768002    0.001053657073860    0.001861316880000
   0.001108242300001    0.000993219481160   -0.000261997244000
   0.000712469562000   -0.004778400374950   -0.001418716612000
  -0.003775641450000    0.003045629055230   -0.000745141048000
  -0.000820885637999   -0.000409358286330    0.000328955508000
   0.001957583472000   -0.002788471354460    0.001190812796000
   0.001326450540000    0.001602021823400    0.000682482856000
  -0.000394347504001   -0.002605796602439    0.000043615016000
  -0.002424323034000   -0.000299549139030    0.000008292996000
   0.001602208746001    0.003273589440090   -0.001405202100000
   0.001786653683999   -0.001121415276380   -0.001638941727999
  -0.000409435326000   -0.000161479032889    0.002635636988000
   0.002013265890000    0.000438640725610   -0.000636717803999
   0.000253789944001    0.001333712961160    0.000013821660000
  -0.000788006964001    0.002201971335160   -0.001937796731999
  -0.002837542602000    0.000835826370030    0.001351144052000
  -0.000322446906001   -0.000421786298350    0.000736233755999
   0.000654821304000   -0.002243681786459   -0.001156412220000
   0.000192455736000   -0.001388362164700    0.001072867964001
   0.003575174916001    0.002322676273820    0.002251701988000
  -0.000520652723999   -0.000330619169080    0.002230201628000
  -0.003226238316000   -0.001277361290219    0.000531366040000
  -0.000049784898001   -0.001883865301470   -0.001868074136000
   0.004301257920000    0.007515542337299   -0.000360591751999
  -0.000496718622000    0.000865789796270    0.000488672468000
   0.000245680853999    0.000779304452350    0.000027336171999
   0.000528270354001   -0.000607695738430   -0.001957761351999
   0.001080818832000   -0.001434669277980   -0.000312983812001
   0.001247472917999   -0.003129560698050    0.000576209648000
  -0.000083007594000    0.001831940045770   -0.000286569084001
  -0.000879762546001   -0.002959824698270   -0.001082082404000
  -0.002790706464000   -0.000765088849560    0.001773779699999
  -0.002386382321999   -0.000305678021670   -0.000863085880001
  -0.001511681814000   -0.001115541763850    0.001192655684002
  -0.001694799810000    0.001396108391370    0.000746983935999
   0.000728540303999   -0.001000369844240   -0.001517003971999
  -0.000078289578000   -0.001517324070250   -0.002439676564001
  -0.005291648112000    0.000558749800680    0.000176302951999
  -0.001647029898001    0.003350711213311    0.002106113836000
  -0.002204394684000   -0.002522886440060    0.000325576880001
   0.000082761864000    0.001817043456020    0.000953080244000
  -0.001819384920000   -0.001065063605440    0.000393456588000
   0.001386900120001   -0.002325910961880   -0.000652075204000
  -0.001074528144000    0.001544989165500    0.001491817836000
  -0.001600734366000    0.000410209520030   -0.001205555900000
  -0.000123602190000    0.000716823898770    0.003986473892000
   0.003754312086000   -0.001069915637530    0.000506487052000
   0.002201445924000   -0.000417785499961    0.002554242768000
  -0.001931536091999    0.003449198952400   -0.000836364004000
   0.172891309738000   -0.002679939057710   -0.002436297936000
  -0.001076887151999   -0.001619046497400    0.002514313528000
   0.000290354568000   -0.001680335323800   -0.001427316756000
  -0.002665875623999    0.000947252861360    0.001270978424000
  -0.000551516412001    0.000082910162380   -0.000162481292000
   0.002184637992000    0.003767219862719    0.000276126052000
   0.000836170043998    0.001451693951980   -0.001103582764000
   0.001097626764000    0.002772808654380   -0.004088754175999
   0.002426288873998   -0.000698437250851   -0.005122921492003
   0.006898918895999   -0.007562700684280   -0.006637468279999
   0.003557433210000   -0.004383768431630   -0.002474691435999
   0.001596753540000    0.002818094287220    0.007538026216000
   0.003136251990000    0.000381267574230    0.002892105567998
   0.004226506854000   -0.001421645402369    0.002662358864001
  -0.002316398418000   -0.001685698096110   -0.000302847927999
   0.000158446704001   -0.001134183781880   -0.006165381803999
   0.002892586122000   -0.004376107328331    0.006508773268001
  -0.005481646548001    0.002642740145020   -0.001924589368000
  -0.000498094710000    0.000240984260470    0.003180517539999
   0.004192645260000   -0.003390123333620    0.000726097872001
   0.001623292380001   -0.004989931949400    0.000968130496000
   0.004139026974000   -0.001650797514410    0.000164938476001
  -0.002771293794001   -0.003857535758290   -0.000371956228001
   0.000633197063999    0.001036291906380   -0.003814471011999
   0.000774983274001    0.001681782421090    0.001252549543999
   0.003450540660000    0.001094005551240    0.002096285099999
   0.002529888641999    0.004185601226270   -0.003060729820000
  -0.002788003434000    0.005083823026510   -0.000015357399999
   0.001531831674001   -0.000183781355831   -0.002304531444000
  -0.002289859577999   -0.006611276777790    0.002455648260000
   0.000955152510000    0.005808733645430   -0.001794358616003
  -0.001424496809999   -0.000832421435230   -0.000912536708000
  -0.001687329617999   -0.000803649736170   -0.001255006728002
  -0.000700035624002   -0.000902477968740    0.002717338356000
  -0.002445406668000   -0.000168544272600   -0.002911455891999
   0.002659486644000    0.001748604266541   -0.000382706408001
   0.009455936129999   -0.000835315629810   -0.002276273828000
  -0.018186329862001    0.001052039729830   -0.002697066588002
   0.025187472438000   -0.012292410491590    0.004233420883999
  -0.003651400362001    0.010509246136830    0.007737365268003
  -0.013603612800001   -0.010535549258160   -0.023825470360002
   0.005867737523999    0.011482631872780   -0.004601691335999
  -0.005070294528000    0.011047481205340    0.014510592964001
  -0.004502854812000    0.009267040798420   -0.009881565456000
  -0.009773320998000   -0.005759021597350   -0.003187274796000
  -0.003605104830000   -0.007813048515450    0.014825112516000
   0.001289247018001    0.016333727605710    0.014088878759999
   0.020815149402000    0.014163762657670   -0.006466386843996
  -0.000164147640000    0.001520814128420   -0.030908917535999
   0.013008159864000   -0.009173064597940    0.004915596592001
  -0.003763846409999   -0.014430369052509   -0.001672728008000
   0.014534880354000    0.014139417373850    0.015119667447999
   0.005985589632000    0.006391743606560   -0.019831010619999
  -0.000964047936000    0.006392424593520   -0.001425166720001
  -0.022740247368001   -0.011396997762560    0.023180152411999
  -0.024962482049999    0.009692232031570   -0.015851601132001
  -0.005757945360001    0.019233965944980    0.009835800404002
  -0.022622788428000   -0.000924099304720   -0.023042857256000
   0.033928727435999    0.010722650425421   -0.016733730188001
  -0.006132929340001    0.002615670913360   -0.046117350755999
  -0.026400346572000   -0.013816884924920    0.006342299051997
  -0.010327196418001    0.004750309662850    0.006597846188001
   0.008722874394000   -0.025704959409010    0.002201636864001
  -0.003629628683999    0.001554693229680    0.013050104224002
  -0.020169370962000   -0.000103595141290    0.027909003020001
   0.000101142468001    0.011044927504241    0.001525296967998
  -0.000458974494000    0.008297059997270    0.002930806215996
  -0.023605560990000   -0.004631307191590    0.005024326984000
  -0.039447577505999    0.004691574537550   -0.026734469068000
  -0.030169893918000    0.010397564275390   -0.002616286663999
  -0.011913432714000    0.000052010379070   -0.005031084240001
  -0.015657719016001    0.001833897883280    0.023418499260000
   0.014334905279998   -0.009364762427180    0.012782271168000
   0.003810879132000   -0.016689117675460    0.006346291976001
   0.018109858685998    0.011624192037090   -0.011984914959999
  -0.027353189220001   -0.007663146260880    0.017835162916004
   0.002148122513998    0.023076349743410    0.000108423244004
  -0.020616501270000    0.013873832459450   -0.001036624499999
  -0.007800797142000   -0.014755370079170    0.010553605280002
   0.016829113926001    0.017586913858850    0.005127528711999
   0.041650399518000   -0.001052720716789    0.015671612404002
  -0.020154872892002   -0.001377636620080    0.005637087243999
   0.002184293970000   -0.010880213783290   -0.000506487052000
  -0.005020263900001    0.008028836258401   -0.015839929508001
  -0.002506790022000    0.011071400872310    0.003298155224002
  -0.016137039954000    0.003175867811329    0.024049381252000
   0.007875892230000    0.003403487702710   -0.032538337676000
  -0.007592712978001    0.013364964953590   -0.015784335719999
   0.006886288373998   -0.004416285558970   -0.027721028444002
   0.016469709228002    0.009004860818820   -0.022442382916001
  -0.006867612894000   -0.008272203973231    0.018216026436001
   0.020282357616000   -0.006524536063760    0.007275721824000
   0.007736759904001    0.016836040612080    0.023622445532002
   0.004856853450000    0.021627379739270    0.002223137224000
   0.017720622365999    0.005346003006110   -0.032091130188000
   0.000266322174001    0.002001165305330    0.017259874712000
   0.011440304172000    0.038781356138300    0.023966451292001
  -0.005557626264002   -0.004349974453740    0.004349215680000
   0.009659646299999    0.021013725364941   -0.017768511800000
  -0.002391935820000    0.000700735581840   -0.003398899768001
   0.006629598816000   -0.002889597918020    0.000742069568000
  -0.009075890111998   -0.002995321143559    0.001003452515999
   0.015607344365998    0.023857441786530    0.005905534596002