 Ni\(1\1\1)                             
   1.00000000000000     
     9.8291997910000006    0.0000000000000000    0.0000000000000000
     4.9145998955000003    8.5123367178000002    0.0000000000000000
     0.0000000000000000    0.0000000000000000   19.0128002167000005
   Ni   O    C    O    C    H 
    64     3     1     2     1     3
Selective dynamics
Direct
  0.8322667624452972  0.5835557801032548  0.2713518347032253   T   T   T
  0.3319123901248158  0.0832901315879634  0.2704763912898034   T   T   T
  0.8324673321529485  0.0831034408302306  0.2705025651142935   T   T   T
  0.3318825289261663  0.5840714022091481  0.2706557575301916   T   T   T
  0.5821756823451310  0.8335363564405632  0.2709350622657020   T   T   T
  0.8325542698530870  0.8328040731509921  0.2710417298317900   T   T   T
  0.0825869080772787  0.3331583916648740  0.2712309914356117   T   T   T
  0.8319601168527712  0.3333253255087771  0.2711141596846590   T   T   T
  0.5822917679109407  0.5835164331130757  0.2714067458783190   T   T   T
  0.0822595896846449  0.5831091057195483  0.2712957963701959   T   T   T
  0.0817533490152814  0.0841176211789924  0.2708637651629889   T   T   T
  0.5822067019598897  0.0832045747785535  0.2713634051839960   T   T   T
  0.3321838590655184  0.8336080862622999  0.2708301559586572   T   T   T
  0.0817372045374159  0.8333546056901556  0.2706912971597029   T   T   T
  0.3318708082859064  0.3337466716017856  0.2714929807852129   T   T   T
  0.5820325701872131  0.3337622466165822  0.2713305355076726   T   T   T
  0.9169610774951972  0.6646433576419067  0.3763246171995215   T   T   T
  0.9159233550748977  0.4161726944295156  0.3754225884018813   T   T   T
  0.6661396244434379  0.6655462819390976  0.3760262334752392   T   T   T
  0.1653526991170388  0.1659607971838190  0.3767591002540076   T   T   T
  0.9163303883855992  0.1663141336563776  0.3765271959441952   T   T   T
  0.9157612868687760  0.9168903108370896  0.3759234824076180   T   T   T
  0.4150851481456144  0.9169998971893263  0.3758887724773066   T   T   T
  0.4151192938089958  0.1661472297467544  0.3758163307908319   T   T   T
  0.6662569294765702  0.1662148141933280  0.3756213556483317   T   T   T
  0.1661008101583293  0.6666838637478919  0.3760965405486830   T   T   T
  0.4149570764526853  0.6669197593003249  0.3760043409566048   T   T   T
  0.4151613681441993  0.4173276306835069  0.3759455047741482   T   T   T
  0.6656022052065654  0.9173422081841810  0.3774539588981979   T   T   T
  0.1659447205962713  0.4163779715083685  0.3787849100475253   T   T   T
  0.6652645117790909  0.4167898337744166  0.3781708872519248   T   T   T
  0.1655525104399337  0.9164536421825408  0.3781440928057737   T   T   T
  0.9986040397351705  0.2520913145078640  0.4817684356771764   T   T   T
  0.4994878313362390  0.2494919260450593  0.4793005153836115   T   T   T
  0.9977141092306043  0.7476266128166033  0.4797688971804209   T   T   T
  0.5042386563959232  0.7478290594302596  0.4797523034064876   T   T   T
  0.7486021962021399  0.7526356192053799  0.4797612646801711   T   T   T
  0.0018520096269468  0.5001848717159467  0.4845363513893165   T   T   T
  0.7472819289271756  0.5013619982430315  0.4830960245905547   T   T   T
  0.2487534905279568  0.9968498522034893  0.4854196124790393   T   T   T
  0.0028975594825946  0.9976159676353821  0.4855490829566551   T   T   T
  0.5039528863140957  0.9968037305159525  0.4858970927088852   T   T   T
  0.2482007747838894  0.7529154204658260  0.4857813213452213   T   T   T
  0.7488720002895748  0.9973515214764025  0.4861262923693738   T   T   T
  0.2520554521123114  0.2509758616997969  0.4854844712523845   T   T   T
  0.7451053145893118  0.2517057221232966  0.4842237046393382   T   T   T
  0.2481199442100321  0.4991633357139875  0.4860122357584353   T   T   T
  0.5020675623870849  0.4993045907145844  0.4855359808859918   T   T   T
  0.9970724670000024  0.2558556729999992  0.1637003960000030   F   F   F
  0.4999617989999976  0.2500875830000027  0.1643123180000003   F   F   F
  0.9968841629999972  0.7476992069999966  0.1643590660000029   F   F   F
  0.5054474789999972  0.7476858750000019  0.1651548480000002   F   F   F
  0.7507219769999978  0.7486395119999969  0.1651830500000031   F   F   F
  0.9979410790000003  0.5014025589999989  0.1651978470000017   F   F   F
  0.7507272960000009  0.5014379059999996  0.1654730480000026   F   F   F
  0.2484077359999972  0.9989653640000000  0.1655050250000016   F   F   F
  0.0026835399999996  0.9989392600000002  0.1655775309999967   F   F   F
  0.5037179199999997  0.9979203070000011  0.1655856309999990   F   F   F
  0.2483221529999966  0.7533767729999994  0.1658259459999982   F   F   F
  0.7484137009999969  0.9978805350000002  0.1658943890000018   F   F   F
  0.2473094730000014  0.2543786680000011  0.1660089160000027   F   F   F
  0.7483561820000020  0.2543461500000035  0.1660180820000008   F   F   F
  0.2472921950000000  0.4989472700000022  0.1662971330000005   F   F   F
  0.5037960519999984  0.4989156760000029  0.1664085250000014   F   F   F
  0.3340858737797425  0.0809028343132321  0.5449206147435350   T   T   T
  0.8331885545871957  0.0839394151942247  0.5451920827231768   T   T   T
  0.3337286867626424  0.5832481971979886  0.5456898462251790   T   T   T
  0.9082034860480417  0.3993441111171588  0.6302565287274049   T   T   T
  0.9073471542554344  0.4237323624612935  0.5575162847484711   T   T   T
  0.0297942975974032  0.3459733359722385  0.6627785831387070   T   T   T
  0.7479770772340111  0.4487590673662259  0.6591952175223883   T   T   T
  0.7578262120122836  0.3672635115738165  0.7008609441590080   T   T   T
  0.7010728695844991  0.5663048121472601  0.6825018415782077   T   T   T
  0.6662762270490300  0.4553224554479599  0.6181931500548952   T   T   T
 
  0.00000000E+00  0.00000000E+00  0.00000000E+00
  0.00000000E+00  0.00000000E+00  0.00000000E+00
  0.00000000E+00  0.00000000E+00  0.00000000E+00
  0.00000000E+00  0.00000000E+00  0.00000000E+00
  0.00000000E+00  0.00000000E+00  0.00000000E+00
  0.00000000E+00  0.00000000E+00  0.00000000E+00
  0.00000000E+00  0.00000000E+00  0.00000000E+00
  0.00000000E+00  0.00000000E+00  0.00000000E+00
  0.00000000E+00  0.00000000E+00  0.00000000E+00
  0.00000000E+00  0.00000000E+00  0.00000000E+00
  0.00000000E+00  0.00000000E+00  0.00000000E+00
  0.00000000E+00  0.00000000E+00  0.00000000E+00
  0.00000000E+00  0.00000000E+00  0.00000000E+00
  0.00000000E+00  0.00000000E+00  0.00000000E+00
  0.00000000E+00  0.00000000E+00  0.00000000E+00
  0.00000000E+00  0.00000000E+00  0.00000000E+00
  0.00000000E+00  0.00000000E+00  0.00000000E+00
  0.00000000E+00  0.00000000E+00  0.00000000E+00
  0.00000000E+00  0.00000000E+00  0.00000000E+00
  0.00000000E+00  0.00000000E+00  0.00000000E+00
  0.00000000E+00  0.00000000E+00  0.00000000E+00
  0.00000000E+00  0.00000000E+00  0.00000000E+00
  0.00000000E+00  0.00000000E+00  0.00000000E+00
  0.00000000E+00  0.00000000E+00  0.00000000E+00
  0.00000000E+00  0.00000000E+00  0.00000000E+00
  0.00000000E+00  0.00000000E+00  0.00000000E+00
  0.00000000E+00  0.00000000E+00  0.00000000E+00
  0.00000000E+00  0.00000000E+00  0.00000000E+00
  0.00000000E+00  0.00000000E+00  0.00000000E+00
  0.00000000E+00  0.00000000E+00  0.00000000E+00
  0.00000000E+00  0.00000000E+00  0.00000000E+00
  0.00000000E+00  0.00000000E+00  0.00000000E+00
  0.00000000E+00  0.00000000E+00  0.00000000E+00
  0.00000000E+00  0.00000000E+00  0.00000000E+00
  0.00000000E+00  0.00000000E+00  0.00000000E+00
  0.00000000E+00  0.00000000E+00  0.00000000E+00
  0.00000000E+00  0.00000000E+00  0.00000000E+00
  0.00000000E+00  0.00000000E+00  0.00000000E+00
  0.00000000E+00  0.00000000E+00  0.00000000E+00
  0.00000000E+00  0.00000000E+00  0.00000000E+00
  0.00000000E+00  0.00000000E+00  0.00000000E+00
  0.00000000E+00  0.00000000E+00  0.00000000E+00
  0.00000000E+00  0.00000000E+00  0.00000000E+00
  0.00000000E+00  0.00000000E+00  0.00000000E+00
  0.00000000E+00  0.00000000E+00  0.00000000E+00
  0.00000000E+00  0.00000000E+00  0.00000000E+00
  0.00000000E+00  0.00000000E+00  0.00000000E+00
  0.00000000E+00  0.00000000E+00  0.00000000E+00
  0.00000000E+00  0.00000000E+00  0.00000000E+00
  0.00000000E+00  0.00000000E+00  0.00000000E+00
  0.00000000E+00  0.00000000E+00  0.00000000E+00
  0.00000000E+00  0.00000000E+00  0.00000000E+00
  0.00000000E+00  0.00000000E+00  0.00000000E+00
  0.00000000E+00  0.00000000E+00  0.00000000E+00
  0.00000000E+00  0.00000000E+00  0.00000000E+00
  0.00000000E+00  0.00000000E+00  0.00000000E+00
  0.00000000E+00  0.00000000E+00  0.00000000E+00
  0.00000000E+00  0.00000000E+00  0.00000000E+00
  0.00000000E+00  0.00000000E+00  0.00000000E+00
  0.00000000E+00  0.00000000E+00  0.00000000E+00
  0.00000000E+00  0.00000000E+00  0.00000000E+00
  0.00000000E+00  0.00000000E+00  0.00000000E+00
  0.00000000E+00  0.00000000E+00  0.00000000E+00
  0.00000000E+00  0.00000000E+00  0.00000000E+00
  0.00000000E+00  0.00000000E+00  0.00000000E+00
  0.00000000E+00  0.00000000E+00  0.00000000E+00
  0.00000000E+00  0.00000000E+00  0.00000000E+00
  0.00000000E+00  0.00000000E+00  0.00000000E+00
  0.00000000E+00  0.00000000E+00  0.00000000E+00
  0.00000000E+00  0.00000000E+00  0.00000000E+00
  0.00000000E+00  0.00000000E+00  0.00000000E+00
  0.00000000E+00  0.00000000E+00  0.00000000E+00
  0.00000000E+00  0.00000000E+00  0.00000000E+00
  0.00000000E+00  0.00000000E+00  0.00000000E+00
