 Ni3(PO4)2-0K+                   
   1.00000000000000     
    11.6148996353000005    0.0000000000000000    0.0000000000000000
     0.0000000000000000    9.3666000365999995    0.0000000000000000
     0.0000000000000000    0.0000000000000000   33.0127983093000026
   Ni   P    O    H 
    24    16    94    60
Selective dynamics
Direct
  0.1346800000000000  0.0081200000000000  0.0493699990000000   F   F   F
  0.3834219035724588  0.2183992177756742  0.3495796025226172   T   T   T
  0.3759292352782556  0.4982044273041210  0.1874008533768349   T   T   T
  0.1144987294063284  0.2487854400319862  0.1971130006894340   T   T   T
  0.2258000093138554 -0.0118248517887809  0.2764891214008205   T   T   T
  0.2592799900000000  0.2515699900000000  0.1184900100000000   F   F   F
  0.6346799700000000  0.0081200000000000  0.0493699990000000   F   F   F
  0.9472642295015071  0.2333578267473601  0.3454988973314815   T   T   T
  0.8715159916295034  0.4927232227183303  0.1890314561973585   T   T   T
  0.6025275376319429  0.2556111136244714  0.2071198493719514   T   T   T
  0.7446198341464008  0.0065628656109637  0.2776418052615147   T   T   T
  0.7592800100000000  0.2515699900000000  0.1184900100000000   F   F   F
  0.1346800000000000  0.5081200200000000  0.0493699990000000   F   F   F
  0.3808658237858829  0.7981144476658903  0.3355129739455850   T   T   T
  0.3850405579258790 -0.0172669160785045  0.1908218654346255   T   T   T
  0.1110853794549032  0.7466290938597206  0.2017742827119882   T   T   T
  0.2888368057334457  0.4944403991497411  0.3110463188799392   T   T   T
  0.2592799900000000  0.7515700100000000  0.1184900100000000   F   F   F
  0.6346799700000000  0.5081200200000000  0.0493699990000000   F   F   F
  0.8710406385910997  0.7383899903581713  0.3497059856335497   T   T   T
  0.8801464854528029  0.9952317460111457  0.1907092190546675   T   T   T
  0.6253201096156361  0.7428332888498660  0.2057901999235049   T   T   T
  0.7526531018631147  0.4909032182945762  0.2763784174586368   T   T   T
  0.7592800100000000  0.7515700100000000  0.1184900100000000   F   F   F
  0.1657252337623069  0.3503502307039536  0.4004715728889350   T   T   T
  0.3856599900000000  0.0401900000000000  0.0895700010000000   F   F   F
  0.3451669068566751  0.2180483301263881  0.2562057101492790   T   T   T
  0.1294981835445091  0.4663374510447862  0.1470401640153276   T   T   T
  0.6298195574556825  0.2857299471342447  0.3081537208601215   T   T   T
  0.8856599900000000  0.0401900000000000  0.0895700010000000   F   F   F
  0.8903881960440362  0.2126481597346123  0.2467093231700811   T   T   T
  0.6252431993455912  0.4660400965092773  0.1476365461599957   T   T   T
  0.1247790630947568  0.7714755822004679  0.3100075071288686   T   T   T
  0.3856599900000000  0.5401899700000000  0.0895700010000000   F   F   F
  0.3758622247972805  0.6990020542093706  0.2438760544990956   T   T   T
  0.1286019555653845  0.9613167272308158  0.1480446830737298   T   T   T
  0.6408668002772128  0.7793820812197187  0.3080885627514995   T   T   T
  0.8856599900000000  0.5401899700000000  0.0895700010000000   F   F   F
  0.8775856724728847  0.7058392570750383  0.2467623583344496   T   T   T
  0.6302582765893295  0.9653564553031979  0.1475900225054037   T   T   T
  0.0395037506122793  0.3729847367556233  0.3810648748616791   T   T   T
  0.2548006108866824  0.3552668011018180  0.3614699485011255   T   T   T
  0.1274962639873641  0.1241026458503156  0.1482483624522518   T   T   T
  0.1882571527910337  0.4806682509456698  0.4262567355825964   T   T   T
  0.4870899800000000  0.1014900000000000  0.0656600030000000   F   F   F
  0.3792323817913931  0.0992392618555685  0.1346672671262047   T   T   T
  0.3247935435294695  0.3770471557420225  0.2629973696552108   T   T   T
  0.2789900000000000  0.1186700000000000  0.0689899970000000   F   F   F
  0.4410614619932744  0.1677831101698404  0.2279140586476206   T   T   T
  0.3412489658531734  0.1321143630103092  0.2968180222170045   T   T   T
  0.3773300200000000  0.3781200100000000  0.0875900020000000   F   F   F
  0.2290666319427103  0.1431197915165115  0.2352189319032209   T   T   T
  0.0232752807261632  0.4033613979114094  0.1670976359556752   T   T   T
  0.1380500000000000  0.4057100200000000  0.1037800000000000   F   F   F
  0.1809104149161264  0.2000215784575997  0.4182645185817663   T   T   T
  0.2346937884206270  0.3874264153893803  0.1693207392983163   T   T   T
  0.5131317817353984  0.3203249922887684  0.3270280803017752   T   T   T
  0.6231813154713196  0.3392492071953777  0.2633385289842606   T   T   T
  0.6321431473384208  0.1258875301509563  0.1510486722440677   T   T   T
  0.7358624940433171  0.3692623198307730  0.3251747662348819   T   T   T
  0.9870900200000000  0.1014900000000000  0.0656600030000000   F   F   F
  0.8795298141635185  0.0972630953524738  0.1346731165515426   T   T   T
  0.8722859199261188  0.3759820961418528  0.2420995047607648   T   T   T
  0.7789900000000000  0.1186700000000000  0.0689899970000000   F   F   F
  0.9846073477219233  0.1456757744899518  0.2203393508453362   T   T   T
  0.8948571116617293  0.1578447315723936  0.2897075389974952   T   T   T
  0.8773299800000000  0.3781200100000000  0.0875900020000000   F   F   F
  0.7762344324861387  0.1376257403680762  0.2278851194369908   T   T   T
  0.5202510003357042  0.3965010342964581  0.1705756710502708   T   T   T
  0.6380500000000000  0.4057100200000000  0.1037800000000000   F   F   F
  0.6390106124717229  0.1244294892931790  0.3093659971721949   T   T   T
  0.7259479840036436  0.3890573332580408  0.1725114167084276   T   T   T
  0.0337349902391504  0.8331640492189171  0.3397119680462842   T   T   T
  0.1108779525521753  0.8329444443579508  0.2662215094948793   T   T   T
  0.1295588544913784  0.6289594530296519  0.1474666289624816   T   T   T
  0.2326463629508394  0.8671404028727736  0.3239522968648879   T   T   T
  0.4870899800000000  0.6014900100000000  0.0656600030000000   F   F   F
  0.3812815980132608  0.6059199376582679  0.1333968838155900   T   T   T
  0.3827010092135038  0.8611057211708752  0.2405876592941689   T   T   T
  0.2789900000000000  0.6186699700000000  0.0689899970000000   F   F   F
  0.4849845804934991  0.6218776620799592  0.2218759660322862   T   T   T
  0.3799319972507657  0.6508264582823781  0.2898245876496648   T   T   T
  0.3773300200000000  0.8781199600000000  0.0875900020000000   F   F   F
  0.2685838393158135  0.6327270819842570  0.2212753909216607   T   T   T
  0.0220570949641673  0.8948270071239278  0.1704621229470316   T   T   T
  0.1380500000000000  0.9057099900000000  0.1037800000000000   F   F   F
  0.1549666004913166  0.6164425775581410  0.3159768969685265   T   T   T
  0.2391867308914563  0.8898737337476399  0.1688543566747792   T   T   T
  0.5396295307839889  0.8312484607130898  0.3375905900768001   T   T   T
  0.6363782870231066  0.8421957171523113  0.2658762027998467   T   T   T
  0.6334383731129516  0.6292851648534932  0.1485230036196459   T   T   T
  0.7441446260246971  0.8683608661588107  0.3260112081407877   T   T   T
  0.9870900200000000  0.6014900100000000  0.0656600030000000   F   F   F
  0.8751483014080853  0.5968883967845243  0.1328834534772826   T   T   T
  0.8720675466123119  0.8701068320572392  0.2467180587055820   T   T   T
  0.7789900000000000  0.6186699700000000  0.0689899970000000   F   F   F
  0.9744524587658510  0.6509019958130574  0.2186331987544094   T   T   T
  0.8779155798434375  0.6446653843675825  0.2918303534676621   T   T   T
  0.8773299800000000  0.8781199600000000  0.0875900020000000   F   F   F
  0.7664245951580374  0.6359515298006538  0.2261746911335688   T   T   T
  0.5313977886674728  0.8921860049878030  0.1704758620309312   T   T   T
  0.6380500000000000  0.9057099900000000  0.1037800000000000   F   F   F
  0.6527757589288697  0.6183427081112930  0.3076267774880146   T   T   T
  0.7399679124672348  0.8867161004200783  0.1700000076206608   T   T   T
  1.0675260169712912  0.1037433029530271  0.3436383386719265   T   T   T
  0.3919277475737201  0.6168239565164074  0.5750843510680879   T   T   T
  0.5417554801758040  0.5506101559334770  0.3858076830245463   T   T   T
  0.3068815166001558  0.0136355473545771  0.5841475279885063   T   T   T
  0.9827252384592113  0.2062713511202365  0.4756898844024651   T   T   T
  0.1870224740076379 -0.2297872968445501  0.5557562262970113   T   T   T
  0.5628476914567089 -0.0016612041208419  0.4030025620464641   T   T   T
  0.4493110743971304  0.3293983579565725  0.4169637495903621   T   T   T
  0.7443301723677631  0.7066601463504694  0.5176619426604205   T   T   T
  0.8482702279257419  0.1470983400053514  0.5426840890515503   T   T   T
  0.4728899095023811  0.3171044744836549  0.5212061308957797   T   T   T
  0.7122783582232620  0.6592414416127135  0.4295469940434305   T   T   T
  0.8452549095711427  0.4287248976812622  0.4567866401331366   T   T   T
  0.5187805220929128 -0.0953404867225096  0.4770743620748767   T   T   T
  0.6677971418507951  0.2393976673313195  0.4394410481846361   T   T   T
  0.7947089279306975  0.1501145673235364  0.3710303803803841   T   T   T
  0.3552951388984164  0.6925595315489586  0.3865111412108803   T   T   T
  0.9393891240869021  0.6243671568491641  0.3925561539188486   T   T   T
  0.0883459874217393  0.4938280101799206  0.5633290473037338   T   T   T
  0.5201648280833860  0.5959828871626008  0.5027225404650609   T   T   T
  0.1706050253485566  0.3440066899154575  0.5027702918186456   T   T   T
  0.3099750989129600  0.1258513827616147  0.4963586266147833   T   T   T
  0.6382416363518476  0.0975266232992226  0.5148985541517134   T   T   T
  0.8466732486283750  0.8787183325191651  0.4004166569462324   T   T   T
  0.8677502951746193  0.4572807362368221  0.5382062850916994   T   T   T
  0.3124019717982522  0.3190457307596112  0.5914788169414428   T   T   T
  1.0055895130886687  0.9427066061932809  0.4525230172567524   T   T   T
  0.3411798400517566  0.0593964710686062  0.3864419092273914   T   T   T
  0.9284245568511126 -0.1319379720205741  0.5258628549248450   T   T   T
  0.2282336541936684  0.8316676303073397  0.4677590273763681   T   T   T
  0.1194623648824478  0.1155894851051331  0.3681499683547078   T   T   T
  1.0312469973364666  0.0008700520526836  0.3403351667361744   T   T   T
  0.3906411493286775  0.5590812929778726  0.6002415114854387   T   T   T
  0.3183974084613870  0.6755707600724221  0.5739167464482722   T   T   T
  0.5986077280255020  0.5968933646289691  0.4042234502905509   T   T   T
  0.5726416087507812  0.5622077269091477  0.3577614838651293   T   T   T
  0.3217047769075784  0.1162366036309086  0.5808671293315295   T   T   T
  0.3821013627825318 -0.0281648883505126  0.5905738154107726   T   T   T
  1.0618792830507933  0.2372535400751675  0.4850226031249596   T   T   T
  0.9332975152414078  0.1899187283119401  0.5000624481312949   T   T   T
  0.1950556140158451 -0.2462899975052804  0.5262716280312619   T   T   T
  0.2323146703399252 -0.1441925766941501  0.5639300311266892   T   T   T
  0.5871069919721496  0.9470202573192705  0.3786710079511633   T   T   T
  0.6238861644254786  0.0666852499531941  0.4124918977429023   T   T   T
  0.3843472608591375  0.3945006756149755  0.4232125178122856   T   T   T
  0.4986778977452280  0.3968228178347688  0.3992106908979757   T   T   T
  0.8008340938048483  0.7859029489221890  0.5147100553702991   T   T   T
  0.7817045364803460  0.6500385492816476  0.5398611829691935   T   T   T
  0.7700680613128044  0.1232260109044055  0.5317319900380095   T   T   T
  0.8760241353847737  0.0434559156696375  0.5460218006544018   T   T   T
  0.4837367189905622  0.3954939185002211  0.5024556069648592   T   T   T
  0.4256180895556312  0.2376257346116768  0.5086574556540014   T   T   T
  0.7167480572113166  0.6572246057856992  0.4592883073608302   T   T   T
  0.7329377062847284  0.7601606625758727  0.4220880440047433   T   T   T
  0.9090333210978006  0.3516829499839235  0.4556082470168048   T   T   T
  0.7767362335901591  0.3854534712997428  0.4473326516283547   T   T   T
  0.5360832140803724 -0.0604527410992064  0.4495308121052186   T   T   T
  0.5206103801938948 -0.2013030400115517  0.4759075304987678   T   T   T
  0.6845480021596306  0.1792558147809404  0.4649105582488022   T   T   T
  0.5822617833515749  0.2575302239514871  0.4426465861140800   T   T   T
  0.7453004890820205  0.1234482349703535  0.3478484475086656   T   T   T
  0.7499322068944383  0.2153763947610567  0.3892662241392647   T   T   T
  0.4205823489642975  0.6285257250806616  0.3917876752523379   T   T   T
  0.2848137030732141  0.6351135056646965  0.3852037148847482   T   T   T
  0.9863009111562888  0.5405490967124928  0.3900720891949546   T   T   T
  0.8719556421748027  0.5885129746407615  0.4096187940005222   T   T   T
  0.1138803478898777  0.5904824083164835  0.5705574539652317   T   T   T
  1.0065208557916228  0.4824406654166260  0.5566815572411832   T   T   T
  0.4704849591095011  0.6024088451785744  0.5263479829047071   T   T   T
  0.5929608218592536  0.6304550333059398  0.5129888166216477   T   T   T
  0.1461936566176771  0.4020670587078021  0.5260358377133062   T   T   T
  0.1714438321537805  0.3956591494290791  0.4780034719327717   T   T   T
  0.2498435592481893  0.1971567419197741  0.5040893234201022   T   T   T
  0.3239933502363788  0.0625958452879838  0.5184138879925477   T   T   T
  0.5820590364320215  0.1791988695455980  0.5209397615901962   T   T   T
  0.6048155120551423  0.0027427363185858  0.5087193129250487   T   T   T
  0.9139789137498912  0.8841647808367556  0.4204178171925679   T   T   T
  0.8188108804824903  0.9778986574679884  0.3949553813907297   T   T   T
  0.8628246232726263  0.4416732859255921  0.5079770602325834   T   T   T
  0.8437202410740023  0.3631085657619352  0.5495335081249417   T   T   T
  0.3599065366511023  0.3476423786225994  0.5688763803986049   T   T   T
  0.2408370974012207  0.3696084901203927  0.5869769938235238   T   T   T
  0.0099995718671281  0.0466941601851695  0.4585673608330699   T   T   T
  0.0822982579719625  0.8987481880124282  0.4486814498738081   T   T   T
  0.4105379055330220  0.0358150285941062  0.4027971012043975   T   T   T
  0.2819895862097003  0.1060855132572203  0.4048041997285519   T   T   T
  1.0012620090862840 -0.1612166040748513  0.5374170495277143   T   T   T
  0.9538482659317680 -0.0907010658750729  0.4984304570598714   T   T   T
  0.2659141117742266  0.7657265698957088  0.4505490630327151   T   T   T
  0.2628156097568661  0.9235203424363053  0.4664866708567594   T   T   T
 
  0.00000000E+00  0.00000000E+00  0.00000000E+00
 -0.21479473E-03  0.16321927E-03 -0.96691066E-03
 -0.20354595E-03 -0.12759030E-02 -0.11808593E-02
 -0.23374054E-02 -0.13486640E-02 -0.50806850E-02
 -0.16915789E-02 -0.27853490E-02  0.43886279E-02
  0.00000000E+00  0.00000000E+00  0.00000000E+00
  0.00000000E+00  0.00000000E+00  0.00000000E+00
  0.45613131E-02 -0.53158799E-03 -0.96440139E-04
  0.32078600E-02  0.26791737E-02 -0.72027918E-03
  0.11769012E-02 -0.92400940E-04 -0.89495255E-03
  0.58645253E-03 -0.28588860E-02 -0.49353407E-03
  0.00000000E+00  0.00000000E+00  0.00000000E+00
  0.00000000E+00  0.00000000E+00  0.00000000E+00
 -0.70944949E-05  0.28294747E-02 -0.11177853E-02
  0.47560710E-03 -0.31977092E-02  0.80706985E-03
 -0.59433201E-03  0.32668342E-02  0.13283595E-02
 -0.32703323E-02 -0.17016549E-02  0.32349506E-02
  0.00000000E+00  0.00000000E+00  0.00000000E+00
  0.00000000E+00  0.00000000E+00  0.00000000E+00
 -0.10899381E-02  0.49406565E-04 -0.23999893E-02
 -0.19020289E-02 -0.17591819E-02 -0.35801756E-02
  0.10896583E-03  0.12596659E-02 -0.79965628E-03
  0.62284250E-04 -0.75690721E-03  0.19552035E-02
  0.00000000E+00  0.00000000E+00  0.00000000E+00
  0.21625850E-02 -0.31362261E-02  0.79986327E-03
  0.00000000E+00  0.00000000E+00  0.00000000E+00
 -0.14254533E-02  0.16987799E-02  0.37162097E-03
 -0.62111336E-03  0.26022212E-02 -0.20198591E-02
  0.88866073E-03  0.42375045E-02 -0.10942053E-02
  0.00000000E+00  0.00000000E+00  0.00000000E+00
 -0.42909393E-02 -0.55490231E-03  0.10114558E-02
  0.18765665E-02 -0.14420100E-02 -0.73458653E-02
  0.12517024E-02 -0.12061171E-02 -0.42377866E-02
  0.00000000E+00  0.00000000E+00  0.00000000E+00
 -0.31120257E-02 -0.73782984E-03 -0.67381583E-03
  0.30880006E-02 -0.49161728E-03 -0.32482531E-02
 -0.19087801E-02  0.51058120E-02  0.77610055E-03
  0.00000000E+00  0.00000000E+00  0.00000000E+00
 -0.22777017E-03 -0.32228047E-03  0.21394170E-03
 -0.31952757E-02 -0.35814151E-02 -0.85273872E-03
 -0.62417522E-03  0.94702792E-03 -0.46766856E-02
 -0.17944500E-02  0.19494424E-02  0.35415593E-02
  0.11111491E-03 -0.25547840E-02 -0.11655865E-01
 -0.23397823E-02 -0.53975801E-02 -0.28222343E-02
  0.00000000E+00  0.00000000E+00  0.00000000E+00
  0.68438909E-03  0.54045801E-02 -0.29753705E-02
  0.24278029E-02  0.46753990E-02  0.37790672E-02
  0.00000000E+00  0.00000000E+00  0.00000000E+00
 -0.56448231E-03  0.68638223E-03 -0.34038529E-03
 -0.48356809E-02 -0.37151086E-02 -0.55575190E-02
  0.00000000E+00  0.00000000E+00  0.00000000E+00
  0.31029719E-02  0.97089276E-03 -0.12753698E-02
  0.25806096E-02 -0.10719749E-02  0.50262719E-02
  0.00000000E+00  0.00000000E+00  0.00000000E+00
  0.13452555E-02 -0.87909455E-03  0.34236201E-02
 -0.59777914E-02 -0.16557719E-02 -0.21804691E-02
 -0.49161386E-02  0.46398368E-02 -0.97825449E-03
  0.22409933E-02  0.29038713E-02  0.29867102E-02
 -0.48292553E-04 -0.57763359E-02 -0.64428872E-02
 -0.12985771E-02 -0.31008150E-02  0.32406710E-02
  0.00000000E+00  0.00000000E+00  0.00000000E+00
  0.11834503E-02  0.88526449E-03 -0.13421746E-03
 -0.32963454E-02 -0.46580380E-02  0.25393344E-03
  0.00000000E+00  0.00000000E+00  0.00000000E+00
  0.59308732E-02 -0.35961054E-02  0.31691164E-02
  0.38575832E-02 -0.14117657E-02  0.36814505E-02
  0.00000000E+00  0.00000000E+00  0.00000000E+00
  0.51669410E-02  0.18958277E-02 -0.31901557E-03
  0.15470916E-02  0.12201121E-02  0.80188541E-04
  0.00000000E+00  0.00000000E+00  0.00000000E+00
 -0.14754924E-02  0.23836431E-03  0.17258868E-02
 -0.26968643E-02 -0.25091404E-02 -0.36670743E-03
 -0.44492073E-02 -0.41582937E-02  0.16303561E-03
 -0.42834537E-02 -0.44951637E-02 -0.64222025E-03
 -0.37626708E-02  0.21642380E-02  0.31649053E-02
  0.10184751E-02  0.47855224E-02 -0.75427801E-02
  0.00000000E+00  0.00000000E+00  0.00000000E+00
 -0.43915039E-02  0.46318612E-02  0.81217910E-03
  0.21303116E-02  0.50945274E-02 -0.27988124E-02
  0.00000000E+00  0.00000000E+00  0.00000000E+00
 -0.62777422E-02  0.11358023E-02  0.51164503E-02
  0.30365340E-02 -0.67747585E-02 -0.95386741E-03
  0.00000000E+00  0.00000000E+00  0.00000000E+00
 -0.25632721E-02 -0.22963324E-02 -0.82523896E-02
 -0.26064944E-03 -0.26060193E-02  0.26422832E-02
  0.00000000E+00  0.00000000E+00  0.00000000E+00
 -0.32470039E-02  0.44676900E-02 -0.42659701E-02
 -0.16911997E-02  0.16574268E-02 -0.51220709E-02
 -0.44295235E-02  0.10147682E-01 -0.51560601E-02
  0.24614950E-02 -0.35970754E-02 -0.11864071E-02
  0.67968734E-03  0.10786067E-02  0.44149839E-02
  0.34865102E-02  0.27616594E-02 -0.48210881E-02
  0.00000000E+00  0.00000000E+00  0.00000000E+00
  0.42011746E-02 -0.99824240E-03 -0.24033807E-02
 -0.15275382E-02  0.21072029E-02  0.48040197E-02
  0.00000000E+00  0.00000000E+00  0.00000000E+00
  0.54182376E-03  0.36617618E-03  0.80161491E-02
  0.16661617E-02 -0.44578650E-02  0.66981822E-02
  0.00000000E+00  0.00000000E+00  0.00000000E+00
  0.21824728E-02 -0.26069764E-02  0.26397598E-02
  0.40059118E-03 -0.10688539E-01  0.77850713E-02
  0.00000000E+00  0.00000000E+00  0.00000000E+00
 -0.15438785E-02 -0.12116391E-02 -0.35614377E-02
  0.46837996E-02  0.87366417E-03  0.34520497E-02
 -0.30984306E-02 -0.26150512E-02 -0.21707627E-02
  0.35757486E-02 -0.18495489E-03 -0.13413670E-02
 -0.38395921E-02 -0.80243663E-02  0.89005357E-03
 -0.14213357E-01  0.46783230E-02 -0.11166956E-02
 -0.51364727E-02 -0.37223099E-02  0.22419223E-04
  0.45762895E-02  0.22589777E-02  0.50402560E-03
  0.32413687E-02 -0.14280652E-02  0.11620982E-02
  0.34794339E-02 -0.45872657E-03 -0.76928819E-02
 -0.87033314E-02  0.43299589E-02 -0.26115744E-02
 -0.16146439E-02 -0.38508398E-02 -0.59272283E-02
 -0.20739523E-02 -0.26285500E-02 -0.44967332E-02
 -0.16689830E-02 -0.55315519E-02 -0.10873712E-02
  0.44916163E-02  0.38452473E-03 -0.70488860E-02
  0.41697380E-02  0.10796227E-02  0.25595174E-03
 -0.74279634E-03 -0.55005461E-02  0.59169094E-02
 -0.42368307E-02 -0.19009554E-02 -0.40540884E-02
  0.64172558E-03 -0.13533902E-02 -0.17034531E-02
  0.48202023E-02 -0.84433190E-03  0.77432561E-02
  0.31275910E-02  0.42929149E-02  0.46611406E-02
 -0.68758130E-03 -0.11663386E-01  0.27828463E-02
 -0.20941840E-02 -0.43731498E-02  0.50828911E-02
 -0.30429904E-02 -0.76286750E-03 -0.20940738E-02
 -0.49315916E-02 -0.16495532E-02  0.19374304E-02
 -0.66162005E-03  0.85389404E-03 -0.52013174E-02
  0.16865991E-02  0.30557220E-02  0.27943814E-02
 -0.73188206E-02 -0.95189462E-02 -0.59533359E-02
 -0.18534294E-02 -0.68340325E-02  0.12847298E-03
 -0.25208481E-02  0.18811149E-03  0.10959714E-02
  0.25240556E-02 -0.13967046E-02 -0.10808694E-01
 -0.97853212E-02  0.36565769E-02  0.44590317E-02
  0.16558742E-01 -0.12336728E-01 -0.13782041E-01
  0.37851004E-02 -0.88739412E-02 -0.11869320E-01
 -0.15806518E-02  0.13149368E-01 -0.49263265E-02
 -0.12400224E-01 -0.10020558E-01  0.23102994E-02
  0.76704816E-03 -0.86386528E-02 -0.12966510E-01
  0.90963566E-03 -0.71269534E-02  0.15148742E-01
  0.79334685E-02 -0.61567253E-02 -0.87319888E-02
  0.12364488E-01  0.29793689E-01  0.22890775E-01
 -0.23463218E-01 -0.17469821E-01 -0.80630073E-02
 -0.80018803E-02  0.13861394E-01  0.19766367E-02
 -0.23949773E-01  0.27580898E-01  0.12368154E-01
 -0.77197139E-02  0.30588370E-01 -0.23063688E-01
 -0.98513747E-02 -0.41074547E-02  0.12749819E-01
  0.31769132E-02 -0.30454122E-01 -0.42716947E-02
 -0.10448627E-01 -0.86650695E-02  0.12200929E-01
 -0.30486268E-01  0.64546677E-02  0.60660738E-04
  0.20515339E-01  0.64880371E-02 -0.19619320E-02
 -0.18411928E-02 -0.67208462E-02  0.75933272E-03
  0.74548326E-02  0.62627832E-03  0.46341239E-02
 -0.32193409E-02  0.63186113E-02 -0.19725575E-01
 -0.10325783E-02  0.73714124E-02 -0.45560228E-02
 -0.18345104E-01  0.92699051E-02  0.67592687E-02
 -0.23958810E-01 -0.21026352E-02 -0.17561933E-01
 -0.12710433E-02  0.12113489E-01  0.22373301E-01
 -0.16507560E-01  0.11451751E-01 -0.29582452E-01
 -0.13199362E-01 -0.58587788E-02  0.10521213E-01
 -0.18996435E-01 -0.35997431E-02  0.15073803E-01
  0.20206633E-01 -0.37580859E-01  0.11780861E-01
 -0.18365891E-01 -0.97166581E-02 -0.12658494E-01
  0.94948146E-02 -0.11913250E-01 -0.64293691E-02
  0.53369686E-02 -0.20953445E-01 -0.21547547E-01
 -0.22919715E-01  0.44476426E-02 -0.71712041E-02
  0.62462391E-03 -0.84071529E-02  0.14839819E-01
 -0.32024626E-02 -0.13396106E-01  0.41477055E-02
  0.20350749E-01 -0.39987789E-02  0.82620775E-02
 -0.10526398E-01  0.11129354E-02  0.25053010E-01
  0.15562302E-01  0.17571643E-02 -0.32308833E-02
 -0.19854896E-01  0.14214916E-01 -0.85910403E-02
 -0.16268296E-01 -0.41429690E-02 -0.30625612E-02
  0.10952718E-01 -0.29528730E-02 -0.98848151E-03
 -0.94913053E-02  0.13359155E-01  0.19001779E-01
 -0.16827331E-01  0.22384537E-02 -0.29865225E-02
 -0.67772911E-02  0.47386315E-02  0.86406817E-02
 -0.59485558E-02  0.25178038E-02  0.60561491E-02
 -0.86666856E-02 -0.17592338E-01 -0.17330999E-01
  0.39561549E-02 -0.79447499E-02 -0.20278897E-01
 -0.14480808E-01 -0.17522555E-01  0.20445107E-01
 -0.19041169E-01  0.97653553E-02 -0.13796532E-01
 -0.23670427E-02  0.29376679E-01 -0.16978944E-01
 -0.93859608E-03 -0.90440313E-02 -0.12776877E-01
  0.13744440E-01  0.18899378E-01  0.10015924E-01
  0.42265920E-02 -0.16008460E-01  0.26043527E-02
  0.65191904E-02  0.19327344E-01 -0.81557314E-02
  0.19431990E-02 -0.64554599E-02 -0.11453244E-01
 -0.30766381E-01 -0.30095179E-02  0.42162585E-02
  0.17814338E-01  0.17870284E-01  0.26927722E-02
 -0.12051985E-02 -0.62505662E-03  0.14760008E-01
  0.13759925E-01  0.22639221E-02 -0.84583979E-02
 -0.46240997E-02 -0.22953353E-01  0.36409731E-02
 -0.10847599E-01  0.23049596E-01 -0.28122352E-01
 
           1
   1.00000000000000     
  0.22477535E+00  0.46107988E-02  0.54492946E-02  0.21974531E+00
  0.13468000E+00  0.81200000E-02  0.49369999E-01
  0.38340341E+00  0.21841664E+00  0.34955031E+00
  0.37591171E+00  0.49806821E+00  0.18736508E+00
  0.11429749E+00  0.24864145E+00  0.19695910E+00
  0.22565437E+00  0.98787778E+00  0.27662206E+00
  0.25927999E+00  0.25156999E+00  0.11849001E+00
  0.63467997E+00  0.81200000E-02  0.49369999E-01
  0.94765694E+00  0.23330107E+00  0.34549598E+00
  0.87179218E+00  0.49300926E+00  0.18900964E+00
  0.60262886E+00  0.25560125E+00  0.20709274E+00
  0.74467033E+00  0.62576443E-02  0.27762686E+00
  0.75928001E+00  0.25156999E+00  0.11849001E+00
  0.13468000E+00  0.50812002E+00  0.49369999E-01
  0.38086521E+00  0.79841653E+00  0.33547911E+00
  0.38508151E+00  0.98239169E+00  0.19084631E+00
  0.11103421E+00  0.74697787E+00  0.20181452E+00
  0.28855524E+00  0.49425873E+00  0.31114431E+00
  0.25927999E+00  0.75157001E+00  0.11849001E+00
  0.63467997E+00  0.50812002E+00  0.49369999E-01
  0.87094680E+00  0.73839527E+00  0.34963329E+00
  0.87998273E+00  0.99504393E+00  0.19060077E+00
  0.62532949E+00  0.74296777E+00  0.20576598E+00
  0.75265846E+00  0.49082241E+00  0.27643764E+00
  0.75928001E+00  0.75157001E+00  0.11849001E+00
  0.16591142E+00  0.35001540E+00  0.40049580E+00
  0.38565999E+00  0.40190000E-01  0.89570001E-01
  0.34504418E+00  0.21822970E+00  0.25621697E+00
  0.12944471E+00  0.46661527E+00  0.14697898E+00
  0.62989607E+00  0.28618235E+00  0.30812058E+00
  0.88565999E+00  0.40190000E-01  0.89570001E-01
  0.89001876E+00  0.21258892E+00  0.24673996E+00
  0.62540476E+00  0.46588614E+00  0.14741403E+00
  0.12488683E+00  0.77134681E+00  0.30987914E+00
  0.38565999E+00  0.54018997E+00  0.89570001E-01
  0.37559429E+00  0.69892328E+00  0.24385564E+00
  0.12886782E+00  0.96126424E+00  0.14794629E+00
  0.64070246E+00  0.77992719E+00  0.30811207E+00
  0.88565999E+00  0.54018997E+00  0.89570001E-01
  0.87756606E+00  0.70580485E+00  0.24676884E+00
  0.62998318E+00  0.96497410E+00  0.14756419E+00
  0.39450011E-01  0.37308584E+00  0.38092321E+00
  0.25464612E+00  0.35547493E+00  0.36157723E+00
  0.12750583E+00  0.12382989E+00  0.14789529E+00
  0.18805571E+00  0.48009199E+00  0.42617125E+00
  0.48708998E+00  0.10149000E+00  0.65660003E-01
  0.37929131E+00  0.99816267E-01  0.13457714E+00
  0.32500257E+00  0.37754631E+00  0.26311184E+00
  0.27899000E+00  0.11867000E+00  0.68989997E-01
  0.44101286E+00  0.16785639E+00  0.22790375E+00
  0.34083263E+00  0.13171773E+00  0.29664968E+00
  0.37733002E+00  0.37812001E+00  0.87590002E-01
  0.22933379E+00  0.14322345E+00  0.23518030E+00
  0.23497462E-01  0.40324695E+00  0.16724989E+00
  0.13805000E+00  0.40571002E+00  0.10378000E+00
  0.18102624E+00  0.19992772E+00  0.41836822E+00
  0.23417912E+00  0.38724964E+00  0.16925469E+00
  0.51270852E+00  0.32082035E+00  0.32699845E+00
  0.62337426E+00  0.33955923E+00  0.26342900E+00
  0.63213899E+00  0.12527084E+00  0.15085351E+00
  0.73575069E+00  0.36893127E+00  0.32527293E+00
  0.98709002E+00  0.10149000E+00  0.65660003E-01
  0.87963170E+00  0.97357608E-01  0.13466905E+00
  0.87200212E+00  0.37548479E+00  0.24210720E+00
  0.77899000E+00  0.11867000E+00  0.68989997E-01
  0.98511797E+00  0.14529185E+00  0.22043535E+00
  0.89518924E+00  0.15769401E+00  0.28981905E+00
  0.87732998E+00  0.37812001E+00  0.87590002E-01
  0.77667929E+00  0.13782814E+00  0.22787546E+00
  0.52038420E+00  0.39663130E+00  0.17057810E+00
  0.63805000E+00  0.40571002E+00  0.10378000E+00
  0.63888358E+00  0.12445494E+00  0.30941828E+00
  0.72571579E+00  0.38878945E+00  0.17250031E+00
  0.33351930E-01  0.83272010E+00  0.33971691E+00
  0.11050916E+00  0.83246453E+00  0.26620206E+00
  0.12923490E+00  0.62919051E+00  0.14756250E+00
  0.23273405E+00  0.86765132E+00  0.32372382E+00
  0.48708998E+00  0.60149001E+00  0.65660003E-01
  0.38090351E+00  0.60641445E+00  0.13342149E+00
  0.38288442E+00  0.86164962E+00  0.24050288E+00
  0.27899000E+00  0.61866997E+00  0.68989997E-01
  0.48444409E+00  0.62199892E+00  0.22203095E+00
  0.38019343E+00  0.65010317E+00  0.28979569E+00
  0.37733002E+00  0.87811996E+00  0.87590002E-01
  0.26836315E+00  0.63248192E+00  0.22102542E+00
  0.22034654E-01  0.89454878E+00  0.17054216E+00
  0.13805000E+00  0.90570999E+00  0.10378000E+00
  0.15468705E+00  0.61691956E+00  0.31584768E+00
  0.23904112E+00  0.89005068E+00  0.16869920E+00
  0.53924817E+00  0.83233185E+00  0.33743441E+00
  0.63659021E+00  0.84181169E+00  0.26584027E+00
  0.63349689E+00  0.62940032E+00  0.14865674E+00
  0.74444480E+00  0.86865571E+00  0.32586517E+00
  0.98709002E+00  0.60149001E+00  0.65660003E-01
  0.87551001E+00  0.59678182E+00  0.13281065E+00
  0.87193603E+00  0.87033180E+00  0.24686358E+00
  0.77899000E+00  0.61866997E+00  0.68989997E-01
  0.97449911E+00  0.65094109E+00  0.21887602E+00
  0.87805903E+00  0.64418945E+00  0.29203325E+00
  0.87732998E+00  0.87811996E+00  0.87590002E-01
  0.76661250E+00  0.63567320E+00  0.22625465E+00
  0.53143228E+00  0.89104487E+00  0.17071168E+00
  0.63805000E+00  0.90570999E+00  0.10378000E+00
  0.65264284E+00  0.61821335E+00  0.30751890E+00
  0.74037117E+00  0.88680937E+00  0.17010457E+00
  0.67259254E-01  0.10346411E+00  0.34357258E+00
  0.39223561E+00  0.61680421E+00  0.57504372E+00
  0.54142491E+00  0.54975346E+00  0.38583464E+00
  0.30565780E+00  0.14135016E-01  0.58411370E+00
  0.98228301E+00  0.20587395E+00  0.47569056E+00
  0.18741648E+00  0.77045388E+00  0.55577149E+00
  0.56312676E+00  0.99818633E+00  0.40303776E+00
  0.44961064E+00  0.32934938E+00  0.41673072E+00
  0.74358085E+00  0.70712242E+00  0.51758283E+00
  0.84813121E+00  0.14668722E+00  0.54250455E+00
  0.47271135E+00  0.31682384E+00  0.52106992E+00
  0.71213466E+00  0.65865088E+00  0.42951406E+00
  0.84564162E+00  0.42876595E+00  0.45657312E+00
  0.51913952E+00  0.90477478E+00  0.47708212E+00
  0.66773319E+00  0.23881042E+00  0.43962028E+00
  0.79434415E+00  0.14991162E+00  0.37090758E+00