Ni_Pol_CO2CH2
   1.00000000000000     
     9.8291997910000006    0.0000000000000000    0.0000000000000000
     4.9145998955000003    8.5123367178000002    0.0000000000000000
     0.0000000000000000    0.0000000000000000   19.0128002167000005
   Ni   O    C    O    C    H 
    64     3     1     2     1     2
Selective dynamics
Direct
  0.8330857678581520  0.5824858839154888  0.2715160780036134   T   T   T
  0.3324308302258108  0.0831359925834056  0.2702511261707900   T   T   T
  0.8338716911048972  0.0835864500663335  0.2711634200229875   T   T   T
  0.3328822320428073  0.5828414526903737  0.2706161510610178   T   T   T
  0.5833886639118134  0.8329484343520271  0.2708251044652936   T   T   T
  0.8332876048195819  0.8328437296291619  0.2704571341544723   T   T   T
  0.0821179065369772  0.3329002053430472  0.2715418061709790   T   T   T
  0.8330025060465223  0.3329773285535160  0.2720811423446833   T   T   T
  0.5829279890356854  0.5825354361585506  0.2715455509752152   T   T   T
  0.0823821794081481  0.5827681865220256  0.2708660224641068   T   T   T
  0.0819421642980534  0.0841995582312770  0.2709233834905682   T   T   T
  0.5837900978165894  0.0825468245292522  0.2711360382226040   T   T   T
  0.3330707537312632  0.8330469367939897  0.2702701831293352   T   T   T
  0.0826280896342701  0.8329936302140510  0.2703685182367079   T   T   T
  0.3325877088086386  0.3327856465092073  0.2707995375582561   T   T   T
  0.5831972670713502  0.3323663746826652  0.2717167601646889   T   T   T
  0.9172694028176434  0.6647591139494070  0.3756452821788373   T   T   T
  0.9163687978366127  0.4166614377243063  0.3778513619457155   T   T   T
  0.6668929865616081  0.6650377151859941  0.3754616709823015   T   T   T
  0.1658250739207580  0.1664339060058516  0.3767103694256329   T   T   T
  0.9175499108879205  0.1674275455807960  0.3789851872286019   T   T   T
  0.9173541901343836  0.9163166924966724  0.3756091243980268   T   T   T
  0.4159048126007662  0.9165619714787199  0.3750542967002231   T   T   T
  0.4173970417746427  0.1652730192210224  0.3750611480094053   T   T   T
  0.6689276712279891  0.1657723192631152  0.3766354044676727   T   T   T
  0.1668853028412511  0.6656277029730061  0.3753506070034298   T   T   T
  0.4153978780559663  0.6662225852446334  0.3760293899135446   T   T   T
  0.4164665685146439  0.4164741720418644  0.3762793408781611   T   T   T
  0.6672231956799025  0.9166506222360277  0.3770257021193719   T   T   T
  0.1673940485654854  0.4151792868154829  0.3774205831401948   T   T   T
  0.6654094196774683  0.4151016990377008  0.3785907685092915   T   T   T
  0.1664202618232236  0.9165591598860784  0.3774977100859564   T   T   T
  0.0028674790834621  0.2516649894853462  0.4864422268638897   T   T   T
  0.5016848575327143  0.2484273328079090  0.4787662717266424   T   T   T
  0.9979947562453579  0.7459948210396351  0.4796993488086977   T   T   T
  0.5029484674176226  0.7502171823276202  0.4785679336102673   T   T   T
  0.7515364435716110  0.7489099221757247  0.4797344754255835   T   T   T
  0.0010325170384060  0.4991420107424709  0.4854061584550082   T   T   T
  0.7494037949213760  0.5037021473933412  0.4827747908246898   T   T   T
  0.2509927382144384 -0.0046031061984114  0.4845489682105179   T   T   T
  0.0044178061506583  0.9962467005536239  0.4844984513131659   T   T   T
  0.5069515174878827  0.9957816739937936  0.4847832900974251   T   T   T
  0.2463381188390744  0.7541252274104507  0.4839798342981868   T   T   T
  0.7505459196442449  0.9952819430699481  0.4849496820251621   T   T   T
  0.2548048724807183  0.2498258359742884  0.4835552923898227   T   T   T
  0.7489020893561155  0.2531450161913801  0.4930154368373414   T   T   T
  0.2469836554043048  0.4977918150042022  0.4842515173447389   T   T   T
  0.4984977838462980  0.5019957866474418  0.4911348503623395   T   T   T
  0.9970724670000024  0.2558556729999992  0.1637003960000030   F   F   F
  0.4999617989999976  0.2500875830000027  0.1643123180000003   F   F   F
  0.9968841629999972  0.7476992069999966  0.1643590660000029   F   F   F
  0.5054474789999972  0.7476858750000019  0.1651548480000002   F   F   F
  0.7507219769999978  0.7486395119999969  0.1651830500000031   F   F   F
  0.9979410790000003  0.5014025589999989  0.1651978470000017   F   F   F
  0.7507272960000009  0.5014379059999996  0.1654730480000026   F   F   F
  0.2484077359999972  0.9989653640000000  0.1655050250000016   F   F   F
  0.0026835399999996  0.9989392600000002  0.1655775309999967   F   F   F
  0.5037179199999997  0.9979203070000011  0.1655856309999990   F   F   F
  0.2483221529999966  0.7533767729999994  0.1658259459999982   F   F   F
  0.7484137009999969  0.9978805350000002  0.1658943890000018   F   F   F
  0.2473094730000014  0.2543786680000011  0.1660089160000027   F   F   F
  0.7483561820000020  0.2543461500000035  0.1660180820000008   F   F   F
  0.2472921950000000  0.4989472700000022  0.1662971330000005   F   F   F
  0.5037960519999984  0.4989156760000029  0.1664085250000014   F   F   F
  0.3380820775052998  0.0790344729216462  0.5434863409777227   T   T   T
  0.8401549720951392  0.0711985004176395  0.5459350334867757   T   T   T
  0.3190369077828656  0.5901885917247913  0.5456655769413915   T   T   T
  0.0106274657756095  0.4340803502487440  0.5853738999670167   T   T   T
  0.0075801854694336  0.5333136500956491  0.6243517165049443   T   T   T
  0.0130410868524030  0.3047566908943095  0.5887023563233744   T   T   T
  0.6650574358156955  0.4265576646101196  0.5561644735356881   T   T   T
  0.7197509279763515  0.5024685024118519  0.5729253187687556   T   T   T
  0.6385438090525272  0.3915770725802352  0.6070514939055672   T   T   T
 
  0.00000000E+00  0.00000000E+00  0.00000000E+00
  0.00000000E+00  0.00000000E+00  0.00000000E+00
  0.00000000E+00  0.00000000E+00  0.00000000E+00
  0.00000000E+00  0.00000000E+00  0.00000000E+00
  0.00000000E+00  0.00000000E+00  0.00000000E+00
  0.00000000E+00  0.00000000E+00  0.00000000E+00
  0.00000000E+00  0.00000000E+00  0.00000000E+00
  0.00000000E+00  0.00000000E+00  0.00000000E+00
  0.00000000E+00  0.00000000E+00  0.00000000E+00
  0.00000000E+00  0.00000000E+00  0.00000000E+00
  0.00000000E+00  0.00000000E+00  0.00000000E+00
  0.00000000E+00  0.00000000E+00  0.00000000E+00
  0.00000000E+00  0.00000000E+00  0.00000000E+00
  0.00000000E+00  0.00000000E+00  0.00000000E+00
  0.00000000E+00  0.00000000E+00  0.00000000E+00
  0.00000000E+00  0.00000000E+00  0.00000000E+00
  0.00000000E+00  0.00000000E+00  0.00000000E+00
  0.00000000E+00  0.00000000E+00  0.00000000E+00
  0.00000000E+00  0.00000000E+00  0.00000000E+00
  0.00000000E+00  0.00000000E+00  0.00000000E+00
  0.00000000E+00  0.00000000E+00  0.00000000E+00
  0.00000000E+00  0.00000000E+00  0.00000000E+00
  0.00000000E+00  0.00000000E+00  0.00000000E+00
  0.00000000E+00  0.00000000E+00  0.00000000E+00
  0.00000000E+00  0.00000000E+00  0.00000000E+00
  0.00000000E+00  0.00000000E+00  0.00000000E+00
  0.00000000E+00  0.00000000E+00  0.00000000E+00
  0.00000000E+00  0.00000000E+00  0.00000000E+00
  0.00000000E+00  0.00000000E+00  0.00000000E+00
  0.00000000E+00  0.00000000E+00  0.00000000E+00
  0.00000000E+00  0.00000000E+00  0.00000000E+00
  0.00000000E+00  0.00000000E+00  0.00000000E+00
  0.00000000E+00  0.00000000E+00  0.00000000E+00
  0.00000000E+00  0.00000000E+00  0.00000000E+00
  0.00000000E+00  0.00000000E+00  0.00000000E+00
  0.00000000E+00  0.00000000E+00  0.00000000E+00
  0.00000000E+00  0.00000000E+00  0.00000000E+00
  0.00000000E+00  0.00000000E+00  0.00000000E+00
  0.00000000E+00  0.00000000E+00  0.00000000E+00
  0.00000000E+00  0.00000000E+00  0.00000000E+00
  0.00000000E+00  0.00000000E+00  0.00000000E+00
  0.00000000E+00  0.00000000E+00  0.00000000E+00
  0.00000000E+00  0.00000000E+00  0.00000000E+00
  0.00000000E+00  0.00000000E+00  0.00000000E+00
  0.00000000E+00  0.00000000E+00  0.00000000E+00
  0.00000000E+00  0.00000000E+00  0.00000000E+00
  0.00000000E+00  0.00000000E+00  0.00000000E+00
  0.00000000E+00  0.00000000E+00  0.00000000E+00
  0.00000000E+00  0.00000000E+00  0.00000000E+00
  0.00000000E+00  0.00000000E+00  0.00000000E+00
  0.00000000E+00  0.00000000E+00  0.00000000E+00
  0.00000000E+00  0.00000000E+00  0.00000000E+00
  0.00000000E+00  0.00000000E+00  0.00000000E+00
  0.00000000E+00  0.00000000E+00  0.00000000E+00
  0.00000000E+00  0.00000000E+00  0.00000000E+00
  0.00000000E+00  0.00000000E+00  0.00000000E+00
  0.00000000E+00  0.00000000E+00  0.00000000E+00
  0.00000000E+00  0.00000000E+00  0.00000000E+00
  0.00000000E+00  0.00000000E+00  0.00000000E+00
  0.00000000E+00  0.00000000E+00  0.00000000E+00
  0.00000000E+00  0.00000000E+00  0.00000000E+00
  0.00000000E+00  0.00000000E+00  0.00000000E+00
  0.00000000E+00  0.00000000E+00  0.00000000E+00
  0.00000000E+00  0.00000000E+00  0.00000000E+00
  0.00000000E+00  0.00000000E+00  0.00000000E+00
  0.00000000E+00  0.00000000E+00  0.00000000E+00
  0.00000000E+00  0.00000000E+00  0.00000000E+00
  0.00000000E+00  0.00000000E+00  0.00000000E+00
  0.00000000E+00  0.00000000E+00  0.00000000E+00
  0.00000000E+00  0.00000000E+00  0.00000000E+00
  0.00000000E+00  0.00000000E+00  0.00000000E+00
  0.00000000E+00  0.00000000E+00  0.00000000E+00
  0.00000000E+00  0.00000000E+00  0.00000000E+00
