 Ni_Pol_CO2CH2
   1.000
    9.8292000000000002    0.0000000000000000    0.0000000000000000
    4.9146000000000001    8.5123370000000005    0.0000000000000000
    0.0000000000000000    0.0000000000000000   33.0128020000000006
   Ni   O    H    C 
   64   35   62    2
Selective Dynamics
Direct
    0.8161304600000000    0.5889720300000000    0.1200248400000000    T  T  T
    0.3267620200000000    0.0893950100000000    0.1211907300000000    T  T  T
    0.8281435400000000    0.0930463300000000    0.1197676300000000    T  T  T
    0.3295063100000000    0.5878229699999999    0.1215391800000000    T  T  T
    0.5760458100000000    0.8344788000000000    0.1202235300000000    T  T  T
    0.8191150400000000    0.8479825300000000    0.1227014700000000    T  T  T
    0.0724901800000000    0.3403221100000000    0.1244834100000000    T  T  T
    0.8360157000000000    0.3349392400000000    0.1203170300000000    T  T  T
    0.5719467400000000    0.5928171900000000    0.1215288300000000    T  T  T
    0.0639449900000000    0.5965508800000000    0.1207646700000000    T  T  T
    0.0879175800000000    0.0802031900000000    0.1190218400000000    T  T  T
    0.5738104600000000    0.0977474800000000    0.1218458600000000    T  T  T
    0.3280706100000000    0.8348992500000000    0.1225252200000000    T  T  T
    0.0801046300000000    0.8404303200000000    0.1228029800000000    T  T  T
    0.3222068800000000    0.3505104500000000    0.1209987600000000    T  T  T
    0.5919944600000000    0.3370575900000000    0.1200636500000000    T  T  T
    0.8968135500000000    0.6768893200000000    0.1838305100000000    T  T  T
    0.9026169800000000    0.4237030200000000    0.1838595600000000    T  T  T
    0.6538435300000000    0.6676807700000000    0.1799357300000000    T  T  T
    0.1497464900000000    0.1684356900000000    0.1805999200000000    T  T  T
    0.8983752300000000    0.1770620000000000    0.1817611800000000    T  T  T
    0.9154920300000000    0.9216140000000000    0.1832874200000000    T  T  T
    0.4104769400000000    0.9188063200000000    0.1791651000000000    T  T  T
    0.4053161600000000    0.1722940800000000    0.1812950100000000    T  T  T
    0.6542745300000000    0.1697587800000000    0.1819003500000000    T  T  T
    0.1551366400000000    0.6666514800000000    0.1846188700000000    T  T  T
    0.4048881000000000    0.6664856300000001    0.1833342100000000    T  T  T
    0.4181763800000000    0.4031253900000000    0.1841603800000000    T  T  T
    0.6646607600000000    0.9178718500000000    0.1802077300000000    T  T  T
    0.1571921900000000    0.4269750700000000    0.1855419000000000    T  T  T
    0.6568738600000000    0.4215511500000000    0.1854156900000000    T  T  T
    0.1577142600000000    0.9234655600000000    0.1860044500000000    T  T  T
    0.9948149800000000    0.2552817100000000    0.2428532000000000    T  T  T
    0.4884746700000000    0.2621963000000000    0.2504527500000000    T  T  T
    1.0005336199999999    0.7555350900000000    0.2542797500000000    T  T  T
    0.4879814600000000    0.7599682500000000    0.2421100800000000    T  T  T
    0.7555978200000000    0.7531052700000000    0.2430315000000000    T  T  T
    0.9906821900000000    0.5006123300000000    0.2493166600000000    T  T  T
    0.7283008900000000    0.5077393100000001    0.2461661000000000    T  T  T
    0.2430351800000000    0.0062956900000000    0.2460248900000000    T  T  T
    0.9954228100000000    0.0170978400000000    0.2466583800000000    T  T  T
    0.4998499900000000    0.0012545000000000    0.2421745700000000    T  T  T
    0.2367358500000000    0.7593360900000000    0.2473931600000000    T  T  T
    0.7471961900000000    0.0111435000000000    0.2441827000000000    T  T  T
    0.2329564900000000    0.2704997800000000    0.2438223200000000    T  T  T
    0.7301440500000000    0.2627159700000000    0.2444855000000000    T  T  T
    0.2437649200000000    0.5012415200000000    0.2452855200000000    T  T  T
    0.4859432000000000    0.5103755200000000    0.2459619200000000    T  T  T
    0.9970724600000000    0.2558556800000000    0.0591330300000000    F  F  F
    0.4999617900000000    0.2500875900000000    0.0594854500000000    F  F  F
    0.9968841700000000    0.7476992000000000    0.0595123700000000    F  F  F
    0.5054474500000000    0.7476859100000000    0.0599706800000000    F  F  F
    0.7507219900000000    0.7486395200000000    0.0599869200000000    F  F  F
    0.9979410800000000    0.5014025600000001    0.0599954500000000    F  F  F
    0.7507273000000000    0.5014379000000000    0.0601539400000000    F  F  F
    0.2484077800000000    0.9989653800000000    0.0601723600000000    F  F  F
    0.0026835400000000    0.9989392800000000    0.0602141100000000    F  F  F
    0.5037179000000001    0.9979203300000000    0.0602187800000000    F  F  F
    0.2483221600000000    0.7533767800000000    0.0603571800000000    F  F  F
    0.7484136200000000    0.9978805200000000    0.0603966000000000    F  F  F
    0.2473094800000000    0.2543786800000000    0.0604625600000000    F  F  F
    0.7483561600000000    0.2543461600000000    0.0604678400000000    F  F  F
    0.2472921900000000    0.4989472600000000    0.0606285500000000    F  F  F
    0.5037960400000000    0.4989156700000000    0.0606927000000000    F  F  F
    0.5914819100000001    0.8288049400000000    0.2792401800000000    T  T  T
    0.8227999000000000    0.0998057000000000    0.2811062400000000    T  T  T
    0.3093223000000000    0.5977601000000000    0.2841933100000000    T  T  T
    0.3412215000000000    0.4454818000000000    0.5717239500000000    T  T  T
    0.4568586000000000    0.0330142200000000    0.4835777600000000    T  T  T
    0.4785583500000000    0.7373866000000000    0.5051727100000000    T  T  T
    1.1732451600000000    0.8690690200000000    0.5278754500000000    T  T  T
    0.9773329300000000    0.7673870200000000    0.3148779700000000    T  T  T
    0.1843560100000000    0.1619560400000000    0.6017859300000000    T  T  T
    0.9625182300000000    0.4889782500000000    0.3087873300000000    T  T  T
    0.2251706000000000    0.7234077000000000    0.3637394300000000    T  T  T
    0.5762704700000000    0.6922344200000000    0.3679407000000000    T  T  T
    0.8147119600000000    0.1206293500000000    0.4407772900000000    T  T  T
    0.2027109500000000    0.5187828400000000    0.4917363700000000    T  T  T
    0.7682903100000000   -0.1211033600000000    0.5621286300000000    T  T  T
    0.6595995600000000    0.3906216400000000    0.5894342200000000    T  T  T
    0.6933363900000000   -0.0843545400000000    0.3523397600000000    T  T  T
    0.5307518200000000    0.1604696000000000    0.4175370900000000    T  T  T
    0.3751961300000000    0.5000654700000000    0.4226822800000000    T  T  T
    0.8384986300000000    0.5728760500000000    0.4099433600000000    T  T  T
    0.7029270600000000    0.5118593200000000    0.3098551100000000    T  T  T
    0.9923840800000000    0.3050764000000000    0.5427707300000000    T  T  T
    0.9447103400000000    0.8070707600000000    0.4831144000000000    T  T  T
    0.8107136700000001    0.1863374200000000    0.5285461100000000    T  T  T
    1.1155229300000000    0.7340578500000000    0.5938422500000000    T  T  T
    0.1556362900000000    0.2783570400000000    0.4746891500000000    T  T  T
    1.0090071100000000    0.0775372000000000    0.3695169200000000    T  T  T
    0.6988894500000000    0.2914837600000000    0.3504216500000000    T  T  T
    0.4681802500000000    0.1250729400000000    0.5659191400000000    T  T  T
    0.7366121700000000    0.6087808900000000    0.5611283900000000    T  T  T
    0.1635768600000000    0.9245587900000000    0.6420539500000000    T  T  T
    0.6590820100000000    0.4700235300000000    0.4566257100000000    T  T  T
    1.0773283100000000    0.2758548700000000    0.3987757700000000    T  T  T
    0.2630963300000000    0.3294994300000000    0.3521258300000000    T  T  T
    0.4785848200000000    0.2232993400000000    0.3112851000000000    T  T  T
    0.2627998700000000    0.5488763900000000    0.5826421100000000    T  T  T
    0.3348393000000000    0.4472426700000000    0.5421690300000001    T  T  T
    0.4965943800000000    0.0655061400000000    0.5083473400000000    T  T  T
    0.5006670800000000    0.0510281100000000    0.4576123500000000    T  T  T
    0.3749842300000000    0.7731208100000000    0.5154598700000000    T  T  T
    0.4686548500000000    0.8356435600000000    0.4948578400000000    T  T  T
    1.1157619800000000    0.8485827000000000    0.5072302300000000    T  T  T
    1.1717757099999999    0.8152021900000000    0.5521665600000000    T  T  T
    0.8744627600000000    0.8404814700000000    0.3285176500000000    T  T  T
    0.0673677800000000    0.7321616300000000    0.3331302600000000    T  T  T
    1.0940694300000000    0.2165738300000000    0.5833729500000000    T  T  T
    0.2147319900000000    0.2307838300000000    0.6155716800000000    T  T  T
    0.9780996600000000    0.5771219800000000    0.3200994100000000    T  T  T
    0.2819356700000000    0.6656626100000000    0.3390877100000000    T  T  T
    0.2674087700000000    0.6501113300000000    0.3882635700000000    T  T  T
    0.4987136800000000    0.7187002700000000    0.3903046600000000    T  T  T
    0.6802528400000000    0.6384780600000000    0.3835851300000000    T  T  T
    0.8930171900000000    0.1136000100000000    0.4212935300000000    T  T  T
    0.7795151900000000    0.2126297000000000    0.4585416900000000    T  T  T
    0.2757749100000000    0.5085271800000000    0.4678121800000000    T  T  T
    1.1138156900000000    0.6189352600000000    0.4823208700000000    T  T  T
    0.6720282900000000   -0.0308713900000000    0.5745686100000000    T  T  T
    0.7519179600000000    0.7880526400000000    0.5653620400000000    T  T  T
    0.6576114100000000    0.4913120700000000    0.5915771100000000    T  T  T
    0.5456142100000000    0.4184668400000000    0.5881144800000000    T  T  T
    0.6358659600000000   -0.0010598000000000    0.3320898600000000    T  T  T
    0.6618049700000000    0.8412843400000000    0.3405789700000000    T  T  T
    0.5269379600000000    0.1079402400000000    0.3915563300000000    T  T  T
    0.6302665000000000    0.1613843800000000    0.4170578700000000    T  T  T
    0.4794440500000000    0.4908997500000000    0.4282231300000000    T  T  T
    0.4114062400000000    0.3915257700000000    0.4125647200000000    T  T  T
    0.8749858000000000    0.6369349200000000    0.4227388900000000    T  T  T
    0.9288253400000001    0.4614448200000000    0.4053777500000000    T  T  T
    0.6289027300000000    0.6086790500000000    0.3262466800000000    T  T  T
    0.7041845100000000    0.4149326000000000    0.3240333000000000    T  T  T
    0.9319875700000000    0.2581673400000000    0.5319237500000000    T  T  T
    1.0689529000000000    0.2947219000000000    0.5217883000000000    T  T  T
    0.9184117400000000    0.9110449100000000    0.4697526900000000    T  T  T
    0.8911718100000000    0.8273826300000000    0.5102888100000000    T  T  T
    0.7513492100000000    0.2555977800000000    0.5517429300000000    T  T  T
    0.8375073800000000    0.0811515700000000    0.5366306199999999    T  T  T
    0.1281955200000000    0.8036194800000001    0.6155440800000000    T  T  T
    1.0072722300000001    0.7808531500000000    0.5871939300000000    T  T  T
    0.2528239900000000    0.1768306900000000    0.4783263600000000    T  T  T
    0.1755171300000000    0.3722931300000000    0.4761989300000000    T  T  T
    1.0509962799999999    0.1497218000000000    0.3760891900000000    T  T  T
    0.0950765700000000    0.9797696100000000    0.3623954600000000    T  T  T
    0.6278360100000000    0.2664746300000000    0.3362445600000000    T  T  T
    0.8044572800000001    0.1991973000000000    0.3529311400000000    T  T  T
    0.3799203000000000    0.1067476900000000    0.5773648400000000    T  T  T
    0.4350618500000000    0.2340682900000000    0.5761935000000000    T  T  T
    0.8340668900000000    0.5110483200000000    0.5536184100000000    T  T  T
    0.6661092100000000    0.6296350800000000    0.5370944100000000    T  T  T
    0.1020087000000000    0.9828374900000000    0.6664391300000000    T  T  T
    0.1534211500000000    1.0123961699999999    0.6244393100000000    T  T  T
    0.6000388100000000    0.5662180000000000    0.4740497300000000    T  T  T
    0.7218994500000000    0.4975887100000000    0.4370023500000000    T  T  T
    0.1289818900000000    0.2572811700000000    0.4276174200000000    T  T  T
    0.1381955600000000    0.3076314500000000    0.3815529300000000    T  T  T
    0.8429742900000000    0.5084365100000000    0.3105400600000000    T  T  T
    0.1303183000000000    0.2162540600000000    0.3116891900000000    T  T  T
    0.3287803900000000    0.0445135100000000    0.3072135100000000    T  T  T
    0.3347416200000000    0.2463940300000000    0.3219825900000000    T  T  T
    0.2544567600000000    0.1720962900000000    0.2996318500000000    T  T  T

   0.000000000000000    0.000000000000000    0.000000000000000
   0.000000000000000    0.000000000000000    0.000000000000000
   0.000000000000000    0.000000000000000    0.000000000000000
   0.000000000000000    0.000000000000000    0.000000000000000
   0.000000000000000    0.000000000000000    0.000000000000000
   0.000000000000000    0.000000000000000    0.000000000000000
   0.000000000000000    0.000000000000000    0.000000000000000
   0.000000000000000    0.000000000000000    0.000000000000000
   0.000000000000000    0.000000000000000    0.000000000000000
   0.000000000000000    0.000000000000000    0.000000000000000
   0.000000000000000    0.000000000000000    0.000000000000000
   0.000000000000000    0.000000000000000    0.000000000000000
   0.000000000000000    0.000000000000000    0.000000000000000
   0.000000000000000    0.000000000000000    0.000000000000000
   0.000000000000000    0.000000000000000    0.000000000000000
   0.000000000000000    0.000000000000000    0.000000000000000
   0.000592504176002    0.001106433563259   -0.001221143545980
   0.000719350002001    0.002101100141710   -0.002454171700680
  -0.000622483236000   -0.001305792495801    0.002757229223040
   0.000509496582000    0.001490254838590   -0.001953367494340
   0.000386779020001   -0.004160830325600    0.001420210742040
  -0.001467302976002    0.000419147473879   -0.001853338704280
  -0.002371343645999    0.000183270615611    0.002155735970601
   0.001707430332001    0.002155664221880   -0.002551229338560
  -0.001793288394000   -0.002206312627030    0.000955720617901
   0.000565965336000    0.001819937650600   -0.001399412676780
   0.000835432854000   -0.000197060601550   -0.002115460352160
  -0.000492983526000    0.000495503136770    0.001580652959760
  -0.001490942202000    0.005960423490770    0.000561547762019
   0.000726721902000    0.004421563207910   -0.000160112089700
  -0.001030542474000   -0.000373776717670    0.000097717893920
   0.001130702022000   -0.002061943391510    0.000661906680101
   0.000636981306000    0.003089893207630    0.000226137693700
  -0.005031813210000   -0.000084016766190   -0.003293357127520
   0.001560041477999   -0.001167467019549   -0.000036974338240
  -0.001252534956000    0.002773149147859   -0.000577393906981
  -0.001534338119999    0.000675028324101    0.001691575974480
   0.000078879330001    0.000779985439308    0.003958234959800
  -0.001746255672000    0.001341544311200   -0.000899268726480
  -0.001451920277999    0.002322591150450   -0.005293602800700
  -0.002201789946000    0.000205572938550   -0.002092351390761
   0.000780635063999    0.001565248527560   -0.002102255231360
   0.000317139138000   -0.000905287039950   -0.002023354634579
  -0.002494159500000   -0.000168544272600    0.002362396111121
   0.001772941950000   -0.000164543474210    0.001153797429899
  -0.000875830866001   -0.002631248490070   -0.000591259283819
   0.000225236118000   -0.001006413603510    0.000104980710359
  -0.000014596362001   -0.000487331293250    0.002392767888960
   0.000000000000000    0.000000000000000    0.000000000000000
   0.000000000000000    0.000000000000000    0.000000000000000
   0.000000000000000    0.000000000000000    0.000000000000000
   0.000000000000000    0.000000000000000    0.000000000000000
   0.000000000000000    0.000000000000000    0.000000000000000
   0.000000000000000    0.000000000000000    0.000000000000000
   0.000000000000000    0.000000000000000    0.000000000000000
   0.000000000000000    0.000000000000000    0.000000000000000
   0.000000000000000    0.000000000000000    0.000000000000000
   0.000000000000000    0.000000000000000    0.000000000000000
   0.000000000000000    0.000000000000000    0.000000000000000
   0.000000000000000    0.000000000000000    0.000000000000000
   0.000000000000000    0.000000000000000    0.000000000000000
   0.000000000000000    0.000000000000000    0.000000000000000
   0.000000000000000    0.000000000000000    0.000000000000000
   0.000000000000000    0.000000000000000    0.000000000000000
  -0.000258016500000    0.000866555906599   -0.005097506756819
  -0.006960941148000    0.000446557199020    0.002382533920338
   0.003448820550000    0.002890364028350    0.001081499393521
   0.000943996368001   -0.001759670304640   -0.000221846029440
  -0.003302512907999    0.000323468806000   -0.004630045480502
  -0.001416682596002    0.001920893967420    0.001210249321318
  -0.001960237356002    0.007183731441040    0.001631822802860
   0.002949398898000    0.000382459301409   -0.001922665588479
  -0.002323131420000    0.003176293428180    0.001246893531537
  -0.001336967784001    0.001515366232740    0.002874424670139
   0.005800948110000   -0.000480351176910   -0.003865138858160
  -0.002009481648001   -0.001024374634580    0.001563156174701
   0.001946181599999   -0.005160689429620    0.003580238376902
  -0.005018052330000    0.001446331179670   -0.005080009971760
   0.001033343795999   -0.003177314908620    0.000372384406557
   0.000631919267999    0.003151096910660    0.000489579853660
   0.004058378388001   -0.001529837205640   -0.001908470083618
   0.000056272170000    0.001045059613490    0.000756983549859
  -0.006903292890001   -0.004698214160411    0.002528450505180
   0.001721338650000    0.008640788165330    0.003963517008120
  -0.009625882998000   -0.001402577767490    0.003781616469100
  -0.000769773797998   -0.001288171958210   -0.000940204600962
   0.002326719078001    0.006207621757251    0.003155363615159
  -0.001451576256001    0.004913150669660    0.000072628164403
   0.001748762117998    0.000037709652910    0.003036187399939
   0.001058162526000    0.008849510668570   -0.002286796794539
   0.000696595403999   -0.004591384331060   -0.004810295379420
  -0.005165736059999    0.004465401743460    0.004587789093939
  -0.005006650457999    0.001637348021950    0.007345348445000
   0.007617679146000   -0.006708657913070    0.001046175695375
  -0.002202920303999    0.002791535795780   -0.004447154557418
  -0.003093888138000    0.001043186899350    0.000980150091380
   0.002380730532002   -0.005831461585220   -0.001607723457397
   0.005321135711999    0.001601681329920    0.003204552690141
  -0.002795670210001   -0.000252901532270    0.002469357589602
   0.020860855181999   -0.015725436003690   -0.007880816093440
  -0.010775358792000    0.003605655706460    0.014070386340421
   0.016257988260000    0.002478792534400   -0.027655154363419
  -0.005026996902001    0.030937663209650   -0.000073948676480
  -0.025319085426000   -0.038858903528370    0.028739955037135
   0.006486092495999    0.008861683310481    0.018610636999480
  -0.002617466814002   -0.021957317921390   -0.024958998824076
   0.012700063590000    0.022790164973470    0.016509042024161
  -0.011066057382001    0.012882315445691   -0.007492255413901
  -0.002902464468000    0.022777141097860   -0.020119982306920
   0.031605251994000   -0.002227252976050    0.012437903281519
  -0.007116045924000    0.023540357233280   -0.010917333621396
   0.011455342848000    0.026555937738899   -0.004367923832618
  -0.003088924391999    0.005718758243340    0.013497284097699
   0.010802536530000    0.015171112618249   -0.025285825563881
  -0.015215896476001    0.001017394518239   -0.011254394329821
   0.017934505758001    0.020054299861671   -0.027641288986580
   0.017149644138000   -0.014951494323650    0.034045442446558
   0.005253019356001    0.029357347845600    0.008707456655522
  -0.003707869116000   -0.013050944841660   -0.018739386927281
  -0.006962317236001   -0.000933292628680    0.011494067272340
  -0.005212473905999   -0.011003472423050   -0.017865538058338
   0.002485214928001   -0.007042596893580   -0.024112220452778
   0.028872439518000    0.024440877364510   -0.009228398671077
   0.004348241495999    0.004704938906640   -0.001262079420460
   0.000932889372001   -0.004055788087020   -0.022113295291682
   0.016346107037998   -0.015271558194850   -0.015287568350161
   0.005114869949999   -0.026152197594990    0.002515245384378
   0.010045442400001   -0.006689845648300   -0.001335697968921
   0.013183561938000   -0.005378860626930    0.010526462045719
   0.009715132134000   -0.016586884508090   -0.026505318469761
  -0.000298119636000    0.020703365557921    0.002878386206380
  -0.004483786164000    0.017051743231660   -0.018070217430740
   0.002378813837998   -0.013841485578850   -0.022086224794041
  -0.007712874947998   -0.032115515280340    0.000412990153020
   0.003249779250000    0.008829421553250    0.005195224650738
   0.011837158122001   -0.000014556096270   -0.035077752765101
   0.011407081475999    0.022899718750660   -0.002541325497958
  -0.011053672590002    0.027115794143390   -0.002525479353000
   0.026284116282001    0.003130071438270   -0.006146983732396
   0.005238717870000   -0.025956924584210    0.019961520857319
  -0.010740268548000   -0.013390587087960   -0.010086071267043
  -0.011962185546000   -0.008983154359470    0.008402088237020
   0.006719585142000   -0.017469954348470    0.010430724919921
   0.036498817506000   -0.004083793675750   -0.011261327018241
  -0.004222526028000   -0.031425334996380   -0.007272390152579
  -0.015411743286000   -0.009482147554410    0.024776438029019
   0.006215887788000   -0.021033133493300   -0.004487430175860
  -0.017878528464001   -0.026339043392140    0.034337935872280
   0.009669328062000    0.040269057275790    0.005632314149221
  -0.014329548366001   -0.018604308377090   -0.013723751919422
  -0.030762348948000    0.013516058935339    0.006867323072040
  -0.001230075234000   -0.004160745202230    0.018728162574597
   0.013321416468000    0.013013150065380   -0.022462570736842
  -0.004046976515999    0.054775526621080    0.019476232667920
  -0.005162050109998    0.007559040379370    0.012441204561719
   0.001095808362001    0.012105139077590    0.034570676126382
  -0.015257375700000    0.000022983309900   -0.001699829174981
  -0.016886811330000   -0.024573840068450   -0.017049791720920
  -0.001482636528001    0.008324044105560   -0.012737989651702
  -0.007253654724000    0.013716609595060   -0.002016752074180
   0.011392091946000   -0.003082742844550   -0.001275284541261
   0.000633934254000   -0.009512962214350   -0.002025005274682
  -0.000882465576001   -0.003276228264560   -0.003337594282199
