Ni_Pol_COCHOH
   1.00000000000000     
     9.8291997910000006    0.0000000000000000    0.0000000000000000
     4.9145998955000003    8.5123367178000002    0.0000000000000000
     0.0000000000000000    0.0000000000000000   19.0128002167000005
   Ni   O    C    O    C    O    H 
    64     3     1     1     1     1     2
Selective dynamics
Direct
  0.8330481221665353  0.5841148734295897  0.2712623535149264   T   T   T
  0.3331022815579504  0.0841558664108090  0.2700432335193685   T   T   T
  0.8340441866640846  0.0842810152127487  0.2705960105057014   T   T   T
  0.3333520743527499  0.5849506793027008  0.2708439715562156   T   T   T
  0.5833612263238176  0.8342282684679528  0.2708256246020265   T   T   T
  0.8335567963760087  0.8342572143463799  0.2704220400967478   T   T   T
  0.0828981204923065  0.3342869392530463  0.2710511721176518   T   T   T
  0.8321979794241987  0.3339863406520581  0.2719740432432630   T   T   T
  0.5834099016420181  0.5828453817972707  0.2723244255682397   T   T   T
  0.0831909960591941  0.5843445634975530  0.2708873134207836   T   T   T
  0.0824837616407543  0.0854894159691479  0.2706575768431200   T   T   T
  0.5839340009891033  0.0840349200139524  0.2710837829861031   T   T   T
  0.3342961999287789  0.8338068167540833  0.2706462110607795   T   T   T
  0.0833132119592013  0.8346752260268241  0.2703972211664660   T   T   T
  0.3334540904141202  0.3346253395737770  0.2707508824050501   T   T   T
  0.5833099863986657  0.3339676515562988  0.2721426711716292   T   T   T
  0.9172255589421067  0.6667150043505210  0.3753836281536459   T   T   T
  0.9166034744854655  0.4166153219637774  0.3754332547643683   T   T   T
  0.6671521599150105  0.6660470124425855  0.3756528320804272   T   T   T
  0.1666369259971976  0.1675111087991470  0.3762544728116756   T   T   T
  0.9159408873697384  0.1677595992506214  0.3780547059670354   T   T   T
  0.9174667982898354  0.9177910536631886  0.3754849519825744   T   T   T
  0.4164986552781748  0.9176361083499178  0.3758171538035520   T   T   T
  0.4165533974822109  0.1671363076559263  0.3747431585360654   T   T   T
  0.6692111015309548  0.1663257293883481  0.3763152366519846   T   T   T
  0.1671548993418924  0.6679024951433995  0.3755367267355468   T   T   T
  0.4170048359633575  0.6663960284698580  0.3777138473341446   T   T   T
  0.4160696613587427  0.4195019392205062  0.3764566619814506   T   T   T
  0.6666561630371596  0.9178732654859052  0.3771346969770215   T   T   T
  0.1679672116041490  0.4163968831300842  0.3773171408171905   T   T   T
  0.6655957996826293  0.4152809102131329  0.3816460534899785   T   T   T
  0.1670646507111229  0.9183342799168918  0.3774283066419945   T   T   T
 -0.0016913260822447  0.2557892487483610  0.4836628641548463   T   T   T
  0.5003017344139179  0.2498775888074556  0.4762893459541559   T   T   T
  0.9977525882700229  0.7477812982087052  0.4795352892140661   T   T   T
  0.5059433742572819  0.7474029807960789  0.4800087487444277   T   T   T
  0.7494391897169239  0.7519925475532939  0.4800409900529448   T   T   T
  0.0006276768592746  0.5016086362011368  0.4829556619160198   T   T   T
  0.7528442140382252  0.5032186540836086  0.4839626061946052   T   T   T
  0.2492450253797896 -0.0003183151076839  0.4850771981557340   T   T   T
  0.0047539382547566 -0.0002238660291757  0.4840879702671543   T   T   T
  0.5048294382754354  0.9979301258516493  0.4853027324614487   T   T   T
  0.2480575027414058  0.7559243490126419  0.4839198911751631   T   T   T
  0.7499756110318559  0.9954290772504232  0.4849342521578962   T   T   T
  0.2526060601879609  0.2525872547738482  0.4851792705307819   T   T   T
  0.7444747988748246  0.2536113057674492  0.4987471144663083   T   T   T
  0.2462476304558588  0.5002939956382931  0.4848763906759202   T   T   T
  0.5051531664358457  0.4993189400113085  0.4985020790145672   T   T   T
  0.9970724670000024  0.2558556729999992  0.1637003960000030   F   F   F
  0.4999617989999976  0.2500875830000027  0.1643123180000003   F   F   F
  0.9968841629999972  0.7476992069999966  0.1643590660000029   F   F   F
  0.5054474789999972  0.7476858750000019  0.1651548480000002   F   F   F
  0.7507219769999978  0.7486395119999969  0.1651830500000031   F   F   F
  0.9979410790000003  0.5014025589999989  0.1651978470000017   F   F   F
  0.7507272960000009  0.5014379059999996  0.1654730480000026   F   F   F
  0.2484077359999972  0.9989653640000000  0.1655050250000016   F   F   F
  0.0026835399999996  0.9989392600000002  0.1655775309999967   F   F   F
  0.5037179199999997  0.9979203070000011  0.1655856309999990   F   F   F
  0.2483221529999966  0.7533767729999994  0.1658259459999982   F   F   F
  0.7484137009999969  0.9978805350000002  0.1658943890000018   F   F   F
  0.2473094730000014  0.2543786680000011  0.1660089160000027   F   F   F
  0.7483561820000020  0.2543461500000035  0.1660180820000008   F   F   F
  0.2472921950000000  0.4989472700000022  0.1662971330000005   F   F   F
  0.5037960519999984  0.4989156760000029  0.1664085250000014   F   F   F
  0.3355465733973161  0.0824565589916745  0.5450491867948867   T   T   T
  0.8456391184321044  0.0632846269661087  0.5467775990763121   T   T   T
  0.3140083241997567  0.5963022890258809  0.5464741773278500   T   T   T
  0.9219318608382350  0.4228203526080856  0.5539162349020549   T   T   T
  0.9210255746323167  0.4199892257095811  0.6167854881151356   T   T   T
  0.6185319881671736  0.3739774820330357  0.5783925526896508   T   T   T
  0.5488469239089403  0.3219881090888790  0.6227640105499658   T   T   T
  0.6842027718653795  0.4143688262168806  0.6109459689197608   T   T   T
  0.4799540425768349  0.2911525352400895  0.5977505957098949   T   T   T
 
  0.00000000E+00  0.00000000E+00  0.00000000E+00
  0.00000000E+00  0.00000000E+00  0.00000000E+00
  0.00000000E+00  0.00000000E+00  0.00000000E+00
  0.00000000E+00  0.00000000E+00  0.00000000E+00
  0.00000000E+00  0.00000000E+00  0.00000000E+00
  0.00000000E+00  0.00000000E+00  0.00000000E+00
  0.00000000E+00  0.00000000E+00  0.00000000E+00
  0.00000000E+00  0.00000000E+00  0.00000000E+00
  0.00000000E+00  0.00000000E+00  0.00000000E+00
  0.00000000E+00  0.00000000E+00  0.00000000E+00
  0.00000000E+00  0.00000000E+00  0.00000000E+00
  0.00000000E+00  0.00000000E+00  0.00000000E+00
  0.00000000E+00  0.00000000E+00  0.00000000E+00
  0.00000000E+00  0.00000000E+00  0.00000000E+00
  0.00000000E+00  0.00000000E+00  0.00000000E+00
  0.00000000E+00  0.00000000E+00  0.00000000E+00
  0.00000000E+00  0.00000000E+00  0.00000000E+00
  0.00000000E+00  0.00000000E+00  0.00000000E+00
  0.00000000E+00  0.00000000E+00  0.00000000E+00
  0.00000000E+00  0.00000000E+00  0.00000000E+00
  0.00000000E+00  0.00000000E+00  0.00000000E+00
  0.00000000E+00  0.00000000E+00  0.00000000E+00
  0.00000000E+00  0.00000000E+00  0.00000000E+00
  0.00000000E+00  0.00000000E+00  0.00000000E+00
  0.00000000E+00  0.00000000E+00  0.00000000E+00
  0.00000000E+00  0.00000000E+00  0.00000000E+00
  0.00000000E+00  0.00000000E+00  0.00000000E+00
  0.00000000E+00  0.00000000E+00  0.00000000E+00
  0.00000000E+00  0.00000000E+00  0.00000000E+00
  0.00000000E+00  0.00000000E+00  0.00000000E+00
  0.00000000E+00  0.00000000E+00  0.00000000E+00
  0.00000000E+00  0.00000000E+00  0.00000000E+00
  0.00000000E+00  0.00000000E+00  0.00000000E+00
  0.00000000E+00  0.00000000E+00  0.00000000E+00
  0.00000000E+00  0.00000000E+00  0.00000000E+00
  0.00000000E+00  0.00000000E+00  0.00000000E+00
  0.00000000E+00  0.00000000E+00  0.00000000E+00
  0.00000000E+00  0.00000000E+00  0.00000000E+00
  0.00000000E+00  0.00000000E+00  0.00000000E+00
  0.00000000E+00  0.00000000E+00  0.00000000E+00
  0.00000000E+00  0.00000000E+00  0.00000000E+00
  0.00000000E+00  0.00000000E+00  0.00000000E+00
  0.00000000E+00  0.00000000E+00  0.00000000E+00
  0.00000000E+00  0.00000000E+00  0.00000000E+00
  0.00000000E+00  0.00000000E+00  0.00000000E+00
  0.00000000E+00  0.00000000E+00  0.00000000E+00
  0.00000000E+00  0.00000000E+00  0.00000000E+00
  0.00000000E+00  0.00000000E+00  0.00000000E+00
  0.00000000E+00  0.00000000E+00  0.00000000E+00
  0.00000000E+00  0.00000000E+00  0.00000000E+00
  0.00000000E+00  0.00000000E+00  0.00000000E+00
  0.00000000E+00  0.00000000E+00  0.00000000E+00
  0.00000000E+00  0.00000000E+00  0.00000000E+00
  0.00000000E+00  0.00000000E+00  0.00000000E+00
  0.00000000E+00  0.00000000E+00  0.00000000E+00
  0.00000000E+00  0.00000000E+00  0.00000000E+00
  0.00000000E+00  0.00000000E+00  0.00000000E+00
  0.00000000E+00  0.00000000E+00  0.00000000E+00
  0.00000000E+00  0.00000000E+00  0.00000000E+00
  0.00000000E+00  0.00000000E+00  0.00000000E+00
  0.00000000E+00  0.00000000E+00  0.00000000E+00
  0.00000000E+00  0.00000000E+00  0.00000000E+00
  0.00000000E+00  0.00000000E+00  0.00000000E+00
  0.00000000E+00  0.00000000E+00  0.00000000E+00
  0.00000000E+00  0.00000000E+00  0.00000000E+00
  0.00000000E+00  0.00000000E+00  0.00000000E+00
  0.00000000E+00  0.00000000E+00  0.00000000E+00
  0.00000000E+00  0.00000000E+00  0.00000000E+00
  0.00000000E+00  0.00000000E+00  0.00000000E+00
  0.00000000E+00  0.00000000E+00  0.00000000E+00
  0.00000000E+00  0.00000000E+00  0.00000000E+00
  0.00000000E+00  0.00000000E+00  0.00000000E+00
  0.00000000E+00  0.00000000E+00  0.00000000E+00
