Ru                                      
   1.00000000000000     
    10.7043999999999997    0.0000000000000000    0.0000000000000007
    -5.3521999999999990    9.2702823322701455    0.0000000000000007
     0.0000000000000000    0.0000000000000000   16.4502999999999986
   Ru   H 
    64     1
Selective dynamics
Direct
  0.0833299999999966  0.1666700000000034  0.0000000000000000   F   F   F
  0.0834539279384603  0.1668257235218130  0.2618455945223441   T   T   T
  0.1666700000000034  0.0833299999999966  0.1306999999999974   F   F   F
  0.1672871813833132  0.0837383325672350  0.3883937347432232   T   T   T
  0.3333332999999996  0.1666700000000034  0.0000000000000000   F   F   F
  0.3335460086914025  0.1668553794662029  0.2614726470500072   T   T   T
  0.4166700000000034  0.0833299999999966  0.1306999999999974   F   F   F
  0.4167742944873949  0.0833764535930913  0.3880859532420841   T   T   T
  0.5833299999999966  0.1666700000000034  0.0000000000000000   F   F   F
  0.5835208757792455  0.1669445524339539  0.2613340307313433   T   T   T
  0.6666667000000004  0.0833299999999966  0.1306999999999974   F   F   F
  0.6668340044220479  0.0834733706573760  0.3880895097214267   T   T   T
  0.8333299999999966  0.1666700000000034  0.0000000000000000   F   F   F
  0.8334067515296749  0.1668735890788000  0.2614735585922678   T   T   T
  0.9166700000000034  0.0833299999999966  0.1306999999999974   F   F   F
  0.9165922145265021  0.0837268490518311  0.3883851613535237   T   T   T
  0.0833299999999966  0.4166700000000034  0.0000000000000000   F   F   F
  0.0832212604129936  0.4167441614076945  0.2615061808024302   T   T   T
  0.1666700000000034  0.3333332999999996  0.1306999999999974   F   F   F
  0.1661459931317666  0.3322096723466654  0.3883703671985301   T   T   T
  0.3333332999999996  0.4166700000000034  0.0000000000000000   F   F   F
  0.3335946395882567  0.4166712357978500  0.2614505684059304   T   T   T
  0.4166700000000034  0.3333332999999996  0.1306999999999974   F   F   F
  0.4167932256221585  0.3336996810450877  0.3880803339239803   T   T   T
  0.5833299999999966  0.4166700000000034  0.0000000000000000   F   F   F
  0.5835165694389333  0.4166932768606971  0.2613565563639462   T   T   T
  0.6666667000000004  0.3333332999999996  0.1306999999999974   F   F   F
  0.6667328635919832  0.3334352094855545  0.3885791427151651   T   T   T
  0.8333299999999966  0.4166700000000034  0.0000000000000000   F   F   F
  0.8332648404557831  0.4166938633048335  0.2613789209534027   T   T   T
  0.9166700000000034  0.3333332999999996  0.1306999999999974   F   F   F
  0.9170057161021988  0.3336736154741252  0.3880812274822447   T   T   T
  0.0833299999999966  0.6666667000000004  0.0000000000000000   F   F   F
  0.0832132741284149  0.6666030847991252  0.2614947925305474   T   T   T
  0.1666700000000034  0.5833299999999966  0.1306999999999974   F   F   F
  0.1652988350309016  0.5827312997691710  0.3900201493029570   T   T   T
  0.3333332999999996  0.6666667000000004  0.0000000000000000   F   F   F
  0.3334655485683315  0.6668023359733579  0.2618984288825750   T   T   T
  0.4166700000000034  0.5833299999999966  0.1306999999999974   F   F   F
  0.4177468680854881  0.5825290219490911  0.3899850684550927   T   T   T
  0.5833299999999966  0.6666667000000004  0.0000000000000000   F   F   F
  0.5835656536073341  0.6666200932395298  0.2614338353717310   T   T   T
  0.6666667000000004  0.5833299999999966  0.1306999999999974   F   F   F
  0.6668179374786443  0.5835344218403312  0.3880893978651374   T   T   T
  0.8333299999999966  0.6666667000000004  0.0000000000000000   F   F   F
  0.8334046844859783  0.6666681248599707  0.2614605126293345   T   T   T
  0.9166700000000034  0.5833299999999966  0.1306999999999974   F   F   F
  0.9169297242400136  0.5835125405862834  0.3881014813462749   T   T   T
  0.0833299999999966  0.9166700000000034  0.0000000000000000   F   F   F
  0.0834498756403026  0.9167532304592457  0.2618383670797639   T   T   T
  0.1666700000000034  0.8333299999999966  0.1306999999999974   F   F   F
  0.1660922968881704  0.8341549218843078  0.3883483531712818   T   T   T
  0.3333332999999996  0.9166700000000034  0.0000000000000000   F   F   F
  0.3335847249735333  0.9170918155247614  0.2614155431282174   T   T   T
  0.4166700000000034  0.8333299999999966  0.1306999999999974   F   F   F
  0.4178740034400062  0.8356576262091404  0.3899842309070369   T   T   T
  0.5833299999999966  0.9166700000000034  0.0000000000000000   F   F   F
  0.5836082559844433  0.9171115211305038  0.2614130196565129   T   T   T
  0.6666667000000004  0.8333299999999966  0.1306999999999974   F   F   F
  0.6683316040952633  0.8342468775960744  0.3883191651147817   T   T   T
  0.8333299999999966  0.9166700000000034  0.0000000000000000   F   F   F
  0.8334040033261331  0.9167692768070578  0.2618475549693278   T   T   T
  0.9166700000000034  0.8333299999999966  0.1306999999999974   F   F   F
  0.9166127898156454  0.8330971303515466  0.3883787595471838   T   T   T
  0.3364985864891656  0.6694598624046421  0.4558514373963483   T   T   T
 
  0.00000000E+00  0.00000000E+00  0.00000000E+00
  0.00000000E+00  0.00000000E+00  0.00000000E+00
  0.00000000E+00  0.00000000E+00  0.00000000E+00
  0.00000000E+00  0.00000000E+00  0.00000000E+00
  0.00000000E+00  0.00000000E+00  0.00000000E+00
  0.00000000E+00  0.00000000E+00  0.00000000E+00
  0.00000000E+00  0.00000000E+00  0.00000000E+00
  0.00000000E+00  0.00000000E+00  0.00000000E+00
  0.00000000E+00  0.00000000E+00  0.00000000E+00
  0.00000000E+00  0.00000000E+00  0.00000000E+00
  0.00000000E+00  0.00000000E+00  0.00000000E+00
  0.00000000E+00  0.00000000E+00  0.00000000E+00
  0.00000000E+00  0.00000000E+00  0.00000000E+00
  0.00000000E+00  0.00000000E+00  0.00000000E+00
  0.00000000E+00  0.00000000E+00  0.00000000E+00
  0.00000000E+00  0.00000000E+00  0.00000000E+00
  0.00000000E+00  0.00000000E+00  0.00000000E+00
  0.00000000E+00  0.00000000E+00  0.00000000E+00
  0.00000000E+00  0.00000000E+00  0.00000000E+00
  0.00000000E+00  0.00000000E+00  0.00000000E+00
  0.00000000E+00  0.00000000E+00  0.00000000E+00
  0.00000000E+00  0.00000000E+00  0.00000000E+00
  0.00000000E+00  0.00000000E+00  0.00000000E+00
  0.00000000E+00  0.00000000E+00  0.00000000E+00
  0.00000000E+00  0.00000000E+00  0.00000000E+00
  0.00000000E+00  0.00000000E+00  0.00000000E+00
  0.00000000E+00  0.00000000E+00  0.00000000E+00
  0.00000000E+00  0.00000000E+00  0.00000000E+00
  0.00000000E+00  0.00000000E+00  0.00000000E+00
  0.00000000E+00  0.00000000E+00  0.00000000E+00
  0.00000000E+00  0.00000000E+00  0.00000000E+00
  0.00000000E+00  0.00000000E+00  0.00000000E+00
  0.00000000E+00  0.00000000E+00  0.00000000E+00
  0.00000000E+00  0.00000000E+00  0.00000000E+00
  0.00000000E+00  0.00000000E+00  0.00000000E+00
  0.00000000E+00  0.00000000E+00  0.00000000E+00
  0.00000000E+00  0.00000000E+00  0.00000000E+00
  0.00000000E+00  0.00000000E+00  0.00000000E+00
  0.00000000E+00  0.00000000E+00  0.00000000E+00
  0.00000000E+00  0.00000000E+00  0.00000000E+00
  0.00000000E+00  0.00000000E+00  0.00000000E+00
  0.00000000E+00  0.00000000E+00  0.00000000E+00
  0.00000000E+00  0.00000000E+00  0.00000000E+00
  0.00000000E+00  0.00000000E+00  0.00000000E+00
  0.00000000E+00  0.00000000E+00  0.00000000E+00
  0.00000000E+00  0.00000000E+00  0.00000000E+00
  0.00000000E+00  0.00000000E+00  0.00000000E+00
  0.00000000E+00  0.00000000E+00  0.00000000E+00
  0.00000000E+00  0.00000000E+00  0.00000000E+00
  0.00000000E+00  0.00000000E+00  0.00000000E+00
  0.00000000E+00  0.00000000E+00  0.00000000E+00
  0.00000000E+00  0.00000000E+00  0.00000000E+00
  0.00000000E+00  0.00000000E+00  0.00000000E+00
  0.00000000E+00  0.00000000E+00  0.00000000E+00
  0.00000000E+00  0.00000000E+00  0.00000000E+00
  0.00000000E+00  0.00000000E+00  0.00000000E+00
  0.00000000E+00  0.00000000E+00  0.00000000E+00
  0.00000000E+00  0.00000000E+00  0.00000000E+00
  0.00000000E+00  0.00000000E+00  0.00000000E+00
  0.00000000E+00  0.00000000E+00  0.00000000E+00
  0.00000000E+00  0.00000000E+00  0.00000000E+00
  0.00000000E+00  0.00000000E+00  0.00000000E+00
  0.00000000E+00  0.00000000E+00  0.00000000E+00
  0.00000000E+00  0.00000000E+00  0.00000000E+00
  0.00000000E+00  0.00000000E+00  0.00000000E+00
