Nb                                      
   1.00000000000000     
    13.0459995269999993    0.0000000000000000    0.0000000000000000
     0.0000000000000000    9.2249002457000007    0.0000000000000000
     0.0000000000000000    0.0000000000000000   16.9186992644999989
   Nb   C    H 
    64     1     2
Selective dynamics
Direct
  0.0000000000000000  0.2500000000000000  0.0000000000000000   F   F   F
  0.0000000000000000  0.0000000000000000  0.1363100000000017   F   F   F
  0.0001923064062301  0.2495398610226627  0.2759593701533030   T   T   T
  0.0004816281898044 -0.0009930354073569  0.4103464736717735   T   T   T
  0.1250000000000000  0.0000000000000000  0.0000000000000000   F   F   F
  0.1250000000000000  0.2500000000000000  0.1363100000000017   F   F   F
  0.1249800659619248  0.0003930702435800  0.2748182214837062   T   T   T
  0.1250595864083260  0.2492716578511333  0.4100982429970791   T   T   T
  0.2500000000000000  0.2500000000000000  0.0000000000000000   F   F   F
  0.2500000000000000  0.0000000000000000  0.1363100000000017   F   F   F
  0.2498874947700696  0.2496769457279333  0.2739782145329220   T   T   T
  0.2505117968369492  0.0018319896105690  0.4068790944772195   T   T   T
  0.3750000000000000  0.0000000000000000  0.0000000000000000   F   F   F
  0.3750000000000000  0.2500000000000000  0.1363100000000017   F   F   F
  0.3753609056195213 -0.0000674798092224  0.2737306360179850   T   T   T
  0.3753093684006574  0.2497705849571080  0.4072752466052105   T   T   T
  0.5000000000000000  0.2500000000000000  0.0000000000000000   F   F   F
  0.5000000000000000  0.0000000000000000  0.1363100000000017   F   F   F
  0.5001466963444028  0.2500398758601012  0.2736632587439695   T   T   T
  0.5003952238720625 -0.0003426074978310  0.4073452063828942   T   T   T
  0.6250000000000000  0.0000000000000000  0.0000000000000000   F   F   F
  0.6250000000000000  0.2500000000000000  0.1363100000000017   F   F   F
  0.6250188831775587  0.0001457873841715  0.2737062363933075   T   T   T
  0.6252529625423269  0.2501095277257961  0.4073173989585766   T   T   T
  0.7500000000000000  0.2500000000000000  0.0000000000000000   F   F   F
  0.7500000000000000  0.0000000000000000  0.1363100000000017   F   F   F
  0.7504396880689413  0.2498424507933132  0.2739542491882686   T   T   T
  0.7502480768334017  0.0020783992725082  0.4069038104269350   T   T   T
  0.8750000000000000  0.0000000000000000  0.0000000000000000   F   F   F
  0.8750000000000000  0.2500000000000000  0.1363100000000017   F   F   F
  0.8754561762498212  0.0004467796487061  0.2748260405814092   T   T   T
  0.8754467866852456  0.2493522461719276  0.4100829152327940   T   T   T
  0.0000000000000000  0.7500000000000000  0.0000000000000000   F   F   F
  0.0000000000000000  0.5000000000000000  0.1363100000000017   F   F   F
  0.0001735101425682  0.7493594490985365  0.2753577295438602   T   T   T
  0.0002260611282972  0.4995697353116154  0.4105246356653526   T   T   T
  0.1250000000000000  0.5000000000000000  0.0000000000000000   F   F   F
  0.1250000000000000  0.7500000000000000  0.1363100000000017   F   F   F
  0.1248710074054817  0.4987737561036767  0.2748646314213544   T   T   T
  0.1272044348167806  0.7494865382557533  0.4098250047661385   T   T   T
  0.2500000000000000  0.7500000000000000  0.0000000000000000   F   F   F
  0.2500000000000000  0.5000000000000000  0.1363100000000017   F   F   F
  0.2507045166545817  0.7496532926646983  0.2726230383537815   T   T   T
  0.2504735591738026  0.4971327148320975  0.4069620701390433   T   T   T
  0.3750000000000000  0.5000000000000000  0.0000000000000000   F   F   F
  0.3750000000000000  0.7500000000000000  0.1363100000000017   F   F   F
  0.3753052761782175  0.4998171039192250  0.2737218698671051   T   T   T
  0.3758172729394318  0.7497033129417180  0.4075669287437751   T   T   T
  0.5000000000000000  0.7500000000000000  0.0000000000000000   F   F   F
  0.5000000000000000  0.5000000000000000  0.1363100000000017   F   F   F
  0.5002197517665942  0.7499014352402512  0.2737304763636729   T   T   T
  0.5003493035545137  0.5005896804986369  0.4074426199347505   T   T   T
  0.6250000000000000  0.5000000000000000  0.0000000000000000   F   F   F
  0.6250000000000000  0.7500000000000000  0.1363100000000017   F   F   F
  0.6250215987783164  0.4999769613280666  0.2737326461156316   T   T   T
  0.6250139019870318  0.7501727532781340  0.4076360249393456   T   T   T
  0.7500000000000000  0.7500000000000000  0.0000000000000000   F   F   F
  0.7500000000000000  0.5000000000000000  0.1363100000000017   F   F   F
  0.7496446114197459  0.7498136382174453  0.2725836053639548   T   T   T
  0.7501613427845626  0.4975019710721456  0.4069848065666617   T   T   T
  0.8750000000000000  0.5000000000000000  0.0000000000000000   F   F   F
  0.8750000000000000  0.7500000000000000  0.1363100000000017   F   F   F
  0.8754079741719240  0.4988378159220523  0.2747907608939725   T   T   T
  0.8735526775387511  0.7489864727056049  0.4097507255713886   T   T   T
  0.0003609284554350  0.7496856279634235  0.4931591779448198   T   T   T
  0.0664149410369439  0.7438729859262589  0.5354660558916251   T   T   T
  0.9336428794763041  0.7552809750687601  0.5349026391236952   T   T   T
 
  0.00000000E+00  0.00000000E+00  0.00000000E+00
  0.00000000E+00  0.00000000E+00  0.00000000E+00
  0.00000000E+00  0.00000000E+00  0.00000000E+00
  0.00000000E+00  0.00000000E+00  0.00000000E+00
  0.00000000E+00  0.00000000E+00  0.00000000E+00
  0.00000000E+00  0.00000000E+00  0.00000000E+00
  0.00000000E+00  0.00000000E+00  0.00000000E+00
  0.00000000E+00  0.00000000E+00  0.00000000E+00
  0.00000000E+00  0.00000000E+00  0.00000000E+00
  0.00000000E+00  0.00000000E+00  0.00000000E+00
  0.00000000E+00  0.00000000E+00  0.00000000E+00
  0.00000000E+00  0.00000000E+00  0.00000000E+00
  0.00000000E+00  0.00000000E+00  0.00000000E+00
  0.00000000E+00  0.00000000E+00  0.00000000E+00
  0.00000000E+00  0.00000000E+00  0.00000000E+00
  0.00000000E+00  0.00000000E+00  0.00000000E+00
  0.00000000E+00  0.00000000E+00  0.00000000E+00
  0.00000000E+00  0.00000000E+00  0.00000000E+00
  0.00000000E+00  0.00000000E+00  0.00000000E+00
  0.00000000E+00  0.00000000E+00  0.00000000E+00
  0.00000000E+00  0.00000000E+00  0.00000000E+00
  0.00000000E+00  0.00000000E+00  0.00000000E+00
  0.00000000E+00  0.00000000E+00  0.00000000E+00
  0.00000000E+00  0.00000000E+00  0.00000000E+00
  0.00000000E+00  0.00000000E+00  0.00000000E+00
  0.00000000E+00  0.00000000E+00  0.00000000E+00
  0.00000000E+00  0.00000000E+00  0.00000000E+00
  0.00000000E+00  0.00000000E+00  0.00000000E+00
  0.00000000E+00  0.00000000E+00  0.00000000E+00
  0.00000000E+00  0.00000000E+00  0.00000000E+00
  0.00000000E+00  0.00000000E+00  0.00000000E+00
  0.00000000E+00  0.00000000E+00  0.00000000E+00
  0.00000000E+00  0.00000000E+00  0.00000000E+00
  0.00000000E+00  0.00000000E+00  0.00000000E+00
  0.00000000E+00  0.00000000E+00  0.00000000E+00
  0.00000000E+00  0.00000000E+00  0.00000000E+00
  0.00000000E+00  0.00000000E+00  0.00000000E+00
  0.00000000E+00  0.00000000E+00  0.00000000E+00
  0.00000000E+00  0.00000000E+00  0.00000000E+00
  0.00000000E+00  0.00000000E+00  0.00000000E+00
  0.00000000E+00  0.00000000E+00  0.00000000E+00
  0.00000000E+00  0.00000000E+00  0.00000000E+00
  0.00000000E+00  0.00000000E+00  0.00000000E+00
  0.00000000E+00  0.00000000E+00  0.00000000E+00
  0.00000000E+00  0.00000000E+00  0.00000000E+00
  0.00000000E+00  0.00000000E+00  0.00000000E+00
  0.00000000E+00  0.00000000E+00  0.00000000E+00
  0.00000000E+00  0.00000000E+00  0.00000000E+00
  0.00000000E+00  0.00000000E+00  0.00000000E+00
  0.00000000E+00  0.00000000E+00  0.00000000E+00
  0.00000000E+00  0.00000000E+00  0.00000000E+00
  0.00000000E+00  0.00000000E+00  0.00000000E+00
  0.00000000E+00  0.00000000E+00  0.00000000E+00
  0.00000000E+00  0.00000000E+00  0.00000000E+00
  0.00000000E+00  0.00000000E+00  0.00000000E+00
  0.00000000E+00  0.00000000E+00  0.00000000E+00
  0.00000000E+00  0.00000000E+00  0.00000000E+00
  0.00000000E+00  0.00000000E+00  0.00000000E+00
  0.00000000E+00  0.00000000E+00  0.00000000E+00
  0.00000000E+00  0.00000000E+00  0.00000000E+00
  0.00000000E+00  0.00000000E+00  0.00000000E+00
  0.00000000E+00  0.00000000E+00  0.00000000E+00
  0.00000000E+00  0.00000000E+00  0.00000000E+00
  0.00000000E+00  0.00000000E+00  0.00000000E+00
  0.00000000E+00  0.00000000E+00  0.00000000E+00
  0.00000000E+00  0.00000000E+00  0.00000000E+00
  0.00000000E+00  0.00000000E+00  0.00000000E+00
