 Ni\(1\1\1)                             
   1.00000000000000     
     9.8291997910000006    0.0000000000000000    0.0000000000000000
     4.9145998955000003    8.5123367178000002    0.0000000000000000
     0.0000000000000000    0.0000000000000000   19.0128002167000005
   Ni   O    C    O    H    C 
    64     3     1     2     1     1
Selective dynamics
Direct
  0.8319423359694280  0.5846664588604625  0.2715280781863667   T   T   T
  0.3325621150664818  0.0845959849351142  0.2703894528999424   T   T   T
  0.8319264474891860  0.0848324003504324  0.2707862488036923   T   T   T
  0.3328036510473787  0.5846586672984281  0.2711973274243180   T   T   T
  0.5823566253785972  0.8350035581282423  0.2710825675929292   T   T   T
  0.8315850082793774  0.8345880589839373  0.2708285592418892   T   T   T
  0.0823726079667975  0.3347330103133210  0.2704750527981304   T   T   T
  0.8318877846932143  0.3344428989568722  0.2709422667493060   T   T   T
  0.5827269554332976  0.5841984464455782  0.2719269518725644   T   T   T
  0.0818385213714621  0.5845131234145566  0.2709382906203667   T   T   T
  0.0818013744268057  0.0853310525804245  0.2702373504394505   T   T   T
  0.5826494681978170  0.0842920822793460  0.2716353724848053   T   T   T
  0.3333048189972725  0.8339686080516853  0.2707658219017772   T   T   T
  0.0819841395748536  0.8346322044147181  0.2703372463023281   T   T   T
  0.3331311141859412  0.3347860045177275  0.2711491220903386   T   T   T
  0.5821774679688011  0.3342463113283102  0.2721315121360037   T   T   T
  0.9148481674999746  0.6673373249476374  0.3761378745785938   T   T   T
  0.9165764343009172  0.4171382383785081  0.3752258148495937   T   T   T
  0.6654686571516895  0.6690515795127270  0.3765336615250585   T   T   T
  0.1660670029898431  0.1676633282891496  0.3752195497994278   T   T   T
  0.9153498176555261  0.1677419519066895  0.3765296559734048   T   T   T
  0.9151312301002685  0.9183639869551306  0.3752029095974027   T   T   T
  0.4153639411218859  0.9184614536404939  0.3759658679169787   T   T   T
  0.4157743084288552  0.1680551969930919  0.3758553781916916   T   T   T
  0.6664863403360013  0.1678781479234907  0.3774257347044634   T   T   T
  0.1656511355891930  0.6683049159090069  0.3752448091375316   T   T   T
  0.4162556398336406  0.6672170282421871  0.3775212008094511   T   T   T
  0.4158548602974042  0.4189700099239994  0.3776840730364217   T   T   T
  0.6657665542098791  0.9167671027056848  0.3790219877686397   T   T   T
  0.1656165530002118  0.4179879704627706  0.3773025347836080   T   T   T
  0.6653194802856617  0.4169480256022721  0.3784098748335413   T   T   T
  0.1662679796750380  0.9178643228608684  0.3774491820112699   T   T   T
  0.0011339929807096  0.2520592206586616  0.4786990229792757   T   T   T
  0.4981016789220820  0.2505779295723736  0.4799385056997021   T   T   T
 -0.0014120978307736  0.7499211472424243  0.4782593578423526   T   T   T
  0.5012021481631668  0.7525905349350254  0.4797338307021307   T   T   T
  0.7485549641496752  0.7545198154555047  0.4877055647758337   T   T   T
  0.0005275598278503  0.5003670045192902  0.4848398069010513   T   T   T
  0.7556146114761003  0.5040259371048603  0.4816211919184604   T   T   T
  0.2477718959484658  0.0001225231088133  0.4854753967336294   T   T   T
  0.0054718934782921 -0.0029433723320222  0.4843162981948986   T   T   T
  0.5007632246121900  0.0009472329533261  0.4860874449076292   T   T   T
  0.2464400758444241  0.7562536904292417  0.4846758463140967   T   T   T
  0.7467484128842747 -0.0019378417187353  0.4843878904700362   T   T   T
  0.2481079272958146  0.2542936305465963  0.4843774046807900   T   T   T
  0.7519626077595793  0.2479890107694809  0.4949684216449721   T   T   T
  0.2454318503418282  0.4990052768788902  0.4842847255218174   T   T   T
  0.4972228483155189  0.5037958575369398  0.4957932119113569   T   T   T
  0.9970724670000024  0.2558556729999992  0.1637003960000030   F   F   F
  0.4999617989999976  0.2500875830000027  0.1643123180000003   F   F   F
  0.9968841629999972  0.7476992069999966  0.1643590660000029   F   F   F
  0.5054474789999972  0.7476858750000019  0.1651548480000002   F   F   F
  0.7507219769999978  0.7486395119999969  0.1651830500000031   F   F   F
  0.9979410790000003  0.5014025589999989  0.1651978470000017   F   F   F
  0.7507272960000009  0.5014379059999996  0.1654730480000026   F   F   F
  0.2484077359999972  0.9989653640000000  0.1655050250000016   F   F   F
  0.0026835399999996  0.9989392600000002  0.1655775309999967   F   F   F
  0.5037179199999997  0.9979203070000011  0.1655856309999990   F   F   F
  0.2483221529999966  0.7533767729999994  0.1658259459999982   F   F   F
  0.7484137009999969  0.9978805350000002  0.1658943890000018   F   F   F
  0.2473094730000014  0.2543786680000011  0.1660089160000027   F   F   F
  0.7483561820000020  0.2543461500000035  0.1660180820000008   F   F   F
  0.2472921950000000  0.4989472700000022  0.1662971330000005   F   F   F
  0.5037960519999984  0.4989156760000029  0.1664085250000014   F   F   F
  0.3299493957269214  0.0872378984352905  0.5459639081292267   T   T   T
  0.8435874999718789  0.0635125972248828  0.5463558485325027   T   T   T
  0.3120060689269258  0.5941127185986507  0.5467397109870553   T   T   T
  0.9345223893827094  0.5574264634954387  0.5773384820103862   T   T   T
  0.8164914885136434  0.6900830963890250  0.5893990091320837   T   T   T
  0.0096385761524325  0.4664047684140674  0.6324058952306365   T   T   T
  0.0990778273093440  0.3683138648746842  0.6146339231651006   T   T   T
  0.6775053592674110  0.4272728385241475  0.5414247804984952   T   T   T
 
  0.00000000E+00  0.00000000E+00  0.00000000E+00
  0.00000000E+00  0.00000000E+00  0.00000000E+00
  0.00000000E+00  0.00000000E+00  0.00000000E+00
  0.00000000E+00  0.00000000E+00  0.00000000E+00
  0.00000000E+00  0.00000000E+00  0.00000000E+00
  0.00000000E+00  0.00000000E+00  0.00000000E+00
  0.00000000E+00  0.00000000E+00  0.00000000E+00
  0.00000000E+00  0.00000000E+00  0.00000000E+00
  0.00000000E+00  0.00000000E+00  0.00000000E+00
  0.00000000E+00  0.00000000E+00  0.00000000E+00
  0.00000000E+00  0.00000000E+00  0.00000000E+00
  0.00000000E+00  0.00000000E+00  0.00000000E+00
  0.00000000E+00  0.00000000E+00  0.00000000E+00
  0.00000000E+00  0.00000000E+00  0.00000000E+00
  0.00000000E+00  0.00000000E+00  0.00000000E+00
  0.00000000E+00  0.00000000E+00  0.00000000E+00
  0.00000000E+00  0.00000000E+00  0.00000000E+00
  0.00000000E+00  0.00000000E+00  0.00000000E+00
  0.00000000E+00  0.00000000E+00  0.00000000E+00
  0.00000000E+00  0.00000000E+00  0.00000000E+00
  0.00000000E+00  0.00000000E+00  0.00000000E+00
  0.00000000E+00  0.00000000E+00  0.00000000E+00
  0.00000000E+00  0.00000000E+00  0.00000000E+00
  0.00000000E+00  0.00000000E+00  0.00000000E+00
  0.00000000E+00  0.00000000E+00  0.00000000E+00
  0.00000000E+00  0.00000000E+00  0.00000000E+00
  0.00000000E+00  0.00000000E+00  0.00000000E+00
  0.00000000E+00  0.00000000E+00  0.00000000E+00
  0.00000000E+00  0.00000000E+00  0.00000000E+00
  0.00000000E+00  0.00000000E+00  0.00000000E+00
  0.00000000E+00  0.00000000E+00  0.00000000E+00
  0.00000000E+00  0.00000000E+00  0.00000000E+00
  0.00000000E+00  0.00000000E+00  0.00000000E+00
  0.00000000E+00  0.00000000E+00  0.00000000E+00
  0.00000000E+00  0.00000000E+00  0.00000000E+00
  0.00000000E+00  0.00000000E+00  0.00000000E+00
  0.00000000E+00  0.00000000E+00  0.00000000E+00
  0.00000000E+00  0.00000000E+00  0.00000000E+00
  0.00000000E+00  0.00000000E+00  0.00000000E+00
  0.00000000E+00  0.00000000E+00  0.00000000E+00
  0.00000000E+00  0.00000000E+00  0.00000000E+00
  0.00000000E+00  0.00000000E+00  0.00000000E+00
  0.00000000E+00  0.00000000E+00  0.00000000E+00
  0.00000000E+00  0.00000000E+00  0.00000000E+00
  0.00000000E+00  0.00000000E+00  0.00000000E+00
  0.00000000E+00  0.00000000E+00  0.00000000E+00
  0.00000000E+00  0.00000000E+00  0.00000000E+00
  0.00000000E+00  0.00000000E+00  0.00000000E+00
  0.00000000E+00  0.00000000E+00  0.00000000E+00
  0.00000000E+00  0.00000000E+00  0.00000000E+00
  0.00000000E+00  0.00000000E+00  0.00000000E+00
  0.00000000E+00  0.00000000E+00  0.00000000E+00
  0.00000000E+00  0.00000000E+00  0.00000000E+00
  0.00000000E+00  0.00000000E+00  0.00000000E+00
  0.00000000E+00  0.00000000E+00  0.00000000E+00
  0.00000000E+00  0.00000000E+00  0.00000000E+00
  0.00000000E+00  0.00000000E+00  0.00000000E+00
  0.00000000E+00  0.00000000E+00  0.00000000E+00
  0.00000000E+00  0.00000000E+00  0.00000000E+00
  0.00000000E+00  0.00000000E+00  0.00000000E+00
  0.00000000E+00  0.00000000E+00  0.00000000E+00
  0.00000000E+00  0.00000000E+00  0.00000000E+00
  0.00000000E+00  0.00000000E+00  0.00000000E+00
  0.00000000E+00  0.00000000E+00  0.00000000E+00
  0.00000000E+00  0.00000000E+00  0.00000000E+00
  0.00000000E+00  0.00000000E+00  0.00000000E+00
  0.00000000E+00  0.00000000E+00  0.00000000E+00
  0.00000000E+00  0.00000000E+00  0.00000000E+00
  0.00000000E+00  0.00000000E+00  0.00000000E+00
  0.00000000E+00  0.00000000E+00  0.00000000E+00
  0.00000000E+00  0.00000000E+00  0.00000000E+00
  0.00000000E+00  0.00000000E+00  0.00000000E+00
