Ni_O                                    
   1.00000000000000     
     9.8291997910000006    0.0000000000000000    0.0000000000000000
     4.9145998955000003    8.5123367178000002    0.0000000000000000
     0.0000000000000000    0.0000000000000000   30.7147998810000011
   Ni   O    C 
    64     1     1
Direct
  0.0849696736778406  0.0825247286688201  0.1205298631118683
  0.3349578717164913  0.0825477958847598  0.1207620782304320
  0.3346869449062799  0.8327184692800542  0.1205811174092334
  0.5846244239068011  0.3324582862457852  0.1206977064325468
  0.3348656828044726  0.5825589473696700  0.1207421847804042
  0.3346606152166912  0.3326902285688400  0.1206130466200500
  0.8346451614657583  0.0828480360801608  0.1206770840971111
  0.5848140360731977  0.0826679896780917  0.1206104809973221
  0.8351633807606235  0.3324864866613227  0.1206787224181137
  0.5845622254314402  0.5830169015234506  0.1207029670841173
  0.0848396516508177  0.8326762368023393  0.1206266390468825
  0.5847630776559354  0.8328383381797198  0.1205416265100473
  0.0851048097240434  0.3324758499292837  0.1205003564532371
  0.8347005612321786  0.5826669405864868  0.1206500361064060
  0.0847891554929449  0.5825283203091691  0.1206026862013206
  0.8345498570630019  0.8328554349348989  0.1206353001722847
  0.1684163132659129  0.1659652152045157  0.1856811636516301
  0.1687789294573354  0.9156914872271263  0.1857374695449982
  0.4190945536883547  0.1660641842675136  0.1857921654918324
  0.4189025510462762  0.9153417881087810  0.1857418868233266
  0.4195999598673782  0.4159152032366778  0.1860222148967426
  0.4194302796592574  0.6648868780495522  0.1859914917935885
  0.9180709971992201  0.1665386865632956  0.1859139073832946
  0.6692825218927468  0.1665406420496203  0.1859924845450995
  0.6687639549850339  0.4158409382386021  0.1856851939107227
  0.1689488496604548  0.6655479784839702  0.1857546341826640
  0.9181935629777537  0.4158278880598843  0.1858188272576134
  0.6688459672332693  0.6650843520492881  0.1858568563924496
  0.9185421588548067  0.9162271209146375  0.1856847180716887
  0.6687567664619575  0.9158993173349496  0.1857726508145097
  0.1688566843805340  0.4157299179696795  0.1857725413518300
  0.9183601622245933  0.6656224355591771  0.1856791698861700
  0.2519256495604879 -0.0008479916593272  0.2511219780284052
  0.5008298050354215  0.2477259956306127  0.2510148778374450
  0.5022028611825461  0.4992290872743403  0.2535785339524848
  0.2521822116434543  0.2491682684132459  0.2511747896709740
  0.0051953088172079  0.2478322673359988  0.2508446988025596
  0.7527349736861532  0.2489128127265803  0.2536111069500321
  0.5003682273081301  0.7520863125607546  0.2509318226992704
  0.2516080328518485  0.7491217771275909  0.2511932575958012
  0.5021448590732406  0.9991201005054651  0.2511876457188405
  0.0019290332399052 -0.0010475881890693  0.2511236387836464
  0.2520241968110314  0.4993444835248300  0.2512149400608732
  0.7527357401233747  0.4996633257432255  0.2532156247443816
  0.7524249785353565 -0.0010501860840719  0.2511829902384474
  0.0019328606263831  0.7491273832268280  0.2511304909195742
  0.7522596427698397  0.7492081761330887  0.2511532147061338
  0.0021148889394488  0.4996133079912755  0.2511536215348955
  0.2500568560301265 -0.0000557895808294  0.0550906298522932
  0.5000548080077380  0.2500813280799631  0.0551734822061040
  0.5000511262247345  0.4998878336087725  0.0552390870765201
  0.2500346022655968  0.2500233597410155  0.0550984260955853
 -0.0000105338518201  0.2500124237517176  0.0551282569983365
  0.7499894506341165  0.2500630414237234  0.0551980790538229
  0.5000960408914460  0.7498632799162773  0.0551442376031887
  0.2500430065413231  0.7498862977893859  0.0550966414788740
  0.5000272638480728 -0.0000473070758032  0.0550860485787269
  0.0000032871643315  0.0000050695620797  0.0550762127428319
  0.2500472137088519  0.5000241165339983  0.0550718676513970
  0.7500660586458109  0.4999665359495609  0.0551717458725736
  0.7500799341271752 -0.0000275259958526  0.0550750372202682
  0.0000241410121131  0.7500169266439599  0.0550470608865927
  0.7500287376407593  0.7499595329609964  0.0550552382932531
  0.0000348300060433  0.5000121684492521  0.0550868738889188
  0.6697337472928853  0.4173781569391098  0.3355739264351660
  0.6693168209734734  0.4167196980211412  0.2967135091522436
 
  0.00000000E+00  0.00000000E+00  0.00000000E+00
  0.00000000E+00  0.00000000E+00  0.00000000E+00
  0.00000000E+00  0.00000000E+00  0.00000000E+00
  0.00000000E+00  0.00000000E+00  0.00000000E+00
  0.00000000E+00  0.00000000E+00  0.00000000E+00
  0.00000000E+00  0.00000000E+00  0.00000000E+00
  0.00000000E+00  0.00000000E+00  0.00000000E+00
  0.00000000E+00  0.00000000E+00  0.00000000E+00
  0.00000000E+00  0.00000000E+00  0.00000000E+00
  0.00000000E+00  0.00000000E+00  0.00000000E+00
  0.00000000E+00  0.00000000E+00  0.00000000E+00
  0.00000000E+00  0.00000000E+00  0.00000000E+00
  0.00000000E+00  0.00000000E+00  0.00000000E+00
  0.00000000E+00  0.00000000E+00  0.00000000E+00
  0.00000000E+00  0.00000000E+00  0.00000000E+00
  0.00000000E+00  0.00000000E+00  0.00000000E+00
  0.00000000E+00  0.00000000E+00  0.00000000E+00
  0.00000000E+00  0.00000000E+00  0.00000000E+00
  0.00000000E+00  0.00000000E+00  0.00000000E+00
  0.00000000E+00  0.00000000E+00  0.00000000E+00
  0.00000000E+00  0.00000000E+00  0.00000000E+00
  0.00000000E+00  0.00000000E+00  0.00000000E+00
  0.00000000E+00  0.00000000E+00  0.00000000E+00
  0.00000000E+00  0.00000000E+00  0.00000000E+00
  0.00000000E+00  0.00000000E+00  0.00000000E+00
  0.00000000E+00  0.00000000E+00  0.00000000E+00
  0.00000000E+00  0.00000000E+00  0.00000000E+00
  0.00000000E+00  0.00000000E+00  0.00000000E+00
  0.00000000E+00  0.00000000E+00  0.00000000E+00
  0.00000000E+00  0.00000000E+00  0.00000000E+00
  0.00000000E+00  0.00000000E+00  0.00000000E+00
  0.00000000E+00  0.00000000E+00  0.00000000E+00
  0.00000000E+00  0.00000000E+00  0.00000000E+00
  0.00000000E+00  0.00000000E+00  0.00000000E+00
  0.00000000E+00  0.00000000E+00  0.00000000E+00
  0.00000000E+00  0.00000000E+00  0.00000000E+00
  0.00000000E+00  0.00000000E+00  0.00000000E+00
  0.00000000E+00  0.00000000E+00  0.00000000E+00
  0.00000000E+00  0.00000000E+00  0.00000000E+00
  0.00000000E+00  0.00000000E+00  0.00000000E+00
  0.00000000E+00  0.00000000E+00  0.00000000E+00
  0.00000000E+00  0.00000000E+00  0.00000000E+00
  0.00000000E+00  0.00000000E+00  0.00000000E+00
  0.00000000E+00  0.00000000E+00  0.00000000E+00
  0.00000000E+00  0.00000000E+00  0.00000000E+00
  0.00000000E+00  0.00000000E+00  0.00000000E+00
  0.00000000E+00  0.00000000E+00  0.00000000E+00
  0.00000000E+00  0.00000000E+00  0.00000000E+00
  0.00000000E+00  0.00000000E+00  0.00000000E+00
  0.00000000E+00  0.00000000E+00  0.00000000E+00
  0.00000000E+00  0.00000000E+00  0.00000000E+00
  0.00000000E+00  0.00000000E+00  0.00000000E+00
  0.00000000E+00  0.00000000E+00  0.00000000E+00
  0.00000000E+00  0.00000000E+00  0.00000000E+00
  0.00000000E+00  0.00000000E+00  0.00000000E+00
  0.00000000E+00  0.00000000E+00  0.00000000E+00
  0.00000000E+00  0.00000000E+00  0.00000000E+00
  0.00000000E+00  0.00000000E+00  0.00000000E+00
  0.00000000E+00  0.00000000E+00  0.00000000E+00
  0.00000000E+00  0.00000000E+00  0.00000000E+00
  0.00000000E+00  0.00000000E+00  0.00000000E+00
  0.00000000E+00  0.00000000E+00  0.00000000E+00
  0.00000000E+00  0.00000000E+00  0.00000000E+00
  0.00000000E+00  0.00000000E+00  0.00000000E+00
  0.00000000E+00  0.00000000E+00  0.00000000E+00
  0.00000000E+00  0.00000000E+00  0.00000000E+00
