Ni_Pol_COCHO
   1.00000000000000     
     9.8291997910000006    0.0000000000000000    0.0000000000000000
     4.9145998955000003    8.5123367178000002    0.0000000000000000
     0.0000000000000000    0.0000000000000000   19.0128002167000005
   Ni   O    C    O    C    O    H 
    64     3     1     1     1     1     1
Selective dynamics
Direct
  0.8338665787889828  0.5839819536551226  0.2711759194766430   T   T   T
  0.3332488868739806  0.0843955854425798  0.2707214801119869   T   T   T
  0.8345378463974013  0.0843180146043896  0.2706879873804145   T   T   T
  0.3339120137441766  0.5844282598052953  0.2706477593264431   T   T   T
  0.5840703590224030  0.8343524946389973  0.2707710943168059   T   T   T
  0.8340535876633901  0.8342733501171379  0.2709433043021041   T   T   T
  0.0841913766345086  0.3338576130559471  0.2709428061729575   T   T   T
  0.8340979132456612  0.3339595456897223  0.2715204690803634   T   T   T
  0.5842346413975047  0.5839505938949622  0.2714503225127397   T   T   T
  0.0841874913328056  0.5840676777915893  0.2708187923560842   T   T   T
  0.0836995215844790  0.0847795029207235  0.2712843949608208   T   T   T
  0.5841167336914908  0.0837556246983708  0.2715065353087520   T   T   T
  0.3340656373840377  0.8344099008534330  0.2707790862552401   T   T   T
  0.0838983807224064  0.8340908239508861  0.2707843275495498   T   T   T
  0.3340940680537016  0.3338332489724699  0.2713893478807223   T   T   T
  0.5842314141125032  0.3340063094756204  0.2709031290943731   T   T   T
  0.9178641255878914  0.6668280722215080  0.3748287948926154   T   T   T
  0.9178288967292401  0.4163208683895894  0.3759235372130176   T   T   T
  0.6684211437473706  0.6656174363543869  0.3759793940015976   T   T   T
  0.1665818346033305  0.1670453866634952  0.3777177904646235   T   T   T
  0.9183618068541555  0.1670573107802645  0.3774100237434015   T   T   T
  0.9177257446556047  0.9178359657110209  0.3758542444368134   T   T   T
  0.4173272616184558  0.9170966432752594  0.3758052831855070   T   T   T
  0.4176657320486050  0.1661054454491001  0.3759494332030756   T   T   T
  0.6684269074677893  0.1667031246488627  0.3758216026193111   T   T   T
  0.1683787158079511  0.6668212565354267  0.3760425551301982   T   T   T
  0.4172246315943570  0.6670906828251388  0.3760048371063796   T   T   T
  0.4176780876256975  0.4174880347737909  0.3758718681411516   T   T   T
  0.6672658641107491  0.9172565222633393  0.3778439652335377   T   T   T
  0.1689793318975953  0.4160724358183840  0.3773993239693095   T   T   T
  0.6678679331573918  0.4167287184772206  0.3780188898691553   T   T   T
  0.1676022202345431  0.9167148738994352  0.3783141701901110   T   T   T
  0.0018092670987445  0.2515231249848882  0.4855775893100044   T   T   T
  0.5010098917262068  0.2485358485465316  0.4793086355519646   T   T   T
  0.9978510670651526  0.7470469823395403  0.4797315063601597   T   T   T
  0.5064057371956767  0.7461008253291630  0.4798067216854426   T   T   T
  0.7512415514153394  0.7483021171566088  0.4805405551670255   T   T   T
  0.0020357089719420  0.5017814670488765  0.4794438938321118   T   T   T
  0.7524426222481408  0.4983272952368034  0.4857772492222735   T   T   T
  0.2509634868666949  0.9959074028988842  0.4855452431260462   T   T   T
  0.0046486451709102  0.9956164707831140  0.4853123365553308   T   T   T
  0.5053443069017910  0.9960323001881810  0.4858445713233528   T   T   T
  0.2498470665228655  0.7523480535783823  0.4857573220368641   T   T   T
  0.7495737430323359  0.9958472337588965  0.4858673727026691   T   T   T
  0.2515055965357560  0.2526888300463177  0.4852338167919785   T   T   T
  0.7465450953171743  0.2516735706239419  0.4846970633550037   T   T   T
  0.2487451447005360  0.4988350686059506  0.4861702178060784   T   T   T
  0.5030938161986850  0.4981195627302235  0.4854860157197810   T   T   T
  0.9970724670000024  0.2558556729999992  0.1637003960000030   F   F   F
  0.4999617989999976  0.2500875830000027  0.1643123180000003   F   F   F
  0.9968841629999972  0.7476992069999966  0.1643590660000029   F   F   F
  0.5054474789999972  0.7476858750000019  0.1651548480000002   F   F   F
  0.7507219769999978  0.7486395119999969  0.1651830500000031   F   F   F
  0.9979410790000003  0.5014025589999989  0.1651978470000017   F   F   F
  0.7507272960000009  0.5014379059999996  0.1654730480000026   F   F   F
  0.2484077359999972  0.9989653640000000  0.1655050250000016   F   F   F
  0.0026835399999996  0.9989392600000002  0.1655775309999967   F   F   F
  0.5037179199999997  0.9979203070000011  0.1655856309999990   F   F   F
  0.2483221529999966  0.7533767729999994  0.1658259459999982   F   F   F
  0.7484137009999969  0.9978805350000002  0.1658943890000018   F   F   F
  0.2473094730000014  0.2543786680000011  0.1660089160000027   F   F   F
  0.7483561820000020  0.2543461500000035  0.1660180820000008   F   F   F
  0.2472921950000000  0.4989472700000022  0.1662971330000005   F   F   F
  0.5037960519999984  0.4989156760000029  0.1664085250000014   F   F   F
  0.3346269747150814  0.0822859972802523  0.5445712965518593   T   T   T
  0.8347178602080154  0.0810446191099053  0.5444657147004052   T   T   T
  0.3342969285574894  0.5831753462944714  0.5456234770478552   T   T   T
  0.8237699811853422  0.4351573942091934  0.5761257981472396   T   T   T
  0.9514843389450560  0.3136033168339757  0.5882504864079564   T   T   T
  0.7211648092381652  0.5446582576571727  0.6364996135633983   T   T   T
  0.7792014480121100  0.5541841607572711  0.6910647497047185   T   T   T
  0.5943075552045417  0.6161874855536209  0.6225910003255037   T   T   T
 
  0.00000000E+00  0.00000000E+00  0.00000000E+00
  0.00000000E+00  0.00000000E+00  0.00000000E+00
  0.00000000E+00  0.00000000E+00  0.00000000E+00
  0.00000000E+00  0.00000000E+00  0.00000000E+00
  0.00000000E+00  0.00000000E+00  0.00000000E+00
  0.00000000E+00  0.00000000E+00  0.00000000E+00
  0.00000000E+00  0.00000000E+00  0.00000000E+00
  0.00000000E+00  0.00000000E+00  0.00000000E+00
  0.00000000E+00  0.00000000E+00  0.00000000E+00
  0.00000000E+00  0.00000000E+00  0.00000000E+00
  0.00000000E+00  0.00000000E+00  0.00000000E+00
  0.00000000E+00  0.00000000E+00  0.00000000E+00
  0.00000000E+00  0.00000000E+00  0.00000000E+00
  0.00000000E+00  0.00000000E+00  0.00000000E+00
  0.00000000E+00  0.00000000E+00  0.00000000E+00
  0.00000000E+00  0.00000000E+00  0.00000000E+00
  0.00000000E+00  0.00000000E+00  0.00000000E+00
  0.00000000E+00  0.00000000E+00  0.00000000E+00
  0.00000000E+00  0.00000000E+00  0.00000000E+00
  0.00000000E+00  0.00000000E+00  0.00000000E+00
  0.00000000E+00  0.00000000E+00  0.00000000E+00
  0.00000000E+00  0.00000000E+00  0.00000000E+00
  0.00000000E+00  0.00000000E+00  0.00000000E+00
  0.00000000E+00  0.00000000E+00  0.00000000E+00
  0.00000000E+00  0.00000000E+00  0.00000000E+00
  0.00000000E+00  0.00000000E+00  0.00000000E+00
  0.00000000E+00  0.00000000E+00  0.00000000E+00
  0.00000000E+00  0.00000000E+00  0.00000000E+00
  0.00000000E+00  0.00000000E+00  0.00000000E+00
  0.00000000E+00  0.00000000E+00  0.00000000E+00
  0.00000000E+00  0.00000000E+00  0.00000000E+00
  0.00000000E+00  0.00000000E+00  0.00000000E+00
  0.00000000E+00  0.00000000E+00  0.00000000E+00
  0.00000000E+00  0.00000000E+00  0.00000000E+00
  0.00000000E+00  0.00000000E+00  0.00000000E+00
  0.00000000E+00  0.00000000E+00  0.00000000E+00
  0.00000000E+00  0.00000000E+00  0.00000000E+00
  0.00000000E+00  0.00000000E+00  0.00000000E+00
  0.00000000E+00  0.00000000E+00  0.00000000E+00
  0.00000000E+00  0.00000000E+00  0.00000000E+00
  0.00000000E+00  0.00000000E+00  0.00000000E+00
  0.00000000E+00  0.00000000E+00  0.00000000E+00
  0.00000000E+00  0.00000000E+00  0.00000000E+00
  0.00000000E+00  0.00000000E+00  0.00000000E+00
  0.00000000E+00  0.00000000E+00  0.00000000E+00
  0.00000000E+00  0.00000000E+00  0.00000000E+00
  0.00000000E+00  0.00000000E+00  0.00000000E+00
  0.00000000E+00  0.00000000E+00  0.00000000E+00
  0.00000000E+00  0.00000000E+00  0.00000000E+00
  0.00000000E+00  0.00000000E+00  0.00000000E+00
  0.00000000E+00  0.00000000E+00  0.00000000E+00
  0.00000000E+00  0.00000000E+00  0.00000000E+00
  0.00000000E+00  0.00000000E+00  0.00000000E+00
  0.00000000E+00  0.00000000E+00  0.00000000E+00
  0.00000000E+00  0.00000000E+00  0.00000000E+00
  0.00000000E+00  0.00000000E+00  0.00000000E+00
  0.00000000E+00  0.00000000E+00  0.00000000E+00
  0.00000000E+00  0.00000000E+00  0.00000000E+00
  0.00000000E+00  0.00000000E+00  0.00000000E+00
  0.00000000E+00  0.00000000E+00  0.00000000E+00
  0.00000000E+00  0.00000000E+00  0.00000000E+00
  0.00000000E+00  0.00000000E+00  0.00000000E+00
  0.00000000E+00  0.00000000E+00  0.00000000E+00
  0.00000000E+00  0.00000000E+00  0.00000000E+00
  0.00000000E+00  0.00000000E+00  0.00000000E+00
  0.00000000E+00  0.00000000E+00  0.00000000E+00
  0.00000000E+00  0.00000000E+00  0.00000000E+00
  0.00000000E+00  0.00000000E+00  0.00000000E+00
  0.00000000E+00  0.00000000E+00  0.00000000E+00
  0.00000000E+00  0.00000000E+00  0.00000000E+00
  0.00000000E+00  0.00000000E+00  0.00000000E+00
  0.00000000E+00  0.00000000E+00  0.00000000E+00
