 Ni_Pol_CO_CHO(ER)
   1.000
    9.8292000000000002    0.0000000000000000    0.0000000000000000
    4.9146000000000001    8.5123370000000005    0.0000000000000000
    0.0000000000000000    0.0000000000000000   33.0127999999999986
   Ni   O    O    H    C    O 
   64    3   30   60    1    1
Selective Dynamics
Direct
    0.8223104000000000    0.5876044400000000    0.1251299000000000    T  T  T
    0.3334443600000000    0.0790458100000000    0.1189774100000000    T  T  T
    0.8303303000000000    0.0856096100000000    0.1198542800000000    T  T  T
    0.3241176200000000    0.5735301600000000    0.1232191900000000    T  T  T
    0.5808010100000000    0.8327605500000000    0.1230173300000000    T  T  T
    0.8283702100000000    0.8339109000000000    0.1242263100000000    T  T  T
    0.0798913700000000    0.3282402500000000    0.1218867200000000    T  T  T
    0.8190670400000000    0.3369578800000000    0.1201174000000000    T  T  T
    0.5739378600000000    0.5891610600000000    0.1235541100000000    T  T  T
    0.0713436500000000    0.5861108200000000    0.1216716800000000    T  T  T
    0.0825420700000000    0.0795837700000000    0.1193042000000000    T  T  T
    0.5792660200000000    0.0818548800000000    0.1238174200000000    T  T  T
    0.3354045200000000    0.8195574700000000    0.1193448000000000    T  T  T
    0.0806760400000000    0.8303945900000000    0.1191599100000000    T  T  T
    0.3294129300000000    0.3273562100000000    0.1247012500000000    T  T  T
    0.5721578899999999    0.3363207900000000    0.1211726700000000    T  T  T
    0.9192338900000000    0.6599508400000000    0.1852017000000000    T  T  T
    0.9314735400000000    0.4075370200000000    0.1863316100000000    T  T  T
    0.6684247700000000    0.6598891400000000    0.1873728400000000    T  T  T
    0.1729252200000000    0.1572723000000000    0.1799945100000000    T  T  T
    0.9274947000000000    0.1714597600000000    0.1788297400000000    T  T  T
    0.9257311200000000    0.9137099000000000    0.1850610800000000    T  T  T
    0.4179777400000000    0.9125208299999999    0.1801781600000000    T  T  T
    0.4118031400000000    0.1693980300000000    0.1834850500000000    T  T  T
    0.6592655800000000    0.1722012400000000    0.1832007300000000    T  T  T
    0.1687288700000000    0.6649942400000000    0.1840158500000000    T  T  T
    0.4238888800000000    0.6647209200000000    0.1817991300000000    T  T  T
    0.4181443500000000    0.4103612100000000    0.1846732400000000    T  T  T
    0.6697720500000000    0.9167787700000000    0.1855377600000000    T  T  T
    0.1652844400000000    0.4092740700000000    0.1846239900000000    T  T  T
    0.6681278899999999    0.4201191600000000    0.1833285100000000    T  T  T
    0.1720263300000000    0.9183382100000000    0.1826884900000000    T  T  T
    1.0139512700000000    0.2446482800000000    0.2427184800000000    T  T  T
    0.5136596400000000    0.2425605600000000    0.2484650700000000    T  T  T
    1.0089615999999999    0.7502102800000000    0.2465433200000000    T  T  T
    0.4994746800000000    0.7535091500000000    0.2430324200000000    T  T  T
    0.7503031600000000    0.7562496100000000    0.2486016800000000    T  T  T
    1.0123653699999999    0.4890988700000000    0.2509795700000000    T  T  T
    0.7521947300000000    0.4918606200000000    0.2472251900000000    T  T  T
    0.2687875000000000    0.9836521100000000    0.2408121100000000    T  T  T
    1.0112167800000000    0.9960432400000000    0.2459104000000000    T  T  T
    0.5119622600000000    1.0018656399999999    0.2468140600000000    T  T  T
    0.2614571400000000    0.7501969500000000    0.2449536200000000    T  T  T
    0.7583065100000000    0.9998426600000000    0.2427612800000000    T  T  T
    0.2583396900000000    0.2552942700000000    0.2460987600000000    T  T  T
    0.7762480600000000    0.2475945700000000    0.2467266800000000    T  T  T
    0.2538557500000000    0.4977987200000000    0.2468495800000000    T  T  T
    0.5099429700000000    0.4902976500000000    0.2444995600000000    T  T  T
    0.9970724700000000    0.2558556700000000    0.0591330300000000    F  F  F
    0.4999618000000000    0.2500875800000000    0.0594854500000000    F  F  F
    0.9968841600000000    0.7476992099999999    0.0595123700000000    F  F  F
    0.5054474799999999    0.7476858800000000    0.0599706800000000    F  F  F
    0.7507219800000000    0.7486395100000000    0.0599869200000000    F  F  F
    0.9979410800000000    0.5014025600000001    0.0599954500000000    F  F  F
    0.7507273000000000    0.5014379100000000    0.0601539400000000    F  F  F
    0.2484077400000000    0.9989653600000000    0.0601723600000000    F  F  F
    0.0026835400000000    0.9989392600000000    0.0602141100000000    F  F  F
    0.5037179200000000    0.9979203100000000    0.0602187800000000    F  F  F
    0.2483221500000000    0.7533767700000000    0.0603571800000000    F  F  F
    0.7484137000000000    0.9978805400000000    0.0603966000000000    F  F  F
    0.2473094700000000    0.2543786700000000    0.0604625600000000    F  F  F
    0.7483561800000000    0.2543461500000000    0.0604678400000000    F  F  F
    0.2472922000000000    0.4989472700000000    0.0606285500000000    F  F  F
    0.5037960500000001    0.4989156800000000    0.0606927000000000    F  F  F
    0.3329385800000000    0.0770904900000000    0.2786610900000000    T  T  T
    0.8541901100000000    0.0686796800000000    0.2816945700000000    T  T  T
    0.3254809800000000    0.5906846300000000    0.2821383700000000    T  T  T
    0.0798681100000000    0.3531839700000000    0.6223873100000000    T  T  T
    0.6093709800000000    0.6534936099999999    0.4617369300000000    T  T  T
    0.0869705100000000    0.5204454400000000    0.3818041100000000    T  T  T
    0.0114045200000000    0.5367541500000000    0.4639914300000000    T  T  T
    0.8900026599999999    0.2099581800000000    0.3452485900000000    T  T  T
    0.2875640400000000    0.5622930100000000    0.5479327700000000    T  T  T
    0.9073838900000000    0.6216488600000000    0.2948710300000000    T  T  T
    0.7338832600000000    0.3719224400000000    0.4122790900000000    T  T  T
    0.1548717800000000    0.2429372300000000    0.3469516300000000    T  T  T
    0.9581919300000000    0.7480830000000001    0.5646038300000000    T  T  T
    0.1560586700000000    0.9622662900000000    0.4228880400000000    T  T  T
    0.4224574900000000    1.6608128400000000    0.6044577799999999    T  T  T
    0.5196366800000000    1.0314426400000001    0.5224683200000000    T  T  T
    0.6974352900000000    0.9379153300000000    0.3551496200000000    T  T  T
    0.7638712500000000    0.4867193100000000    0.5801550700000000    T  T  T
    0.3888374400000000    0.9724256200000000    0.3775972800000000    T  T  T
    0.2830762100000000    0.6802237700000000    0.4694607200000000    T  T  T
    0.4561285700000000    0.6573331200000000    0.3425480400000000    T  T  T
    0.8023588500000000    1.0377942099999999    0.5248606200000000    T  T  T
    0.3986919500000000    0.4609330900000000    0.4050301500000000    T  T  T
    0.1857631500000000    0.7947691300000000    0.6721951500000000    T  T  T
    0.0049534700000000    0.6473201300000000    0.6444305900000000    T  T  T
    0.5720939100000000    0.9407312300000000    0.4457758200000000    T  T  T
   -0.0379416400000000    0.3617557700000000    0.5139215200000000    T  T  T
    0.7479411900000000    0.4849073600000000    0.3124598200000000    T  T  T
    0.7188138900000000    0.7140496100000000    0.5297036800000000    T  T  T
    0.9172304300000000    1.1612748900000001    0.4691219600000000    T  T  T
    0.2510388100000000    0.2792541800000000    0.5452156700000000    T  T  T
    0.8742546200000000    0.8648746500000000    0.4583264300000000    T  T  T
    0.0162579100000000    0.8224840800000000    0.3808607400000000    T  T  T
    0.1378165600000000    0.2846122000000000    0.6466980700000000    T  T  T
    0.1550618900000000    0.3197199700000000    0.5983643700000000    T  T  T
    0.4993141400000000    0.6758864600000000    0.4606148000000000    T  T  T
    0.6602101000000000    0.5630222900000000    0.4447837300000000    T  T  T
    0.0607714800000000    0.5014641700000000    0.4113316900000000    T  T  T
    0.1966640600000000    0.4944510900000000    0.3876085700000000    T  T  T
   -0.0181397900000000    0.4761546100000000    0.4835413900000000    T  T  T
    0.1025691500000000    0.5354093300000000    0.4760202100000000    T  T  T
    0.8656669000000000    0.1199343600000000    0.3424284900000000    T  T  T
    0.0024628500000000    0.1755606300000000    0.3500633000000000    T  T  T
    0.1770779800000000    0.6156362900000000    0.5585732400000000    T  T  T
    0.3020712800000000    0.4540268500000000    0.5436574500000000    T  T  T
    0.8639150799999999    0.5783537700000000    0.3141043300000000    T  T  T
    0.7004893500000000    0.8840075500000000    0.3286601400000000    T  T  T
    0.7823103300000001    0.3083077400000000    0.3871158800000000    T  T  T
    0.7814905700000000    0.2986014500000000    0.4350124400000000    T  T  T
    0.1426449700000000    0.3339356900000000    0.3613964100000000    T  T  T
    0.1854947200000000    0.2379455600000000    0.3183854000000000    T  T  T
   -0.0256352900000000    0.7029072700000000    0.5935265400000000    T  T  T
    0.8896378100000000    0.7160336300000000    0.5503518700000000    T  T  T
    0.1114201700000000    0.9125726400000000    0.4053160400000000    T  T  T
    0.2367997300000000    0.9733406200000000    0.4080595100000000    T  T  T
    0.5277849400000000    1.5817591700000000    0.5952385500000000    T  T  T
    0.3602877900000000    1.6178641199999999    0.5929062800000000    T  T  T
    0.5968601100000001    1.0642359100000001    0.5269555700000000    T  T  T
    0.5152716400000000    1.0188494699999999    0.4918994300000000    T  T  T
    0.8130472900000000   -0.1055045000000000    0.3572326900000000    T  T  T
    0.6306716300000000    0.1113849600000000    0.3161106600000000    T  T  T
    0.7367780400000000    0.5861188800000000    0.5653540100000000    T  T  T
    0.8553040200000001    0.4483071800000000    0.5979990100000000    T  T  T
    0.3340384500000000    1.0636358699999999    0.3590475800000000    T  T  T
    0.4225247200000000    0.8694901600000000    0.3634620700000000    T  T  T
    0.2505295400000000    0.6774843600000000    0.4990773600000000    T  T  T
    0.2246149900000000    0.7832924500000000    0.4563230400000000    T  T  T
    0.4107066200000000    0.6207594600000000    0.3656410900000000    T  T  T
    0.3963565200000000    0.6574396700000000    0.3184741500000000    T  T  T
    0.8442354200000000    0.9920474200000000    0.5521610100000000    T  T  T
    0.8623195000000000    0.9456171300000000    0.5050198400000000    T  T  T
    0.3724074600000000    0.5135398700000000    0.4316647200000000    T  T  T
    0.5170712100000000    0.4098558700000000    0.4027899800000000    T  T  T
    0.2373777300000000    0.7311557800000000    0.6959046300000000    T  T  T
    0.2750577700000000    0.7745498100000000    0.6545166400000000    T  T  T
    0.0679913900000000    0.5295921500000000    0.6391354200000000    T  T  T
    0.0690753100000000    0.6944753700000000    0.6472223300000000    T  T  T
    0.6132456900000000    0.8270966100000000    0.4436485700000000    T  T  T
    0.5140441400000000    0.9827480800000000    0.4196188000000000    T  T  T
   -0.0655964900000000    0.3007448400000000    0.4941947200000000    T  T  T
    0.8682364200000000    0.4130607200000000    0.5306337200000000    T  T  T
    0.6355443200000001    0.5437652600000000    0.3258047600000000    T  T  T
    0.8013262400000000    0.3757271800000000    0.3253825600000000    T  T  T
    0.7056959300000000    0.6789919200000000    0.5027729900000000    T  T  T
    0.6335849700000000    0.8222316400000000    0.5333627100000000    T  T  T
    0.8881937400000000    1.1253661399999999    0.4929532600000000    T  T  T
    0.0178582600000000    1.0752791600000000    0.4571527300000000    T  T  T
    0.1513885000000000    0.2801559800000000    0.5387025000000000    T  T  T
    0.3368123900000000    1.1734625999999999    0.5429362200000000    T  T  T
    0.9104507600000000    0.7464038100000000    0.4597780700000000    T  T  T
    0.7586582700000000    0.9210894800000000    0.4484057700000000    T  T  T
    0.0467269000000000    0.7069489600000000    0.3796039400000000    T  T  T
    0.9747864500000000    0.8529506000000000    0.4097835300000000    T  T  T
    0.5254580200000000    0.2142427800000000    0.3035020000000000    T  T  T
    0.4280510600000000    0.2997965200000000    0.3282074300000000    T  T  T
	
  -0.001780657872001    0.002291350873660   -0.003059626303999
   0.001467548706000   -0.001430157739370    0.001425162576000
  -0.000274627848000    0.002936926511740   -0.000994015408000
   0.001692686531999    0.000357518154000   -0.002555520848000
   0.000936919343999    0.000889028476280    0.000004951919999
   0.002085117341998    0.002284626127430   -0.001555233008000
  -0.002604738000000    0.000812757936760   -0.002798164928000
   0.001887648714002   -0.000418211116810    0.002649277200000
   0.000839806847999    0.006778203706359    0.000018157040000
  -0.001167070062000    0.002443636582589    0.000931951344000
  -0.001626437724000    0.004505750220840   -0.002957286624000
  -0.003573258222001   -0.000843487473330   -0.000055131376000
  -0.000715811490000    0.000471498346430   -0.000949118000000
   0.003932810358000   -0.002384560963811    0.002916350752000
  -0.000759993744000    0.002223762917880   -0.002044812832000
   0.000502763580001    0.001198196556120    0.001514627264000
   0.002603607642000    0.000842806486370    0.002208886448000
  -0.000662832102002    0.000143432878450   -0.001595508624001
  -0.000124634256000   -0.001613087861500   -0.001391819648000
   0.000561689634000    0.000681242330110   -0.000217554352000
  -0.000584542523999    0.002471812418060    0.001040233328000
   0.000267010218003    0.002028915523951   -0.000302727376000
   0.003897818406001   -0.000517124472750    0.002469357440000
  -0.003574732602000    0.001017139148130    0.000614698335999
   0.001638232764000   -0.001770566096000   -0.002935828304000
  -0.001651944498001    0.001688422043950   -0.001223784496000
  -0.001023170574001   -0.001114690530151    0.000863614848000
  -0.000247204379999   -0.000041540204560    0.000438409984000
  -0.005000949522000   -0.001616237426190    0.002964879568000
   0.001730086638000   -0.000303635060790   -0.000560887472000
  -0.002202920303999   -0.002662999507080   -0.001652620768000
  -0.003020169137999    0.000983089800130    0.001310278031999
   0.000394986402000   -0.000564112572990    0.000158461440002
  -0.002401765019999    0.000453367068620   -0.000787685408000
  -0.001027053107999    0.000301506976540    0.001383566447998
   0.002001077682001   -0.000259881648610   -0.002061319232000
   0.004513961808001    0.000481117287240    0.001565797104002
   0.001279909278001   -0.003465117022590   -0.004218045456000
  -0.002681553198000   -0.001905827130930    0.000938553904000
  -0.005173894296001   -0.001011606129079   -0.000684025216001
  -0.003376870806001    0.001021735810111   -0.002682290000001
  -0.002006631179999   -0.000392588982439   -0.000884743040000
   0.000760632642001    0.000842125499410   -0.001649649616001
  -0.004620166314002    0.000662685435451    0.001458835632000
  -0.000132153594000    0.002058027716490    0.002720254720000
   0.000152745768000   -0.001584656655920    0.000113233903999
  -0.002017738176001   -0.005299610769460    0.001733171999998
  -0.000214866312001    0.001828109494121   -0.001045515375999
   0.000000000000000    0.000000000000000    0.000000000000000
   0.000000000000000    0.000000000000000    0.000000000000000
   0.000000000000000    0.000000000000000    0.000000000000000
   0.000000000000000    0.000000000000000    0.000000000000000
   0.000000000000000    0.000000000000000    0.000000000000000
   0.000000000000000    0.000000000000000    0.000000000000000
   0.000000000000000    0.000000000000000    0.000000000000000
   0.000000000000000    0.000000000000000    0.000000000000000
   0.000000000000000    0.000000000000000    0.000000000000000
   0.000000000000000    0.000000000000000    0.000000000000000
   0.000000000000000    0.000000000000000    0.000000000000000
   0.000000000000000    0.000000000000000    0.000000000000000
   0.000000000000000    0.000000000000000    0.000000000000000
   0.000000000000000    0.000000000000000    0.000000000000000
   0.000000000000000    0.000000000000000    0.000000000000000
   0.000000000000000    0.000000000000000    0.000000000000000
   0.005736566850000   -0.002219081132530    0.006430233184002
   0.007406154762002   -0.004101669583450   -0.002253123599999
  -0.001841058306000   -0.001183470213110    0.004369244079998
  -0.005722904262000    0.004280939400670    0.004304869120002
  -0.003350331966001   -0.002162048474630    0.004171497408000
   0.003363503094000   -0.001385042353270    0.001666156016002
  -0.001419238188000    0.004838242104059    0.002430072208000
  -0.002054450238001    0.002297905373150    0.000838855248000
   0.002207196006000   -0.004793382088070   -0.000242313951997
  -0.001224816612000    0.002856229556980    0.007975232224000
  -0.002206655399998    0.001632495989860   -0.004257660816000
  -0.004738264152000    0.003258352356860   -0.003604997760002
  -0.004667788788002   -0.002330167130380   -0.000066025600002
   0.003991687266000   -0.004836114019810   -0.001987700688000
  -0.001878704141999    0.003838638370150   -0.001744396351999
   0.003092856072000    0.002892832606078   -0.003718891919998
   0.000836366627999   -0.005568600618661   -0.003223369792000
  -0.005112068628002   -0.007436888343420   -0.001949075712002
   0.007026747642000    0.001360016082490   -0.006891752127999
   0.001320946188001    0.005665641260459   -0.005660704816002
  -0.003465874212001    0.007324355248279   -0.002894562303998
  -0.001968199007999    0.002586728967561    0.005319022336000
   0.004772912081999    0.002086629168811    0.003392395328001
   0.001012997352000    0.002926541460600    0.001481284336002
  -0.004970380710000    0.003312916437030   -0.002339617136002
  -0.000179874360001   -0.002534633465119    0.001836502064002
   0.001460127660000   -0.004876036880340    0.004591750352002
   0.002940110303998    0.000909628331820    0.005640897135999
   0.004020830843999    0.006095684525699   -0.007896661759997
   0.008617800246000   -0.002035725393551   -0.004687817600001
   0.003751265034000   -0.002420483025950    0.001968883391999
   0.002994957240002   -0.006956622289879    0.003158004448000
  -0.002198497164001   -0.005255006123579    0.002735440607999
   0.009233157312000    0.006262866824381    0.017489521184000
  -0.009921987648000    0.005463728626820    0.013149988624001
  -0.012260403474000    0.001968988671470    0.029795042384000
  -0.017747456082001   -0.009721173977370   -0.020732038400000
  -0.022039032240000    0.001627899327881   -0.001353194672001
   0.012966926370000    0.018970509114831   -0.010802448415998
  -0.022971430152000   -0.014817425015900    0.008941847007998
   0.006485109575999    0.007324355248279   -0.006766303488000
  -0.004274178474001   -0.039424803692130   -0.027678591775999
  -0.001228011102000   -0.014553457445530    0.010248163504000
   0.015250151238000   -0.022500064528510    0.007022482816001
  -0.007823699177999    0.011972346620390    0.028655440528002
  -0.002408055708001    0.018250280281261   -0.004558077296000
  -0.002685140856000   -0.014863902375920   -0.005343451807999
   0.016227075426000    0.004817727371890    0.011262976976001
   0.004951459500001   -0.008319106950100    0.001483265104000
   0.030482413332000   -0.003632554691380    0.000432137551998
   0.017679831186000    0.026505119087010    0.025134625407999
   0.017059657812000   -0.015048449842080    0.016596194816000
   0.003136940033999   -0.005162477020390    0.008871199616003
  -0.006902064239999   -0.013679155312261    0.001315890208001
  -0.012685172352001   -0.002294585561719    0.007468815871999
  -0.004669902066000    0.004232759573251   -0.009835503504000
  -0.005624268240002   -0.006576120825981    0.013998087455999
  -0.002588323236001   -0.007924475006782   -0.011949643216003
  -0.002547188034001    0.004897573092951   -0.015161458527999
  -0.009164451203999    0.008187335973340    0.008052812304001
   0.003057028638000    0.006125052088350    0.000387240144001
  -0.006284593896000   -0.017290769654620   -0.011467986463998
   0.019593871302000   -0.006963687529590   -0.011675306848002
  -0.013492247963999    0.006499509792981   -0.015903916400001
  -0.002492488535999    0.020070217931860   -0.001606072720001
   0.005668401348000   -0.008596098396080   -0.024781388448002
  -0.001657694580000    0.006214857243699   -0.040704782400001
   0.012885737177999   -0.021848019514310   -0.034935135344000
  -0.001917971796000   -0.018049389128061   -0.006253614703999
   0.018595126290002   -0.001700679809231    0.005665986864003
  -0.038949482796001   -0.000706013230779    0.005667637504001
   0.004179228402000   -0.017523071331350    0.012212755231999
  -0.010160100017999   -0.008467987724230    0.012882254816001
  -0.014601522330000   -0.000100700946710   -0.020158275936002
  -0.001954782150000    0.005346854239809    0.014879199088000
   0.006746861172000    0.023547507596359   -0.002058017952002
   0.014024990604001   -0.008844658636479   -0.012685828655997
  -0.018814907202001    0.009002562487829    0.000630874607999
   0.005560820754001   -0.015132296361530    0.002032928224001
   0.012185603262000    0.028787446883450   -0.000842486655998
  -0.022457264700000   -0.023946565954920   -0.001211899887998
   0.008334817578000   -0.020759461858750    0.002256424880001
   0.000859170371999    0.022044739622380   -0.001915402656000
  -0.023935134066001   -0.001713448314730    0.010309237184003
   0.002888949317999   -0.000655364825630   -0.003573305471999
   0.010376194980001    0.017969543407000    0.005558695264000
  -0.034616918874000    0.008243943014390   -0.016668822975999
   0.002703226583999   -0.029361093273880   -0.000007262816002
   0.012902839985999    0.003952192945730    0.011482842224002
   0.033840903533999    0.027336433918430   -0.006837611136001
  -0.006145658154001    0.003141648216590    0.009658885024001
  -0.022297097886000   -0.019890011757570    0.000946146848001
  -0.005776620839999   -0.025149869913239    0.002601408640000
  -0.002171958324000    0.003862898530600    0.004449795311999
   0.005135118102001   -0.010294394750950    0.004001151360001
