 Ni\(1\1\1)                             
   1.00000000000000     
     9.8291997910000006    0.0000000000000000    0.0000000000000000
     4.9145998955000003    8.5123367178000002    0.0000000000000000
     0.0000000000000000    0.0000000000000000   19.0128002167000005
   Ni   O    C    H 
    64     2     2     2
Direct
  0.8318909029920998  0.5874726516532621  0.2713225082781259
  0.3311795942175698  0.0880069842146250  0.2704870287321565
  0.8319229271326803  0.0880947797681936  0.2715590563453105
  0.3314832128406768  0.5878232348256516  0.2705898472642070
  0.5816509147398020  0.8381797672207284  0.2701937611155120
  0.8317399274358119  0.8379147109212154  0.2702268661778207
  0.0814315836563616  0.3378392866852443  0.2713092371604353
  0.8322275266933793  0.3374415016533434  0.2718368485466963
  0.5814910085321936  0.5881308891292245  0.2706639385898413
  0.0813873651364685  0.5878632297972385  0.2707535771896055
  0.0810156158844981  0.0880698428272855  0.2712544769098552
  0.5816188919334206  0.0881543437439046  0.2708718647216735
  0.3314393545224577  0.8379687003739383  0.2700176291440798
  0.0814272652389034  0.8377742690218523  0.2703467208070316
  0.3312467723674343  0.3379973062026464  0.2701039145403594
  0.5814711919357827  0.3377218248935963  0.2711644815446096
  0.9153174934591219  0.6701993485605474  0.3762836719596039
  0.9156048696589634  0.4212251631194951  0.3782544260333383
  0.6654642746744135  0.6706022908192634  0.3757863475509718
  0.1641705529284894  0.1713732194321156  0.3763893566521768
  0.9157403739291754  0.1727326117044612  0.3789694497807978
  0.9153513134748360  0.9209399301163322  0.3758105828290896
  0.4152582482740897  0.9211179845412584  0.3750012597057926
  0.4146325350524117  0.1715724000062186  0.3752667455477745
  0.6660452520818069  0.1716622614226447  0.3766990816546212
  0.1652134070742313  0.6706590148095650  0.3757147538325631
  0.4154429672145225  0.6705589186581864  0.3758099997404298
  0.4148472342948447  0.4211871095107247  0.3758698756052041
  0.6656691571170538  0.9206907448533561  0.3755281402767200
  0.1641244702933753  0.4215433794793823  0.3764133919046277
  0.6648758846464503  0.4217315435795791  0.3756437425432165
  0.1650277635401442  0.9207689079260203  0.3754667931119361
  0.0050636483011026  0.2499980692833164  0.4875818535739336
  0.4965498634985138  0.2528513521567063  0.4808598020955316
 -0.0008764657960194  0.7535747832466031  0.4814458483289974
  0.4978306337319723  0.7569594583002656  0.4802419837302496
  0.7486671962126213  0.7547922441233297  0.4810448954442642
  0.9988349310096083  0.5044529177866086  0.4874490447449537
  0.7459557353064674  0.5071397356866513  0.4848628630843202
  0.2515050894471920  0.0008885265093642  0.4803752459897583
  0.0004871846200203  0.0008326469256349  0.4813633263021976
  0.4997387599584485  0.0036380467463723  0.4809140538972368
  0.2488112604487208  0.7538654918335971  0.4811208438683230
  0.7492378127349580  0.0029453739934778  0.4810090969800668
  0.2525912965657526  0.2523921341787109  0.4802999369460514
  0.7483772130693709  0.2521281270724543  0.4844899344342921
  0.2493811971194149  0.5046823105500328  0.4814342905890837
  0.4956949988418658  0.5054088351706707  0.4850995968599032
  0.9981262970859155  0.2543970834888621  0.1657773940517077
  0.4984389963460861  0.2543423251267475  0.1652788305046181
 -0.0010894741618630  0.7540101436803484  0.1648006510861821
  0.4985633542121614  0.7540334225740233  0.1649426728595288
  0.7489697783462472  0.7537425243686656  0.1651172762439710
 -0.0016826664573718  0.5042546808819406  0.1654262036439146
  0.7487748166933139  0.5040882356061226  0.1655861958936529
  0.2481836456425905  0.0043962874452586  0.1651671880742882
 -0.0016688779024952  0.0043271941457901  0.1654244538698817
  0.4985713079400238  0.0043174352239815  0.1650584937815097
  0.2484825453312974  0.7543423856282289  0.1646644768601145
  0.7484425318084471  0.0043958337335220  0.1653166597951604
  0.2480606581760747  0.2544065581908871  0.1652334366105729
  0.7485625496446414  0.2543831789577185  0.1659230431330579
  0.2484933647246484  0.5043568071640563  0.1649320999303826
  0.4985624091075068  0.5042365135750424  0.1653657681183745
  0.0027363167709805  0.5282050025201532  0.6273063685589290
  0.0310945139199620  0.2936664092952019  0.5871538766397563
  0.0134871450125135  0.4315253509792346  0.5843764539181937
  0.6607430532084210  0.4249389892834658  0.5519166187374196
  0.6245801581827212  0.4914556615131052  0.6016805098197172
  0.7338611723246989  0.2954755555827422  0.5724725032037152
 
  0.00000000E+00  0.00000000E+00  0.00000000E+00
  0.00000000E+00  0.00000000E+00  0.00000000E+00
  0.00000000E+00  0.00000000E+00  0.00000000E+00
  0.00000000E+00  0.00000000E+00  0.00000000E+00
  0.00000000E+00  0.00000000E+00  0.00000000E+00
  0.00000000E+00  0.00000000E+00  0.00000000E+00
  0.00000000E+00  0.00000000E+00  0.00000000E+00
  0.00000000E+00  0.00000000E+00  0.00000000E+00
  0.00000000E+00  0.00000000E+00  0.00000000E+00
  0.00000000E+00  0.00000000E+00  0.00000000E+00
  0.00000000E+00  0.00000000E+00  0.00000000E+00
  0.00000000E+00  0.00000000E+00  0.00000000E+00
  0.00000000E+00  0.00000000E+00  0.00000000E+00
  0.00000000E+00  0.00000000E+00  0.00000000E+00
  0.00000000E+00  0.00000000E+00  0.00000000E+00
  0.00000000E+00  0.00000000E+00  0.00000000E+00
  0.00000000E+00  0.00000000E+00  0.00000000E+00
  0.00000000E+00  0.00000000E+00  0.00000000E+00
  0.00000000E+00  0.00000000E+00  0.00000000E+00
  0.00000000E+00  0.00000000E+00  0.00000000E+00
  0.00000000E+00  0.00000000E+00  0.00000000E+00
  0.00000000E+00  0.00000000E+00  0.00000000E+00
  0.00000000E+00  0.00000000E+00  0.00000000E+00
  0.00000000E+00  0.00000000E+00  0.00000000E+00
  0.00000000E+00  0.00000000E+00  0.00000000E+00
  0.00000000E+00  0.00000000E+00  0.00000000E+00
  0.00000000E+00  0.00000000E+00  0.00000000E+00
  0.00000000E+00  0.00000000E+00  0.00000000E+00
  0.00000000E+00  0.00000000E+00  0.00000000E+00
  0.00000000E+00  0.00000000E+00  0.00000000E+00
  0.00000000E+00  0.00000000E+00  0.00000000E+00
  0.00000000E+00  0.00000000E+00  0.00000000E+00
  0.00000000E+00  0.00000000E+00  0.00000000E+00
  0.00000000E+00  0.00000000E+00  0.00000000E+00
  0.00000000E+00  0.00000000E+00  0.00000000E+00
  0.00000000E+00  0.00000000E+00  0.00000000E+00
  0.00000000E+00  0.00000000E+00  0.00000000E+00
  0.00000000E+00  0.00000000E+00  0.00000000E+00
  0.00000000E+00  0.00000000E+00  0.00000000E+00
  0.00000000E+00  0.00000000E+00  0.00000000E+00
  0.00000000E+00  0.00000000E+00  0.00000000E+00
  0.00000000E+00  0.00000000E+00  0.00000000E+00
  0.00000000E+00  0.00000000E+00  0.00000000E+00
  0.00000000E+00  0.00000000E+00  0.00000000E+00
  0.00000000E+00  0.00000000E+00  0.00000000E+00
  0.00000000E+00  0.00000000E+00  0.00000000E+00
  0.00000000E+00  0.00000000E+00  0.00000000E+00
  0.00000000E+00  0.00000000E+00  0.00000000E+00
  0.00000000E+00  0.00000000E+00  0.00000000E+00
  0.00000000E+00  0.00000000E+00  0.00000000E+00
  0.00000000E+00  0.00000000E+00  0.00000000E+00
  0.00000000E+00  0.00000000E+00  0.00000000E+00
  0.00000000E+00  0.00000000E+00  0.00000000E+00
  0.00000000E+00  0.00000000E+00  0.00000000E+00
  0.00000000E+00  0.00000000E+00  0.00000000E+00
  0.00000000E+00  0.00000000E+00  0.00000000E+00
  0.00000000E+00  0.00000000E+00  0.00000000E+00
  0.00000000E+00  0.00000000E+00  0.00000000E+00
  0.00000000E+00  0.00000000E+00  0.00000000E+00
  0.00000000E+00  0.00000000E+00  0.00000000E+00
  0.00000000E+00  0.00000000E+00  0.00000000E+00
  0.00000000E+00  0.00000000E+00  0.00000000E+00
  0.00000000E+00  0.00000000E+00  0.00000000E+00
  0.00000000E+00  0.00000000E+00  0.00000000E+00
  0.00000000E+00  0.00000000E+00  0.00000000E+00
  0.00000000E+00  0.00000000E+00  0.00000000E+00
  0.00000000E+00  0.00000000E+00  0.00000000E+00
  0.00000000E+00  0.00000000E+00  0.00000000E+00
  0.00000000E+00  0.00000000E+00  0.00000000E+00
  0.00000000E+00  0.00000000E+00  0.00000000E+00
