 Ni\(1\1\1)                             
   1.00000000000000     
     9.8291997910000006    0.0000000000000000    0.0000000000000000
     4.9145998955000003    8.5123367178000002    0.0000000000000000
     0.0000000000000000    0.0000000000000000   19.0128002167000005
   Ni   O    C    H 
    64     2     2     3
Direct
  0.8270256955146894  0.5829861954324301  0.2718613130541164
  0.3268117880082006  0.0827636634918162  0.2708545657081653
  0.8266128603175178  0.0826702793814867  0.2705312913916221
  0.3267915394014233  0.5828916142798899  0.2705189825067518
  0.5769870010838933  0.8328528057694157  0.2710450290753703
  0.8271404414508917  0.8321982318128989  0.2712299582056231
  0.0767989129428585  0.3325189558900873  0.2714588445623899
  0.8271118353792682  0.3329420376842371  0.2709177256296040
  0.5774828189125327  0.5828825308831416  0.2709269833900735
  0.0765125094922456  0.5827748558287814  0.2713938274926325
  0.0770412834532136  0.0830051340526767  0.2707247459862414
  0.5768730716148665  0.0825809075982128  0.2713052433852434
  0.3270753325284782  0.8327937781145579  0.2705943593298780
  0.0767295265344736  0.8328396759492049  0.2704925226664733
  0.3265051610395182  0.3328470023587178  0.2707940948834270
  0.5770172955499100  0.3326394557713003  0.2707695494445081
  0.9111559410895427  0.6632552500391182  0.3786942959250926
  0.9101847378321312  0.4158117173863184  0.3776667893906034
  0.6606546926046446  0.6641735926025587  0.3775589862436884
  0.1572307590732917  0.1667671160031131  0.3773905142784679
  0.9099590241719184  0.1658617353451799  0.3756118005742951
  0.9099615797996495  0.9155162132254036  0.3757707107889883
  0.4097746174468916  0.9159712665570140  0.3760770101151125
  0.4096404741118342  0.1659157913122357  0.3758522427136581
  0.6612607916416521  0.1661464631645782  0.3767099406953665
  0.1597878927486375  0.6659633350517650  0.3757316313991492
  0.4101131046314966  0.6659653685318182  0.3756504243682081
  0.4100444415362114  0.4155196216134183  0.3754288900115602
  0.6605038067725250  0.9149839483876993  0.3762969157094069
  0.1585968507007776  0.4161113726963990  0.3771177007784782
  0.6603476145645227  0.4156042963491909  0.3758847580924222
  0.1599211227057452  0.9160870702208811  0.3755498074314391
 -0.0078351429186356  0.2464901768894321  0.4842976392937595
  0.4941805654496508  0.2484962028206391  0.4814816105769454
  0.9940992727558907  0.7503511913899281  0.4819105018035905
  0.4914184350606821  0.7507031149343397  0.4820418923091879
  0.7417857389789537  0.7512897774121501  0.4821297217390290
  0.9966774726532598  0.5004052725842383  0.4886558782440827
  0.7383632437988493  0.5019785929255547  0.4832193888068951
  0.2441926449131865 -0.0022092410277605  0.4816424230774491
 -0.0050431004592465  0.9959996333681830  0.4808643086839737
  0.4935450560220677 -0.0011704413135513  0.4819240023264846
  0.2436486523946304  0.7493935862330411  0.4816814897312957
  0.7435678139355746 -0.0020388641890969  0.4817901171661224
  0.2480036663749727  0.2462518781998694  0.4804809721597311
  0.7433358332872790  0.2462664799562254  0.4827096594309435
  0.2456524760263880  0.4996439023301690  0.4808423829447108
  0.4901583098532214  0.4999788724333719  0.4805137513328167
  0.9946901590174304  0.2495287510441558  0.1652388471603094
  0.4946527368112653  0.2493406758640321  0.1652884602115137
  0.9944952794556616  0.7491529694722178  0.1653814530756786
  0.4947402805797684  0.7491333441949891  0.1653026117178864
  0.7445780294218461  0.7492307732640189  0.1656667977714721
  0.9944283979823708  0.4995097717181311  0.1658203131377379
  0.7449113546972991  0.4994266289639528  0.1654818898093700
  0.2445560156340034 -0.0006027759319957  0.1650795409814944
 -0.0053603231931364 -0.0005261816644272  0.1650063296501959
  0.4946918147218662 -0.0004974629488942  0.1650933913923521
  0.2445227091107768  0.7495070059947707  0.1648329104232676
  0.7445691336721406 -0.0005341588564669  0.1652628214510647
  0.2443114412355142  0.2494991147309570  0.1653833313724063
  0.7446203716802400  0.2496054199828777  0.1652049849519822
  0.2446301286741871  0.4993530025027897  0.1652280432706536
  0.4947303405075243  0.4995887677740465  0.1651851093667842
  0.0317463707424361  0.4220120036731735  0.5890287821368456
  0.0603587419091941  0.2038939603398233  0.6437750425845791
  0.9825457371918965  0.3248471545665160  0.5985647110748041
  0.8342689385585236  0.3475808600155247  0.5703562463316980
  0.1623305795589295  0.1957562058859838  0.6532133096006100
  0.7921921429722849  0.2755967620703537  0.5967898712360385
  0.7427230462758064  0.4768283686111977  0.5778090444361916
 
  0.00000000E+00  0.00000000E+00  0.00000000E+00
  0.00000000E+00  0.00000000E+00  0.00000000E+00
  0.00000000E+00  0.00000000E+00  0.00000000E+00
  0.00000000E+00  0.00000000E+00  0.00000000E+00
  0.00000000E+00  0.00000000E+00  0.00000000E+00
  0.00000000E+00  0.00000000E+00  0.00000000E+00
  0.00000000E+00  0.00000000E+00  0.00000000E+00
  0.00000000E+00  0.00000000E+00  0.00000000E+00
  0.00000000E+00  0.00000000E+00  0.00000000E+00
  0.00000000E+00  0.00000000E+00  0.00000000E+00
  0.00000000E+00  0.00000000E+00  0.00000000E+00
  0.00000000E+00  0.00000000E+00  0.00000000E+00
  0.00000000E+00  0.00000000E+00  0.00000000E+00
  0.00000000E+00  0.00000000E+00  0.00000000E+00
  0.00000000E+00  0.00000000E+00  0.00000000E+00
  0.00000000E+00  0.00000000E+00  0.00000000E+00
  0.00000000E+00  0.00000000E+00  0.00000000E+00
  0.00000000E+00  0.00000000E+00  0.00000000E+00
  0.00000000E+00  0.00000000E+00  0.00000000E+00
  0.00000000E+00  0.00000000E+00  0.00000000E+00
  0.00000000E+00  0.00000000E+00  0.00000000E+00
  0.00000000E+00  0.00000000E+00  0.00000000E+00
  0.00000000E+00  0.00000000E+00  0.00000000E+00
  0.00000000E+00  0.00000000E+00  0.00000000E+00
  0.00000000E+00  0.00000000E+00  0.00000000E+00
  0.00000000E+00  0.00000000E+00  0.00000000E+00
  0.00000000E+00  0.00000000E+00  0.00000000E+00
  0.00000000E+00  0.00000000E+00  0.00000000E+00
  0.00000000E+00  0.00000000E+00  0.00000000E+00
  0.00000000E+00  0.00000000E+00  0.00000000E+00
  0.00000000E+00  0.00000000E+00  0.00000000E+00
  0.00000000E+00  0.00000000E+00  0.00000000E+00
  0.00000000E+00  0.00000000E+00  0.00000000E+00
  0.00000000E+00  0.00000000E+00  0.00000000E+00
  0.00000000E+00  0.00000000E+00  0.00000000E+00
  0.00000000E+00  0.00000000E+00  0.00000000E+00
  0.00000000E+00  0.00000000E+00  0.00000000E+00
  0.00000000E+00  0.00000000E+00  0.00000000E+00
  0.00000000E+00  0.00000000E+00  0.00000000E+00
  0.00000000E+00  0.00000000E+00  0.00000000E+00
  0.00000000E+00  0.00000000E+00  0.00000000E+00
  0.00000000E+00  0.00000000E+00  0.00000000E+00
  0.00000000E+00  0.00000000E+00  0.00000000E+00
  0.00000000E+00  0.00000000E+00  0.00000000E+00
  0.00000000E+00  0.00000000E+00  0.00000000E+00
  0.00000000E+00  0.00000000E+00  0.00000000E+00
  0.00000000E+00  0.00000000E+00  0.00000000E+00
  0.00000000E+00  0.00000000E+00  0.00000000E+00
  0.00000000E+00  0.00000000E+00  0.00000000E+00
  0.00000000E+00  0.00000000E+00  0.00000000E+00
  0.00000000E+00  0.00000000E+00  0.00000000E+00
  0.00000000E+00  0.00000000E+00  0.00000000E+00
  0.00000000E+00  0.00000000E+00  0.00000000E+00
  0.00000000E+00  0.00000000E+00  0.00000000E+00
  0.00000000E+00  0.00000000E+00  0.00000000E+00
  0.00000000E+00  0.00000000E+00  0.00000000E+00
  0.00000000E+00  0.00000000E+00  0.00000000E+00
  0.00000000E+00  0.00000000E+00  0.00000000E+00
  0.00000000E+00  0.00000000E+00  0.00000000E+00
  0.00000000E+00  0.00000000E+00  0.00000000E+00
  0.00000000E+00  0.00000000E+00  0.00000000E+00
  0.00000000E+00  0.00000000E+00  0.00000000E+00
  0.00000000E+00  0.00000000E+00  0.00000000E+00
  0.00000000E+00  0.00000000E+00  0.00000000E+00
  0.00000000E+00  0.00000000E+00  0.00000000E+00
  0.00000000E+00  0.00000000E+00  0.00000000E+00
  0.00000000E+00  0.00000000E+00  0.00000000E+00
  0.00000000E+00  0.00000000E+00  0.00000000E+00
  0.00000000E+00  0.00000000E+00  0.00000000E+00
  0.00000000E+00  0.00000000E+00  0.00000000E+00
  0.00000000E+00  0.00000000E+00  0.00000000E+00
