Ni_Pol_CO2COH
   1.00000000000000     
     9.8291997910000006    0.0000000000000000    0.0000000000000000
     4.9145998955000003    8.5123367178000002    0.0000000000000000
     0.0000000000000000    0.0000000000000000   19.0128002167000005
   Ni   O    C    O    C    O    H 
    64     3     1     2     1     1     1
Selective dynamics
Direct
  0.8340541062310390  0.5819696003394599  0.2714733962008385   T   T   T
  0.3336150172174125  0.0822012564030487  0.2703397404915013   T   T   T
  0.8348591250534215  0.0827783739708441  0.2712160963726832   T   T   T
  0.3334669079124161  0.5824719920730927  0.2706471126338131   T   T   T
  0.5844128191629919  0.8327068046267040  0.2705920978591562   T   T   T
  0.8344725706719875  0.8322655671266517  0.2706760777129755   T   T   T
  0.0839610891306692  0.3317922505356327  0.2711323345421693   T   T   T
  0.8348064137315639  0.3316447324871086  0.2718304952819267   T   T   T
  0.5840465091930006  0.5819605151603348  0.2713361303825431   T   T   T
  0.0836428150835045  0.5818877124496158  0.2711280577615128   T   T   T
  0.0833333669231734  0.0830251732884053  0.2712062940097099   T   T   T
  0.5848045260607849  0.0819991528621815  0.2712491896318652   T   T   T
  0.3339826667910861  0.8325300797182835  0.2703414773284146   T   T   T
  0.0837990510566450  0.8321027445894995  0.2707575741348768   T   T   T
  0.3334453151245671  0.3320425186941324  0.2707589810010468   T   T   T
  0.5837106052009503  0.3317252629333447  0.2713436363961292   T   T   T
  0.9177948955829501  0.6642459405748362  0.3757776591235426   T   T   T
  0.9183746886545198  0.4149026440200649  0.3770817339084204   T   T   T
  0.6675414019375453  0.6645693188470934  0.3751966788112286   T   T   T
  0.1671474343817295  0.1653060378721029  0.3769884290532278   T   T   T
  0.9183619116734750  0.1664874973438930  0.3790883279391969   T   T   T
  0.9180567777384077  0.9159398086479945  0.3759438392804866   T   T   T
  0.4172226591247594  0.9156530312131900  0.3753042811959185   T   T   T
  0.4178779881488566  0.1645736639625564  0.3751424566916700   T   T   T
  0.6692869882682899  0.1654602149914989  0.3768429056296541   T   T   T
  0.1678676537582398  0.6649874781274440  0.3758957681983322   T   T   T
  0.4162611468934823  0.6659546723447497  0.3757139317488843   T   T   T
  0.4166049586824094  0.4154113138185275  0.3758996467501727   T   T   T
  0.6681355290094541  0.9159666832348312  0.3772613382000414   T   T   T
  0.1679529357890376  0.4147439384548484  0.3779965447599235   T   T   T
  0.6671210464051013  0.4140575822576534  0.3769581946788479   T   T   T
  0.1673795534145971  0.9154467980864317  0.3781414934174419   T   T   T
  0.0030330722682580  0.2514687558005698  0.4859301626780548   T   T   T
  0.5006416014305530  0.2478609471367590  0.4786908762076945   T   T   T
  0.9979577672442856  0.7457590425373165  0.4798630046610133   T   T   T
  0.5043203921108258  0.7489267936622616  0.4789217032206046   T   T   T
  0.7511703387774984  0.7480978422959568  0.4801254998293107   T   T   T
 -0.0004725411279762  0.4991292613959074  0.4856848526364622   T   T   T
  0.7498306276561781  0.5027071868503946  0.4828944877089921   T   T   T
  0.2519078004213833 -0.0051830715923034  0.4848543553943246   T   T   T
  0.0048961448218963  0.9959600849150001  0.4853738686302908   T   T   T
  0.5069237980845647  0.9953193179940621  0.4849956114680325   T   T   T
  0.2472457057838209  0.7534433730945373  0.4852776962446385   T   T   T
  0.7502405069787974  0.9956795670286586  0.4854275065074603   T   T   T
  0.2546931130749948  0.2499238418919036  0.4841275781501940   T   T   T
  0.7475262981207667  0.2539274488339699  0.4934371362164595   T   T   T
  0.2467367813344642  0.4979454326260269  0.4852372649203673   T   T   T
  0.4980337494426638  0.5010776380650928  0.4862927298423610   T   T   T
  0.9970724670000024  0.2558556729999992  0.1637003960000030   F   F   F
  0.4999617989999976  0.2500875830000027  0.1643123180000003   F   F   F
  0.9968841629999972  0.7476992069999966  0.1643590660000029   F   F   F
  0.5054474789999972  0.7476858750000019  0.1651548480000002   F   F   F
  0.7507219769999978  0.7486395119999969  0.1651830500000031   F   F   F
  0.9979410790000003  0.5014025589999989  0.1651978470000017   F   F   F
  0.7507272960000009  0.5014379059999996  0.1654730480000026   F   F   F
  0.2484077359999972  0.9989653640000000  0.1655050250000016   F   F   F
  0.0026835399999996  0.9989392600000002  0.1655775309999967   F   F   F
  0.5037179199999997  0.9979203070000011  0.1655856309999990   F   F   F
  0.2483221529999966  0.7533767729999994  0.1658259459999982   F   F   F
  0.7484137009999969  0.9978805350000002  0.1658943890000018   F   F   F
  0.2473094730000014  0.2543786680000011  0.1660089160000027   F   F   F
  0.7483561820000020  0.2543461500000035  0.1660180820000008   F   F   F
  0.2472921950000000  0.4989472700000022  0.1662971330000005   F   F   F
  0.5037960519999984  0.4989156760000029  0.1664085250000014   F   F   F
  0.3380368548061724  0.0790236501360079  0.5441568122231677   T   T   T
  0.8397547876073659  0.0717383915348943  0.5464706908233914   T   T   T
  0.3239286454740271  0.5873855243912893  0.5467683256823980   T   T   T
  0.0009317983093984  0.4348555046040912  0.5862605374038384   T   T   T
 -0.0040755345076606  0.5356073702784663  0.6247184365904981   T   T   T
  0.0083513954460632  0.3035464957373114  0.5890014128107416   T   T   T
  0.6602033515430373  0.4360397586225518  0.5494991861338805   T   T   T
  0.6476690423360255  0.4496666755441907  0.6183459055952639   T   T   T
  0.5367694256930444  0.4948942417622612  0.6325838027529389   T   T   T
 
  0.00000000E+00  0.00000000E+00  0.00000000E+00
  0.00000000E+00  0.00000000E+00  0.00000000E+00
  0.00000000E+00  0.00000000E+00  0.00000000E+00
  0.00000000E+00  0.00000000E+00  0.00000000E+00
  0.00000000E+00  0.00000000E+00  0.00000000E+00
  0.00000000E+00  0.00000000E+00  0.00000000E+00
  0.00000000E+00  0.00000000E+00  0.00000000E+00
  0.00000000E+00  0.00000000E+00  0.00000000E+00
  0.00000000E+00  0.00000000E+00  0.00000000E+00
  0.00000000E+00  0.00000000E+00  0.00000000E+00
  0.00000000E+00  0.00000000E+00  0.00000000E+00
  0.00000000E+00  0.00000000E+00  0.00000000E+00
  0.00000000E+00  0.00000000E+00  0.00000000E+00
  0.00000000E+00  0.00000000E+00  0.00000000E+00
  0.00000000E+00  0.00000000E+00  0.00000000E+00
  0.00000000E+00  0.00000000E+00  0.00000000E+00
  0.00000000E+00  0.00000000E+00  0.00000000E+00
  0.00000000E+00  0.00000000E+00  0.00000000E+00
  0.00000000E+00  0.00000000E+00  0.00000000E+00
  0.00000000E+00  0.00000000E+00  0.00000000E+00
  0.00000000E+00  0.00000000E+00  0.00000000E+00
  0.00000000E+00  0.00000000E+00  0.00000000E+00
  0.00000000E+00  0.00000000E+00  0.00000000E+00
  0.00000000E+00  0.00000000E+00  0.00000000E+00
  0.00000000E+00  0.00000000E+00  0.00000000E+00
  0.00000000E+00  0.00000000E+00  0.00000000E+00
  0.00000000E+00  0.00000000E+00  0.00000000E+00
  0.00000000E+00  0.00000000E+00  0.00000000E+00
  0.00000000E+00  0.00000000E+00  0.00000000E+00
  0.00000000E+00  0.00000000E+00  0.00000000E+00
  0.00000000E+00  0.00000000E+00  0.00000000E+00
  0.00000000E+00  0.00000000E+00  0.00000000E+00
  0.00000000E+00  0.00000000E+00  0.00000000E+00
  0.00000000E+00  0.00000000E+00  0.00000000E+00
  0.00000000E+00  0.00000000E+00  0.00000000E+00
  0.00000000E+00  0.00000000E+00  0.00000000E+00
  0.00000000E+00  0.00000000E+00  0.00000000E+00
  0.00000000E+00  0.00000000E+00  0.00000000E+00
  0.00000000E+00  0.00000000E+00  0.00000000E+00
  0.00000000E+00  0.00000000E+00  0.00000000E+00
  0.00000000E+00  0.00000000E+00  0.00000000E+00
  0.00000000E+00  0.00000000E+00  0.00000000E+00
  0.00000000E+00  0.00000000E+00  0.00000000E+00
  0.00000000E+00  0.00000000E+00  0.00000000E+00
  0.00000000E+00  0.00000000E+00  0.00000000E+00
  0.00000000E+00  0.00000000E+00  0.00000000E+00
  0.00000000E+00  0.00000000E+00  0.00000000E+00
  0.00000000E+00  0.00000000E+00  0.00000000E+00
  0.00000000E+00  0.00000000E+00  0.00000000E+00
  0.00000000E+00  0.00000000E+00  0.00000000E+00
  0.00000000E+00  0.00000000E+00  0.00000000E+00
  0.00000000E+00  0.00000000E+00  0.00000000E+00
  0.00000000E+00  0.00000000E+00  0.00000000E+00
  0.00000000E+00  0.00000000E+00  0.00000000E+00
  0.00000000E+00  0.00000000E+00  0.00000000E+00
  0.00000000E+00  0.00000000E+00  0.00000000E+00
  0.00000000E+00  0.00000000E+00  0.00000000E+00
  0.00000000E+00  0.00000000E+00  0.00000000E+00
  0.00000000E+00  0.00000000E+00  0.00000000E+00
  0.00000000E+00  0.00000000E+00  0.00000000E+00
  0.00000000E+00  0.00000000E+00  0.00000000E+00
  0.00000000E+00  0.00000000E+00  0.00000000E+00
  0.00000000E+00  0.00000000E+00  0.00000000E+00
  0.00000000E+00  0.00000000E+00  0.00000000E+00
  0.00000000E+00  0.00000000E+00  0.00000000E+00
  0.00000000E+00  0.00000000E+00  0.00000000E+00
  0.00000000E+00  0.00000000E+00  0.00000000E+00
  0.00000000E+00  0.00000000E+00  0.00000000E+00
  0.00000000E+00  0.00000000E+00  0.00000000E+00
  0.00000000E+00  0.00000000E+00  0.00000000E+00
  0.00000000E+00  0.00000000E+00  0.00000000E+00
  0.00000000E+00  0.00000000E+00  0.00000000E+00
  0.00000000E+00  0.00000000E+00  0.00000000E+00
