 Ni_Pol_CO_CHO(LH)
   1.000
    9.8292000000000002    0.0000000000000000    0.0000000000000000
    4.9146000000000001    8.5123370000000005    0.0000000000000000
    0.0000000000000000    0.0000000000000000   33.0127999999999986
   Ni   O    O    H    C    O    H 
   64    3   30   60    1    1    1
Selective Dynamics
Direct
    0.8295101900000000    0.5879196000000000    0.1230106800000000    T  T  T
    0.3306442400000000    0.0811638500000000    0.1222740000000000    T  T  T
    0.8185927500000000    0.0928443800000000    0.1196531200000000    T  T  T
    0.3291822100000000    0.5781965300000000    0.1209034600000000    T  T  T
    0.5845612900000000    0.8314515500000000    0.1218244700000000    T  T  T
    0.8275586300000000    0.8416986500000000    0.1204761900000000    T  T  T
    0.0845776100000000    0.3369036200000000    0.1244170900000000    T  T  T
    0.8284558200000000    0.3389883500000000    0.1263827100000000    T  T  T
    0.5848815300000000    0.5813148500000000    0.1238821500000000    T  T  T
    0.0735615000000000    0.5884037700000000    0.1207727500000000    T  T  T
    0.0846379100000000    0.0863142300000000    0.1220282000000000    T  T  T
    0.5813110200000000    0.0878564500000000    0.1214716900000000    T  T  T
    0.3217423000000000    0.8355315200000000    0.1217378000000000    T  T  T
    0.0808033400000000    0.8348126200000000    0.1201865000000000    T  T  T
    0.3251461400000000    0.3352577100000000    0.1228196800000000    T  T  T
    0.5779588800000000    0.3392087100000000    0.1219882000000000    T  T  T
    0.9116048100000000    0.6693484600000000    0.1839257700000000    T  T  T
    0.9175268300000000    0.4131000000000000    0.1840701500000000    T  T  T
    0.6749252600000000    0.6617840699999999    0.1849634400000000    T  T  T
    0.1677071200000000    0.1689020400000000    0.1852861700000000    T  T  T
    0.9169381400000000    0.1621846400000000    0.1822685100000000    T  T  T
    0.9094549900000000    0.9185178899999999    0.1827505500000000    T  T  T
    0.3992621800000000    0.9212929700000000    0.1806292100000000    T  T  T
    0.4182263600000000    0.1599478800000000    0.1837959600000000    T  T  T
    0.6592922900000000    0.1761452600000000    0.1811645600000000    T  T  T
    0.1574903900000000    0.6694798600000000    0.1827247400000000    T  T  T
    0.4169481500000000    0.6600029200000000    0.1843474100000000    T  T  T
    0.3984598800000000    0.4221613000000000    0.1835677600000000    T  T  T
    0.6514960500000000    0.9250582200000000    0.1809871000000000    T  T  T
    0.1717927100000000    0.4009482200000000    0.1864699900000000    T  T  T
    0.6595167199999999    0.4202502100000000    0.1840228800000000    T  T  T
    0.1627679500000000    0.9156233700000000    0.1843087700000000    T  T  T
    0.0000859300000000    0.2453192000000000    0.2447197200000000    T  T  T
    0.5028585700000000    0.2512203400000000    0.2466154900000000    T  T  T
    0.0096615700000000    0.7299449099999999    0.2489986100000000    T  T  T
    0.5119990900000000    0.7371043500000000    0.2415618100000000    T  T  T
    0.7565737800000000    0.7390033900000000    0.2465253100000000    T  T  T
    0.0020496000000000    0.4987334100000000    0.2439123100000000    T  T  T
    0.7567718000000000    0.4968262200000000    0.2529671700000000    T  T  T
    0.2532426800000000    0.9884526700000000    0.2467259200000000    T  T  T
   -0.0035537100000000    0.9934407500000000    0.2440727500000000    T  T  T
    0.5045760300000000    0.9883604300000000    0.2419686600000000    T  T  T
    0.2511046900000000    0.7490829600000000    0.2458929500000000    T  T  T
    0.7508927500000000    0.9969891300000000    0.2436852800000000    T  T  T
    0.2595959200000000    0.2388129600000000    0.2505133400000000    T  T  T
    0.7507742400000000    0.2509827800000000    0.2455545700000000    T  T  T
    0.2559415900000000    0.4990561900000000    0.2489885500000000    T  T  T
    0.5203000600000000    0.4888763000000000    0.2458375100000000    T  T  T
    0.9970724700000000    0.2558556700000000    0.0591330300000000    F  F  F
    0.4999618000000000    0.2500875800000000    0.0594854500000000    F  F  F
    0.9968841600000000    0.7476992099999999    0.0595123700000000    F  F  F
    0.5054474799999999    0.7476858800000000    0.0599706800000000    F  F  F
    0.7507219800000000    0.7486395100000000    0.0599869200000000    F  F  F
    0.9979410800000000    0.5014025600000001    0.0599954500000000    F  F  F
    0.7507273000000000    0.5014379100000000    0.0601539400000000    F  F  F
    0.2484077400000000    0.9989653600000000    0.0601723600000000    F  F  F
    0.0026835400000000    0.9989392600000000    0.0602141100000000    F  F  F
    0.5037179200000000    0.9979203100000000    0.0602187800000000    F  F  F
    0.2483221500000000    0.7533767700000000    0.0603571800000000    F  F  F
    0.7484137000000000    0.9978805400000000    0.0603966000000000    F  F  F
    0.2473094700000000    0.2543786700000000    0.0604625600000000    F  F  F
    0.7483561800000000    0.2543461500000000    0.0604678400000000    F  F  F
    0.2472922000000000    0.4989472700000000    0.0606285500000000    F  F  F
    0.5037960500000001    0.4989156800000000    0.0606927000000000    F  F  F
    0.3583101000000000    0.0415902900000000    0.2834823700000000    T  T  T
    0.8335920600000000    0.0811292900000000    0.2825417900000000    T  T  T
    0.3438636300000000    0.5956268700000000    0.2817506900000000    T  T  T
    0.9849608900000000    0.4400620200000000    0.5758854900000000    T  T  T
    0.6811173200000000    0.1783525600000000    0.5424989099999999    T  T  T
    0.2318737800000000    0.2758446200000000    0.3969798300000000    T  T  T
    1.0609205200000000    0.3225317800000000    0.4785835000000000    T  T  T
    0.9351883700000000    0.1773011000000000    0.3441884300000000    T  T  T
    0.3737703300000000    0.3516522500000000    0.5458962900000000    T  T  T
    0.9792892100000000    0.7502814000000000    0.3067693000000000    T  T  T
    0.7774381000000000    0.1695543500000000    0.4045568000000000    T  T  T
    0.2389950300000000    0.0467929600000000    0.3610667200000000    T  T  T
    0.9347486100000000    0.7162017700000000    0.6123744300000000    T  T  T
    0.1312037400000000    0.7012463500000000    0.4077464000000000    T  T  T
    0.6395987900000000    1.0222061099999999    0.6203771100000000    T  T  T
    0.5228839300000000   -0.1472438300000000    0.5451304700000000    T  T  T
    0.6724575900000000    0.9230483000000000    0.3442060000000000    T  T  T
    0.7753648300000000    0.3582640600000000    0.5810145200000000    T  T  T
    0.3544840700000000    0.8086987300000000    0.4113948300000000    T  T  T
    0.3960059000000000    0.4914333200000000    0.4811032800000000    T  T  T
    0.4944302900000000    0.6015078200000000    0.3514328600000000    T  T  T
    0.7969496900000000    0.8462298700000001    0.5474033800000000    T  T  T
    0.4461569100000000    0.3926408200000000    0.3989387200000000    T  T  T
    0.5882504300000000    0.3055779700000000    0.6380817300000000    T  T  T
    0.3020065800000000    0.5716671900000000    0.6406792300000000    T  T  T
    0.5381209700000000    0.6982009300000001    0.4758625100000000    T  T  T
    0.7820130500000000    0.3158338800000000    0.4761501200000000    T  T  T
    0.7833459400000000    0.4754597200000000    0.3152352000000000    T  T  T
    0.5005795400000000    0.6235791200000000    0.5970555100000000    T  T  T
    0.8206250300000000    0.8544040300000000    0.4130010900000000    T  T  T
    0.2717212300000000    0.1355463400000000    0.5443836000000000    T  T  T
    0.8520532600000000    0.6500736800000000    0.4853714700000000    T  T  T
    0.9803243699999999    0.5386550100000000    0.3528982800000000    T  T  T
    0.9141648700000000    0.3959124700000000    0.5817833700000000    T  T  T
    0.9495767899999999    0.4837979100000000    0.5492108700000000    T  T  T
    0.5873810600000000    0.2141403800000000    0.5588167800000000    T  T  T
    0.7263852000000000    0.0643286200000000    0.5452272400000000    T  T  T
    0.2168449200000000    0.2674786100000000    0.4264432500000000    T  T  T
    0.3278102600000000    0.2892061400000000    0.3957218400000000    T  T  T
    0.9642733400000000    0.3116043000000000    0.4763210700000000    T  T  T
    1.1245014499999999    0.2554864700000000    0.5021749700000000    T  T  T
    0.9290754300000000    0.1014253100000000    0.3224604300000000    T  T  T
    0.0521937700000000    0.1351194200000000    0.3482465500000000    T  T  T
    0.2986532200000000    0.4317617100000000    0.5638410200000000    T  T  T
    0.3309965700000000    0.2755638000000000    0.5427504200000000    T  T  T
    0.9958716600000000    0.6523469500000000    0.3214169900000000    T  T  T
    0.8765143200000000    0.8299261999999999    0.3155072300000000    T  T  T
    0.8546318899999999    0.1602811300000000    0.3827978600000000    T  T  T
    0.7936922700000000    0.0612416400000000    0.4117104300000000    T  T  T
    0.2610939400000000    0.1350340500000000    0.3726881500000000    T  T  T
    0.2860668300000000    0.0133167800000000    0.3342503200000000    T  T  T
    1.0386157499999999    0.6903107300000000    0.6236811700000000    T  T  T
    0.9477968100000000    0.6143474200000000    0.5999568600000000    T  T  T
    0.1878076600000000    0.5911571900000000    0.3956865000000000    T  T  T
    0.2019282100000000    0.7483090900000000    0.4064530800000000    T  T  T
    0.5666511200000000    0.9956860600000000    0.6080277700000000    T  T  T
    0.7269711700000000    0.9223375800000000    0.6276399400000000    T  T  T
    0.6270100400000000   -0.1555961400000000    0.5486089000000000    T  T  T
    0.5319184300000001    0.7959706500000000    0.5184919700000000    T  T  T
    0.6114908600000000    0.0361812600000000    0.3523853900000000    T  T  T
    0.7206614700000000    0.8786152000000000    0.3724163900000000    T  T  T
    0.7716740100000000    0.2708257800000000    0.5659757000000000    T  T  T
    0.6678137000000000    0.4510218700000000    0.5828076400000000    T  T  T
    0.3034641200000000    0.9058881200000000    0.3938961800000000    T  T  T
    0.4197759800000000    0.7201975900000001    0.3911841600000000    T  T  T
    0.3913243400000000    0.4288347500000000    0.5030380400000000    T  T  T
    0.2899797300000000    0.5895923400000000    0.4802653100000000    T  T  T
    0.4738603800000000    0.5275291500000000    0.3667661000000000    T  T  T
    0.4244419100000000    0.6155785600000000    0.3279998400000000    T  T  T
    0.8595813000000000    0.8119757600000000    0.5716103500000000    T  T  T
    0.8301512300000000    0.7744944800000000    0.5239008000000001    T  T  T
    0.4513806300000000    0.4262904900000000    0.4279215000000000    T  T  T
    0.5559093300000000    0.3010991600000000    0.3973020700000000    T  T  T
    0.6421822200000000    0.3490622200000000    0.6245758400000000    T  T  T
    0.6270830600000000    0.1979370200000000    0.6272944499999999    T  T  T
    0.3993330000000000    0.4627292300000000    0.6415763300000000    T  T  T
    0.3034528500000000    0.6241145299999999    0.6636002800000000    T  T  T
    0.5482227500000000    0.5951626800000001    0.4782775600000000    T  T  T
    0.4761434600000000    0.7452515300000000    0.4516900700000000    T  T  T
    0.7809232500000000    0.2564165100000000    0.4497010200000000    T  T  T
    0.7226051000000000    0.2815786300000000    0.4954824100000000    T  T  T
    0.6684064000000000    0.5359515100000000    0.3228344400000000    T  T  T
    0.8373413199999999    0.3554001100000000    0.3230865900000000    T  T  T
    0.4928677700000000    0.7078791700000000    0.5801601600000000    T  T  T
    0.4033494100000000    0.6505210000000000    0.6091748800000000    T  T  T
    0.8044142000000000    0.7840466400000000    0.4317521300000000    T  T  T
    0.9399841600000000    0.7961918100000001    0.4129120900000000    T  T  T
    1.1947772200000000    0.1645334900000000    0.5677022900000001    T  T  T
    0.3409704600000000    0.0194020500000000    0.5474829800000000    T  T  T
    0.9289523100000000    0.5339066900000000    0.4802788100000000    T  T  T
    0.7445383200000000    0.6597558800000000    0.4830539300000000    T  T  T
    0.0822156500000000    0.4486711600000000    0.3482214400000000    T  T  T
    0.9079376200000000    0.5154637200000000    0.3369827500000000    T  T  T
    0.3525040400000000    0.3243368500000000    0.2915617900000000    T  T  T
    0.2930252700000000    0.3768876600000000    0.3243000500000000    T  T  T
    0.4786839400000000    0.2494206800000000    0.2976285800000000    T  T  T
	
	  -0.002961685397999    0.000194677147190    0.000907191744000
   0.003989131674000   -0.003127006996950    0.000818057184000
   0.002153528573999   -0.000870216211510    0.001142242880000
   0.001369207560000    0.000829442117280   -0.001794245680000
   0.002349768552001    0.000688137323080   -0.002529110608000
  -0.000229904988000   -0.001632666236600    0.001434076032000
   0.001424693394000    0.000451919971330    0.002190069152000
   0.000989653002000   -0.001442755998130    0.001493829200000
  -0.002698852590001   -0.002495391591549    0.002243549888000
   0.001776087294000    0.001867010874210   -0.006073034688000
  -0.002045161644000   -0.001507364635960    0.000804191808000
  -0.001566676187999    0.000885964034960    0.000990714128000
  -0.000536133714000   -0.002175327720350   -0.000042916640001
  -0.000477846558001   -0.000405272364570    0.001786322607999
  -0.000173485380000    0.000051755008960   -0.000829941791999
   0.003348857585999    0.000837018097211   -0.000454916384000
  -0.001023318011999   -0.000265414667660   -0.002426440800001
  -0.000928613670000    0.001627814204510    0.002245530655999
   0.004313495274001   -0.000776580504511   -0.001656582303999
  -0.000069345006001   -0.002339105084230    0.000303387632000
   0.002129791055999    0.004006416532420   -0.003562411248001
   0.001512615588000   -0.001623643159380   -0.000265092784000
  -0.001746157380000    0.003795140328080   -0.000133041583999
  -0.000395182986000   -0.003865026614850    0.000166714640001
  -0.003927650027999   -0.002623842756880    0.000699211104001
   0.001490155866001    0.000400164962370   -0.001163701200000
  -0.000331047455999    0.000111511614700    0.002283495375999
  -0.003243046248000   -0.003278952212400   -0.000385259376000
  -0.001905193836000   -0.000655790442480   -0.004034164159999
  -0.001194984990000   -0.000009789187550    0.000261461376000
  -0.000149747862002    0.001879779379710    0.002434033744000
   0.003781981284000    0.001332691480721    0.001214871040000
   0.000978890028000    0.001059275216280   -0.002693184224000
   0.002639336784000    0.002227508346160    0.000740146976000
   0.002484379446000   -0.003419490896270    0.001915072528000
   0.001269146304001    0.000888687982800   -0.003032555808000
   0.000030863687998    0.002259344486540   -0.000451284976000
   0.000806977320000    0.000279545147080    0.002867821935999
  -0.000449145293999   -0.000396419534090    0.001316550463999
   0.004450661760000    0.001778397446040   -0.003323728704000
   0.000794936549999    0.001056636391809   -0.000024429472001
  -0.003531631560001   -0.001390234878841    0.002173232623999
   0.002211471708000   -0.000622762574920   -0.001307637007999
   0.003811370591999   -0.004847775921499   -0.001680021392000
  -0.004387165128001    0.001724769722940   -0.000094086480001
  -0.003805178196000   -0.000618336159680    0.000895967391999
  -0.000757585590000    0.002298926853590   -0.000311970959999
   0.001347829049999    0.000123173516389   -0.001706761760000
   0.000000000000000    0.000000000000000    0.000000000000000
   0.000000000000000    0.000000000000000    0.000000000000000
   0.000000000000000    0.000000000000000    0.000000000000000
   0.000000000000000    0.000000000000000    0.000000000000000
   0.000000000000000    0.000000000000000    0.000000000000000
   0.000000000000000    0.000000000000000    0.000000000000000
   0.000000000000000    0.000000000000000    0.000000000000000
   0.000000000000000    0.000000000000000    0.000000000000000
   0.000000000000000    0.000000000000000    0.000000000000000
   0.000000000000000    0.000000000000000    0.000000000000000
   0.000000000000000    0.000000000000000    0.000000000000000
   0.000000000000000    0.000000000000000    0.000000000000000
   0.000000000000000    0.000000000000000    0.000000000000000
   0.000000000000000    0.000000000000000    0.000000000000000
   0.000000000000000    0.000000000000000    0.000000000000000
   0.000000000000000    0.000000000000000    0.000000000000000
   0.004474890738000   -0.009205837095390    0.002503030496001
   0.004187534076001    0.001903528799940   -0.001414598479998
  -0.006976667867999    0.005432062733180   -0.003046751312000
   0.005201809224001    0.004884719464080    0.004835714943997
  -0.006066680531999    0.002536165685780   -0.000366111952005
  -0.005384534052000   -0.002029681634280    0.005385708192000
   0.000374394228000    0.001231735163900   -0.000212602432001
   0.004875332346000   -0.000364242900230    0.009702131791999
  -0.002620563012000   -0.013627059809820    0.007430521024002
   0.001525688424000   -0.005969191197881   -0.002600088127998
   0.002017639884000   -0.003997733948680    0.002790571983999
   0.002276049552000    0.002478962781140    0.001571409279999
  -0.001904161770000   -0.000908351481271   -0.000189823600003
   0.001524508919999   -0.001011095388860    0.000449634336000
   0.005157823554001    0.009751477897090   -0.003145459584001
   0.001425578022000    0.005286586893850    0.005897076464002
   0.001404002928002    0.010100398590720    0.004083683360001
  -0.005984459274002    0.001057147132030   -0.001419220272002
   0.006784212132000   -0.001178447934280   -0.000890685344002
   0.001286937155999    0.000408251682520   -0.001156438383999
  -0.000084727703999   -0.003196723036980    0.004142776271999
   0.003181318872002   -0.003339219558359   -0.004954561024000
  -0.009178261230001   -0.003351392200270    0.004618820848002
  -0.000510872670000    0.000742360909770   -0.007796632976000
   0.005814070091999   -0.000822972741160   -0.009205949408003
   0.006921624348001   -0.002035470023440   -0.004111083983998
   0.001956649698000   -0.001639561229570    0.004819868800002
  -0.001445334714001   -0.003974835762151    0.000300416479998
  -0.003696418097999    0.005883982704511    0.001304665855997
  -0.005059187532000    0.001767842148159    0.001934550080001
  -0.002581049628001    0.002411885565580   -0.003265296048003
   0.009649325640000   -0.003879242217640    0.001174595424001
  -0.005468721149999   -0.001125926814989    0.001061361520000
   0.011192706624000   -0.015874487024560    0.017729854368000
   0.011549506583998   -0.023490645185200    0.010973784848002
  -0.004624147140000   -0.018524207285920    0.002537033680003
  -0.007374750468000   -0.004970864314520    0.009208590431999
   0.004515288750000   -0.002401755884550    0.012837687535999
   0.004427464848002    0.001549245334000    0.005065484032000
   0.012570514734000    0.000126918944670    0.000047868559999
   0.006887320439999   -0.021157583860240   -0.001166012095997
  -0.014786606166000    0.012070408742630    0.014367500688001
   0.019053068718000    0.016634723842030   -0.006674527904000
  -0.021647830080000    0.016100744942020    0.009971186112001
   0.005938802640000   -0.022021756312480    0.017534748719996
  -0.000703426697999   -0.017398620964411    0.008525885728000
   0.015368052492001    0.013860127596880   -0.021829713999999
   0.022471811915999    0.013168074598780   -0.012429649328000
   0.037550492759999   -0.004784954874440    0.010773397152001
   0.021263901528001    0.005361750829560   -0.003556468944002
  -0.018813973427999    0.009183790142560   -0.011398989711999
  -0.015065902884000   -0.015279815161739    0.025792570511999
  -0.021922998533999   -0.012643799762950    0.018118745152002
   0.005549861195999   -0.026717672141900   -0.028125585087999
  -0.025810594572000   -0.000712823100381   -0.016200041216001
   0.010702819296000   -0.014492764482720    0.029016600559999
  -0.000390956430001    0.006852516408370   -0.014752099807996
  -0.011851852775999    0.011062973658680    0.007979523887997
   0.005030191392001   -0.009786293355421    0.000671480352000
   0.001816780182000    0.004094519220370   -0.004796759840000
  -0.008374085232001    0.002087395279140   -0.008875821408001
   0.008771725518001   -0.009773950466770   -0.002765482255999
   0.000967389864000   -0.006169231117380    0.016202682239999
   0.003076244723999    0.027573502503880    0.009836824015999
   0.014238726558000   -0.032144372102770   -0.004948288591999
   0.017773552607999    0.010282222109040   -0.026609967439999
   0.006603158268001    0.007365214465881    0.015079586784001
   0.018221174376000    0.019474865082080   -0.013876270224001
   0.023315058984000   -0.010507288299320    0.025480599551999
  -0.007676949222001    0.002795366347430    0.008617661312002
  -0.004152296394000   -0.016787264921070    0.022694319232002
   0.030912096810000   -0.012867503979310    0.024943151167999
   0.017121041165999   -0.000467242177930   -0.034878353328001
  -0.018036188831999   -0.024335920249300    0.003923901407997
   0.005951678891999   -0.002123828081500   -0.009994955328001
   0.012211945518001   -0.003860259706130    0.010388798032000
   0.009046353365999    0.001235906209030   -0.021818159519999
   0.004779202770001    0.003256224272611   -0.008698872800002
   0.018743448918000    0.010827607540630   -0.001042544223999
  -0.019079656704001   -0.002311780482460    0.002685921408000
  -0.003242456496000   -0.007984231612520    0.005517099136000
  -0.022494419076001   -0.029818376017521    0.010997884191999
   0.003570014586000    0.000891837547490   -0.002896543072000
   0.012105691865999   -0.024809631803349    0.011250432112003
  -0.011215805243999    0.011122900511160    0.019879978031998
   0.020661863028000    0.009043677075540    0.000541740048000
  -0.025769901683999   -0.022221796231980    0.029318667680000
  -0.007971186324003   -0.002293904574760    0.012034816240000
   0.006571753974000    0.004497493253950    0.026257720863995
  -0.005726983380001    0.013067118281961   -0.015113920095999
  -0.001635185712001    0.012151190820759   -0.018967504240001
  -0.010578922230000    0.024543025408510    0.024229744559999
   0.020073781991998   -0.011128007913361   -0.001317870976001
   0.004851054222001   -0.010857230473390    0.000725291215998
   0.000106499381999   -0.006498913929390   -0.001411297199999
   0.021095183309999    0.017170490332810    0.018231979055997
