Cu                                      
   1.00000000000000     
    10.0420999999999996    0.0000000000000000    0.0000000000000006
    -5.0210499999999989    8.6967137073437115    0.0000000000000006
     0.0000000000000000    0.0000000000000000   16.1494999999999997
   Cu   C    O 
    64     1     1
Selective dynamics
Direct
  0.0000000000000000  0.0000000000000000  0.0000000000000000   F   F   F
  0.3333332999999996  0.1666700000000034  0.1269300000000015   F   F   F
  0.1675338454697381  0.3349782839195914  0.2546198813053560   T   T   T
  0.0001478184297547 -0.0000953532103427  0.3824702479461665   T   T   T
  0.2500000000000000  0.0000000000000000  0.0000000000000000   F   F   F
  0.0833299999999966  0.1666700000000034  0.1269300000000015   F   F   F
  0.4162399115772666  0.3330334178954036  0.2534580695042731   T   T   T
  0.2499219532346299  0.0002792517016566  0.3827956272231784   T   T   T
  0.2500000000000000  0.2500000000000000  0.0000000000000000   F   F   F
  0.0833299999999966  0.4166700000000034  0.1269300000000015   F   F   F
  0.4162479168166153  0.0830937370538169  0.2534312002866944   T   T   T
  0.2499593545802600  0.2494031981291099  0.3828313487175561   T   T   T
  0.0000000000000000  0.2500000000000000  0.0000000000000000   F   F   F
  0.3333332999999996  0.4166700000000034  0.1269300000000015   F   F   F
  0.1662153157044395  0.0830515381161365  0.2533457413458990   T   T   T
 -0.0001845784311409  0.2494617200389110  0.3828501404658233   T   T   T
  0.5000000000000000  0.0000000000000000  0.0000000000000000   F   F   F
  0.8333299999999966  0.1666700000000034  0.1269300000000015   F   F   F
  0.6666923838595079  0.3332454782504264  0.2541232201720200   T   T   T
  0.5015739218810570  0.0028192262577912  0.3821127248601682   T   T   T
  0.7500000000000000  0.0000000000000000  0.0000000000000000   F   F   F
  0.5833299999999966  0.1666700000000034  0.1269300000000015   F   F   F
  0.9169150127399756  0.3330596062135678  0.2534620350090765   T   T   T
  0.7508323293607114  0.0004289373715150  0.3827695051170339   T   T   T
  0.7500000000000000  0.2500000000000000  0.0000000000000000   F   F   F
  0.5833299999999966  0.4166700000000034  0.1269300000000015   F   F   F
  0.9169992640216782  0.0830844987215006  0.2533190181859870   T   T   T
  0.7500716920664223  0.2499792449618059  0.3823709773623141   T   T   T
  0.5000000000000000  0.2500000000000000  0.0000000000000000   F   F   F
  0.8333299999999966  0.4166700000000034  0.1269300000000015   F   F   F
  0.6669382144485413  0.0830821610979955  0.2534271976486880   T   T   T
  0.5001778908225279  0.2499407656009857  0.3823836065191418   T   T   T
  0.0000000000000000  0.5000000000000000  0.0000000000000000   F   F   F
  0.3333332999999996  0.6666667000000004  0.1269300000000015   F   F   F
  0.1675312755301611  0.8324719237616351  0.2546559563601293   T   T   T
 -0.0026673890040508  0.4985145980051421  0.3821611551431350   T   T   T
  0.2500000000000000  0.5000000000000000  0.0000000000000000   F   F   F
  0.0833299999999966  0.6666667000000004  0.1269300000000015   F   F   F
  0.4165983470702084  0.8331248538460260  0.2535888808721846   T   T   T
  0.2493473559420833  0.4983368955479360  0.3866500659562194   T   T   T
  0.2500000000000000  0.7500000000000000  0.0000000000000000   F   F   F
  0.0833299999999966  0.9166700000000034  0.1269300000000015   F   F   F
  0.4166059173001802  0.5833590163269690  0.2535871697211897   T   T   T
  0.2492890605571027  0.7508904989798760  0.3866926785987037   T   T   T
  0.0000000000000000  0.7500000000000000  0.0000000000000000   F   F   F
  0.3333332999999996  0.9166700000000034  0.1269300000000015   F   F   F
  0.1668927069488540  0.5833910450810538  0.2536588266876432   T   T   T
 -0.0002459266094013  0.7500156539764400  0.3828078895125197   T   T   T
  0.5000000000000000  0.5000000000000000  0.0000000000000000   F   F   F
  0.8333299999999966  0.6666667000000004  0.1269300000000015   F   F   F
  0.6651425453241301  0.8325285547414968  0.2545520380116943   T   T   T
  0.5015133840899699  0.4985151971568659  0.3821077891887271   T   T   T
  0.7500000000000000  0.5000000000000000  0.0000000000000000   F   F   F
  0.5833299999999966  0.6666667000000004  0.1269300000000015   F   F   F
  0.9169932252473278  0.8337922349974920  0.2533360101283884   T   T   T
  0.7500360851167825  0.4997278022693163  0.3823669886052146   T   T   T
  0.7500000000000000  0.7500000000000000  0.0000000000000000   F   F   F
  0.5833299999999966  0.9166700000000034  0.1269300000000015   F   F   F
  0.9168728548933166  0.5837256170494186  0.2534454759761995   T   T   T
  0.7507959068552615  0.7500328030697344  0.3827652088291975   T   T   T
  0.5000000000000000  0.7500000000000000  0.0000000000000000   F   F   F
  0.8333299999999966  0.9166700000000034  0.1269300000000015   F   F   F
  0.6669699897752598  0.5837345950158707  0.2534374129325385   T   T   T
  0.5023259676391355  0.7510754041656422  0.3863348975067757   T   T   T
  0.3349497660043441  0.6675009963073810  0.4737738506273865   T   T   T
  0.3355788282370367  0.6675887622149639  0.5470896071399569   T   T   T
 
  0.00000000E+00  0.00000000E+00  0.00000000E+00
  0.00000000E+00  0.00000000E+00  0.00000000E+00
  0.00000000E+00  0.00000000E+00  0.00000000E+00
  0.00000000E+00  0.00000000E+00  0.00000000E+00
  0.00000000E+00  0.00000000E+00  0.00000000E+00
  0.00000000E+00  0.00000000E+00  0.00000000E+00
  0.00000000E+00  0.00000000E+00  0.00000000E+00
  0.00000000E+00  0.00000000E+00  0.00000000E+00
  0.00000000E+00  0.00000000E+00  0.00000000E+00
  0.00000000E+00  0.00000000E+00  0.00000000E+00
  0.00000000E+00  0.00000000E+00  0.00000000E+00
  0.00000000E+00  0.00000000E+00  0.00000000E+00
  0.00000000E+00  0.00000000E+00  0.00000000E+00
  0.00000000E+00  0.00000000E+00  0.00000000E+00
  0.00000000E+00  0.00000000E+00  0.00000000E+00
  0.00000000E+00  0.00000000E+00  0.00000000E+00
  0.00000000E+00  0.00000000E+00  0.00000000E+00
  0.00000000E+00  0.00000000E+00  0.00000000E+00
  0.00000000E+00  0.00000000E+00  0.00000000E+00
  0.00000000E+00  0.00000000E+00  0.00000000E+00
  0.00000000E+00  0.00000000E+00  0.00000000E+00
  0.00000000E+00  0.00000000E+00  0.00000000E+00
  0.00000000E+00  0.00000000E+00  0.00000000E+00
  0.00000000E+00  0.00000000E+00  0.00000000E+00
  0.00000000E+00  0.00000000E+00  0.00000000E+00
  0.00000000E+00  0.00000000E+00  0.00000000E+00
  0.00000000E+00  0.00000000E+00  0.00000000E+00
  0.00000000E+00  0.00000000E+00  0.00000000E+00
  0.00000000E+00  0.00000000E+00  0.00000000E+00
  0.00000000E+00  0.00000000E+00  0.00000000E+00
  0.00000000E+00  0.00000000E+00  0.00000000E+00
  0.00000000E+00  0.00000000E+00  0.00000000E+00
  0.00000000E+00  0.00000000E+00  0.00000000E+00
  0.00000000E+00  0.00000000E+00  0.00000000E+00
  0.00000000E+00  0.00000000E+00  0.00000000E+00
  0.00000000E+00  0.00000000E+00  0.00000000E+00
  0.00000000E+00  0.00000000E+00  0.00000000E+00
  0.00000000E+00  0.00000000E+00  0.00000000E+00
  0.00000000E+00  0.00000000E+00  0.00000000E+00
  0.00000000E+00  0.00000000E+00  0.00000000E+00
  0.00000000E+00  0.00000000E+00  0.00000000E+00
  0.00000000E+00  0.00000000E+00  0.00000000E+00
  0.00000000E+00  0.00000000E+00  0.00000000E+00
  0.00000000E+00  0.00000000E+00  0.00000000E+00
  0.00000000E+00  0.00000000E+00  0.00000000E+00
  0.00000000E+00  0.00000000E+00  0.00000000E+00
  0.00000000E+00  0.00000000E+00  0.00000000E+00
  0.00000000E+00  0.00000000E+00  0.00000000E+00
  0.00000000E+00  0.00000000E+00  0.00000000E+00
  0.00000000E+00  0.00000000E+00  0.00000000E+00
  0.00000000E+00  0.00000000E+00  0.00000000E+00
  0.00000000E+00  0.00000000E+00  0.00000000E+00
  0.00000000E+00  0.00000000E+00  0.00000000E+00
  0.00000000E+00  0.00000000E+00  0.00000000E+00
  0.00000000E+00  0.00000000E+00  0.00000000E+00
  0.00000000E+00  0.00000000E+00  0.00000000E+00
  0.00000000E+00  0.00000000E+00  0.00000000E+00
  0.00000000E+00  0.00000000E+00  0.00000000E+00
  0.00000000E+00  0.00000000E+00  0.00000000E+00
  0.00000000E+00  0.00000000E+00  0.00000000E+00
  0.00000000E+00  0.00000000E+00  0.00000000E+00
  0.00000000E+00  0.00000000E+00  0.00000000E+00
  0.00000000E+00  0.00000000E+00  0.00000000E+00
  0.00000000E+00  0.00000000E+00  0.00000000E+00
  0.00000000E+00  0.00000000E+00  0.00000000E+00
  0.00000000E+00  0.00000000E+00  0.00000000E+00
