3/32_ML_O                            
   1.00000000000000     
     9.8291997910000006    0.0000000000000000    0.0000000000000000
     4.9145998955000003    8.5123367178000002    0.0000000000000000
     0.0000000000000000    0.0000000000000000   19.0128002167000005
   Ni   O 
    64     3
Selective dynamics
Direct
  0.8327397982862834  0.5848465444452629  0.2711432971281198   T   T   T
  0.3327867970412726  0.0844697908298429  0.2704246667867665   T   T   T
  0.8330972868276945  0.0844843352484119  0.2705219085766046   T   T   T
  0.3327105807981283  0.5848667487998256  0.2707229051095439   T   T   T
  0.5829189836470619  0.8349167137074716  0.2711634833797945   T   T   T
  0.8327777999030701  0.8347151105934643  0.2711151276667394   T   T   T
  0.0826775865542544  0.3346015173141055  0.2708706595248955   T   T   T
  0.8330727509681566  0.3345142248692667  0.2709999748907563   T   T   T
  0.5830215580803824  0.5844401250743587  0.2713987477743203   T   T   T
  0.0826841152250353  0.5845832218579403  0.2711662011885352   T   T   T
  0.0827012554095603  0.0848529581696269  0.2705956111989067   T   T   T
  0.5829693910541351  0.0844429168521899  0.2714003015824105   T   T   T
  0.3330761325472551  0.8346146023284433  0.2709239981616705   T   T   T
  0.0825572286757961  0.8344835645238291  0.2708239707911062   T   T   T
  0.3327263870735351  0.3345221046952744  0.2714989633640528   T   T   T
  0.5831073398836608  0.3344676451090010  0.2715477592735951   T   T   T
  0.9162975268416602  0.6679326635936818  0.3755191310301456   T   T   T
  0.9164035023386745  0.4175656216933419  0.3754082938248544   T   T   T
  0.6660802949461555  0.6679616173740826  0.3755513558567785   T   T   T
  0.1669654001592988  0.1668017118848724  0.3759636062234293   T   T   T
  0.9166480687544762  0.1667986566421078  0.3760960645346287   T   T   T
  0.9163818214782111  0.9183970330482296  0.3760922369956248   T   T   T
  0.4154906703534422  0.9183831840067000  0.3760466473303836   T   T   T
  0.4160477045040381  0.1672462914058528  0.3761960516867404   T   T   T
  0.6670598447679552  0.1671649101357673  0.3762467438247370   T   T   T
  0.1668193180020836  0.6677619082859110  0.3760741760061421   T   T   T
  0.4155855032605444  0.6677900930945455  0.3761624543571855   T   T   T
  0.4160460209197367  0.4183034453003600  0.3762032192926554   T   T   T
  0.6657414660898766  0.9188448622910030  0.3780758927345929   T   T   T
  0.1671341936224380  0.4169172013056723  0.3778883662460899   T   T   T
  0.6661345792608628  0.4168385364971314  0.3779642564947778   T   T   T
  0.1662792580782479  0.9174910875861499  0.3783424682984418   T   T   T
  0.9971314632239512  0.2557695677076453  0.4798494991334010   T   T   T
  0.4999380852340991  0.2503133129981663  0.4796814623345185   T   T   T
  0.9969914773528146  0.7473910395232508  0.4800097592955197   T   T   T
  0.5056349483763967  0.7473838416878635  0.4799776345191589   T   T   T
  0.7506039780652145  0.7487793878829621  0.4810681405899615   T   T   T
  0.9983095018899277  0.5009751612231881  0.4809568819496377   T   T   T
  0.7507833624720206  0.5010489597859191  0.4810197647144392   T   T   T
  0.2483249175968680  0.9985071171383240  0.4855321629733993   T   T   T
  0.0032412211988628  0.9984520380768274  0.4856164063599309   T   T   T
  0.5036774122162484  0.9975644588751820  0.4860758767110553   T   T   T
  0.2483209722186146  0.7533546801497906  0.4855288861621432   T   T   T
  0.7488189464883988  0.9975417107734970  0.4861728777340701   T   T   T
  0.2472035465669720  0.2539234160887389  0.4859239211073572   T   T   T
  0.7489346893826507  0.2539296065915195  0.4860880621389683   T   T   T
  0.2470777170779002  0.4991484604790202  0.4859900633449428   T   T   T
  0.5038122016092927  0.4991076528482807  0.4860447457440102   T   T   T
  0.9970725127721352  0.2558556885660437  0.1637004079999969   F   F   F
  0.4999617694590981  0.2500875882756475  0.1643123229999972   F   F   F
  0.9968841279129421  0.7476992103265090  0.1643590609999990   F   F   F
  0.5054475948340738  0.7476858577758136  0.1651548419999997   F   F   F
  0.7507219237869691  0.7486395196294708  0.1651830500000031   F   F   F
  0.9979411352497110  0.5014025775462372  0.1651978530000022   F   F   F
  0.7507273207667993  0.5014378828407473  0.1654730440000023   F   F   F
  0.2484077576181107  0.9989653127437563  0.1655050250000016   F   F   F
  0.0026835648815862  0.9989392751868493  0.1655775360000007   F   F   F
  0.5037179278764583  0.9979203429349397  0.1655856349999993   F   F   F
  0.2483221759410768  0.7533768050877114  0.1658259539999989   F   F   F
  0.7484136803928223  0.9978805553618955  0.1658943879999981   F   F   F
  0.2473094549500487  0.2543786783860540  0.1660089160000027   F   F   F
  0.7483561418300297  0.2543461482530631  0.1660180849999975   F   F   F
  0.2472922028403062  0.4989472696402402  0.1662971390000010   F   F   F
  0.5037960297639756  0.4989156868822988  0.1664085239999977   F   F   F
  0.3330551629035696  0.0834040809841881  0.5450136105892440   T   T   T
  0.8336951643434958  0.0832606887601273  0.5451136519702615   T   T   T
  0.3331165715146795  0.5836307475946327  0.5450399359731932   T   T   T
 
  0.00000000E+00  0.00000000E+00  0.00000000E+00
  0.00000000E+00  0.00000000E+00  0.00000000E+00
  0.00000000E+00  0.00000000E+00  0.00000000E+00
  0.00000000E+00  0.00000000E+00  0.00000000E+00
  0.00000000E+00  0.00000000E+00  0.00000000E+00
  0.00000000E+00  0.00000000E+00  0.00000000E+00
  0.00000000E+00  0.00000000E+00  0.00000000E+00
  0.00000000E+00  0.00000000E+00  0.00000000E+00
  0.00000000E+00  0.00000000E+00  0.00000000E+00
  0.00000000E+00  0.00000000E+00  0.00000000E+00
  0.00000000E+00  0.00000000E+00  0.00000000E+00
  0.00000000E+00  0.00000000E+00  0.00000000E+00
  0.00000000E+00  0.00000000E+00  0.00000000E+00
  0.00000000E+00  0.00000000E+00  0.00000000E+00
  0.00000000E+00  0.00000000E+00  0.00000000E+00
  0.00000000E+00  0.00000000E+00  0.00000000E+00
  0.00000000E+00  0.00000000E+00  0.00000000E+00
  0.00000000E+00  0.00000000E+00  0.00000000E+00
  0.00000000E+00  0.00000000E+00  0.00000000E+00
  0.00000000E+00  0.00000000E+00  0.00000000E+00
  0.00000000E+00  0.00000000E+00  0.00000000E+00
  0.00000000E+00  0.00000000E+00  0.00000000E+00
  0.00000000E+00  0.00000000E+00  0.00000000E+00
  0.00000000E+00  0.00000000E+00  0.00000000E+00
  0.00000000E+00  0.00000000E+00  0.00000000E+00
  0.00000000E+00  0.00000000E+00  0.00000000E+00
  0.00000000E+00  0.00000000E+00  0.00000000E+00
  0.00000000E+00  0.00000000E+00  0.00000000E+00
  0.00000000E+00  0.00000000E+00  0.00000000E+00
  0.00000000E+00  0.00000000E+00  0.00000000E+00
  0.00000000E+00  0.00000000E+00  0.00000000E+00
  0.00000000E+00  0.00000000E+00  0.00000000E+00
  0.00000000E+00  0.00000000E+00  0.00000000E+00
  0.00000000E+00  0.00000000E+00  0.00000000E+00
  0.00000000E+00  0.00000000E+00  0.00000000E+00
  0.00000000E+00  0.00000000E+00  0.00000000E+00
  0.00000000E+00  0.00000000E+00  0.00000000E+00
  0.00000000E+00  0.00000000E+00  0.00000000E+00
  0.00000000E+00  0.00000000E+00  0.00000000E+00
  0.00000000E+00  0.00000000E+00  0.00000000E+00
  0.00000000E+00  0.00000000E+00  0.00000000E+00
  0.00000000E+00  0.00000000E+00  0.00000000E+00
  0.00000000E+00  0.00000000E+00  0.00000000E+00
  0.00000000E+00  0.00000000E+00  0.00000000E+00
  0.00000000E+00  0.00000000E+00  0.00000000E+00
  0.00000000E+00  0.00000000E+00  0.00000000E+00
  0.00000000E+00  0.00000000E+00  0.00000000E+00
  0.00000000E+00  0.00000000E+00  0.00000000E+00
  0.00000000E+00  0.00000000E+00  0.00000000E+00
  0.00000000E+00  0.00000000E+00  0.00000000E+00
  0.00000000E+00  0.00000000E+00  0.00000000E+00
  0.00000000E+00  0.00000000E+00  0.00000000E+00
  0.00000000E+00  0.00000000E+00  0.00000000E+00
  0.00000000E+00  0.00000000E+00  0.00000000E+00
  0.00000000E+00  0.00000000E+00  0.00000000E+00
  0.00000000E+00  0.00000000E+00  0.00000000E+00
  0.00000000E+00  0.00000000E+00  0.00000000E+00
  0.00000000E+00  0.00000000E+00  0.00000000E+00
  0.00000000E+00  0.00000000E+00  0.00000000E+00
  0.00000000E+00  0.00000000E+00  0.00000000E+00
  0.00000000E+00  0.00000000E+00  0.00000000E+00
  0.00000000E+00  0.00000000E+00  0.00000000E+00
  0.00000000E+00  0.00000000E+00  0.00000000E+00
  0.00000000E+00  0.00000000E+00  0.00000000E+00
  0.00000000E+00  0.00000000E+00  0.00000000E+00
  0.00000000E+00  0.00000000E+00  0.00000000E+00
  0.00000000E+00  0.00000000E+00  0.00000000E+00
