 Ni\(1\1\1)                             
   1.00000000000000     
     9.8291997910000006    0.0000000000000000    0.0000000000000000
     4.9145998955000003    8.5123367178000002    0.0000000000000000
     0.0000000000000000    0.0000000000000000   19.0128002167000005
   Ni   O    C    O    H    C    H 
    64     3     1     2     1     1     2
Selective dynamics
Direct
  0.8320718309764620  0.5835624032260556  0.2717799961224343   T   T   T
  0.3334274486520182  0.0830839778201715  0.2702957296175220   T   T   T
  0.8331930524584309  0.0835582007760681  0.2706932220630551   T   T   T
  0.3333146469702236  0.5834631337222910  0.2708550252202193   T   T   T
  0.5833537195243667  0.8330963216510145  0.2716224763829169   T   T   T
  0.8322611874526232  0.8333741574680881  0.2708396744447222   T   T   T
  0.0822573647915607  0.3338048952071516  0.2710680467556401   T   T   T
  0.8327386262268458  0.3333559493270886  0.2709815319537278   T   T   T
  0.5832029827376235  0.5832611315328436  0.2720118308419693   T   T   T
  0.0822033119127676  0.5833266182024333  0.2708559449018687   T   T   T
  0.0825769196347086  0.0842333916106333  0.2701609636745828   T   T   T
  0.5838512639619358  0.0821666870874453  0.2714695052734545   T   T   T
  0.3336381378320085  0.8331867134251152  0.2706395792126303   T   T   T
  0.0826234187552463  0.8334934248410969  0.2703562998422849   T   T   T
  0.3337511592155751  0.3327538974281450  0.2706276430126385   T   T   T
  0.5832182010895589  0.3328623645940615  0.2719652534261311   T   T   T
  0.9160880386256951  0.6664904565879052  0.3760431267919010   T   T   T
  0.9161703588168697  0.4175478767686228  0.3763094977552200   T   T   T
  0.6672674237181643  0.6665203228592363  0.3776529967780424   T   T   T
  0.1673116341680497  0.1663925465256113  0.3753013384118694   T   T   T
  0.9168250956717076  0.1666651726778388  0.3763531532477258   T   T   T
  0.9165563802104296  0.9170171875365279  0.3753572917975334   T   T   T
  0.4163091936162617  0.9173942067783872  0.3760489168539932   T   T   T
  0.4176363565477105  0.1663762554766071  0.3755500763734319   T   T   T
  0.6687164668853135  0.1660506721709805  0.3766372297591271   T   T   T
  0.1669082789390746  0.6668581610853384  0.3750750401051342   T   T   T
  0.4164189421548685  0.6667124171793131  0.3767439496677835   T   T   T
  0.4167133819001761  0.4178571944106464  0.3764218742061229   T   T   T
  0.6672480637960433  0.9154606976505411  0.3793040777617870   T   T   T
  0.1671986784922245  0.4164022555909854  0.3769446868792995   T   T   T
  0.6659844484264127  0.4155299790093487  0.3788675311679200   T   T   T
  0.1668806605240869  0.9170088518391339  0.3776808382574720   T   T   T
  0.0022659265768010  0.2518478059357465  0.4790391000683700   T   T   T
  0.5009868055016126  0.2506040062950433  0.4788815400759651   T   T   T
  0.0002172642374339  0.7489919692162476  0.4783561042519840   T   T   T
  0.5020445592186169  0.7517586400726213  0.4795594572412847   T   T   T
  0.7500347356006639  0.7527407757997665  0.4873548985695065   T   T   T
  0.0018412082290183  0.5000538081786637  0.4841553612884608   T   T   T
  0.7531272861357666  0.4995894073861940  0.4827454894088072   T   T   T
  0.2490789313353937 -0.0005204088091887  0.4855294152273474   T   T   T
  0.0054188836007926  0.9974539075761949  0.4844017742568479   T   T   T
  0.5028566848649085  0.0000708834690523  0.4860440729607396   T   T   T
  0.2476474056398559  0.7552856875163811  0.4845236824733169   T   T   T
  0.7490518988753972 -0.0007899120068092  0.4845604163610470   T   T   T
  0.2502895440850303  0.2535148452575570  0.4841049795358092   T   T   T
  0.7520543893640621  0.2518351667878526  0.4933592491731757   T   T   T
  0.2487861419737490  0.4986483660434560  0.4836027199398942   T   T   T
  0.5014837596914422  0.5017698138274382  0.4931023728324281   T   T   T
  0.9970724670000024  0.2558556729999992  0.1637003960000030   F   F   F
  0.4999617989999976  0.2500875830000027  0.1643123180000003   F   F   F
  0.9968841629999972  0.7476992069999966  0.1643590660000029   F   F   F
  0.5054474789999972  0.7476858750000019  0.1651548480000002   F   F   F
  0.7507219769999978  0.7486395119999969  0.1651830500000031   F   F   F
  0.9979410790000003  0.5014025589999989  0.1651978470000017   F   F   F
  0.7507272960000009  0.5014379059999996  0.1654730480000026   F   F   F
  0.2484077359999972  0.9989653640000000  0.1655050250000016   F   F   F
  0.0026835399999996  0.9989392600000002  0.1655775309999967   F   F   F
  0.5037179199999997  0.9979203070000011  0.1655856309999990   F   F   F
  0.2483221529999966  0.7533767729999994  0.1658259459999982   F   F   F
  0.7484137009999969  0.9978805350000002  0.1658943890000018   F   F   F
  0.2473094730000014  0.2543786680000011  0.1660089160000027   F   F   F
  0.7483561820000020  0.2543461500000035  0.1660180820000008   F   F   F
  0.2472921950000000  0.4989472700000022  0.1662971330000005   F   F   F
  0.5037960519999984  0.4989156760000029  0.1664085250000014   F   F   F
  0.3320728221195148  0.0864975456285597  0.5457214245840193   T   T   T
  0.8420976867435160  0.0695738121832659  0.5465481780001773   T   T   T
  0.3199003874584727  0.5907634618277340  0.5462733399827077   T   T   T
  0.9483081489736711  0.5645210281003407  0.5767488700266266   T   T   T
  0.8227627401360765  0.6909619509316389  0.5896073302270564   T   T   T
  0.0337920417199576  0.4811326422209211  0.6319719767154777   T   T   T
  0.1271481538482304  0.3871160906469462  0.6135653121490433   T   T   T
  0.6697020031377136  0.4231554120232842  0.5582269136027972   T   T   T
  0.7241238612965917  0.4957331859945160  0.5770225743734780   T   T   T
  0.6411318595091353  0.3830273503829496  0.6071923847124596   T   T   T
 
  0.00000000E+00  0.00000000E+00  0.00000000E+00
  0.00000000E+00  0.00000000E+00  0.00000000E+00
  0.00000000E+00  0.00000000E+00  0.00000000E+00
  0.00000000E+00  0.00000000E+00  0.00000000E+00
  0.00000000E+00  0.00000000E+00  0.00000000E+00
  0.00000000E+00  0.00000000E+00  0.00000000E+00
  0.00000000E+00  0.00000000E+00  0.00000000E+00
  0.00000000E+00  0.00000000E+00  0.00000000E+00
  0.00000000E+00  0.00000000E+00  0.00000000E+00
  0.00000000E+00  0.00000000E+00  0.00000000E+00
  0.00000000E+00  0.00000000E+00  0.00000000E+00
  0.00000000E+00  0.00000000E+00  0.00000000E+00
  0.00000000E+00  0.00000000E+00  0.00000000E+00
  0.00000000E+00  0.00000000E+00  0.00000000E+00
  0.00000000E+00  0.00000000E+00  0.00000000E+00
  0.00000000E+00  0.00000000E+00  0.00000000E+00
  0.00000000E+00  0.00000000E+00  0.00000000E+00
  0.00000000E+00  0.00000000E+00  0.00000000E+00
  0.00000000E+00  0.00000000E+00  0.00000000E+00
  0.00000000E+00  0.00000000E+00  0.00000000E+00
  0.00000000E+00  0.00000000E+00  0.00000000E+00
  0.00000000E+00  0.00000000E+00  0.00000000E+00
  0.00000000E+00  0.00000000E+00  0.00000000E+00
  0.00000000E+00  0.00000000E+00  0.00000000E+00
  0.00000000E+00  0.00000000E+00  0.00000000E+00
  0.00000000E+00  0.00000000E+00  0.00000000E+00
  0.00000000E+00  0.00000000E+00  0.00000000E+00
  0.00000000E+00  0.00000000E+00  0.00000000E+00
  0.00000000E+00  0.00000000E+00  0.00000000E+00
  0.00000000E+00  0.00000000E+00  0.00000000E+00
  0.00000000E+00  0.00000000E+00  0.00000000E+00
  0.00000000E+00  0.00000000E+00  0.00000000E+00
  0.00000000E+00  0.00000000E+00  0.00000000E+00
  0.00000000E+00  0.00000000E+00  0.00000000E+00
  0.00000000E+00  0.00000000E+00  0.00000000E+00
  0.00000000E+00  0.00000000E+00  0.00000000E+00
  0.00000000E+00  0.00000000E+00  0.00000000E+00
  0.00000000E+00  0.00000000E+00  0.00000000E+00
  0.00000000E+00  0.00000000E+00  0.00000000E+00
  0.00000000E+00  0.00000000E+00  0.00000000E+00
  0.00000000E+00  0.00000000E+00  0.00000000E+00
  0.00000000E+00  0.00000000E+00  0.00000000E+00
  0.00000000E+00  0.00000000E+00  0.00000000E+00
  0.00000000E+00  0.00000000E+00  0.00000000E+00
  0.00000000E+00  0.00000000E+00  0.00000000E+00
  0.00000000E+00  0.00000000E+00  0.00000000E+00
  0.00000000E+00  0.00000000E+00  0.00000000E+00
  0.00000000E+00  0.00000000E+00  0.00000000E+00
  0.00000000E+00  0.00000000E+00  0.00000000E+00
  0.00000000E+00  0.00000000E+00  0.00000000E+00
  0.00000000E+00  0.00000000E+00  0.00000000E+00
  0.00000000E+00  0.00000000E+00  0.00000000E+00
  0.00000000E+00  0.00000000E+00  0.00000000E+00
  0.00000000E+00  0.00000000E+00  0.00000000E+00
  0.00000000E+00  0.00000000E+00  0.00000000E+00
  0.00000000E+00  0.00000000E+00  0.00000000E+00
  0.00000000E+00  0.00000000E+00  0.00000000E+00
  0.00000000E+00  0.00000000E+00  0.00000000E+00
  0.00000000E+00  0.00000000E+00  0.00000000E+00
  0.00000000E+00  0.00000000E+00  0.00000000E+00
  0.00000000E+00  0.00000000E+00  0.00000000E+00
  0.00000000E+00  0.00000000E+00  0.00000000E+00
  0.00000000E+00  0.00000000E+00  0.00000000E+00
  0.00000000E+00  0.00000000E+00  0.00000000E+00
  0.00000000E+00  0.00000000E+00  0.00000000E+00
  0.00000000E+00  0.00000000E+00  0.00000000E+00
  0.00000000E+00  0.00000000E+00  0.00000000E+00
  0.00000000E+00  0.00000000E+00  0.00000000E+00
  0.00000000E+00  0.00000000E+00  0.00000000E+00
  0.00000000E+00  0.00000000E+00  0.00000000E+00
  0.00000000E+00  0.00000000E+00  0.00000000E+00
  0.00000000E+00  0.00000000E+00  0.00000000E+00
  0.00000000E+00  0.00000000E+00  0.00000000E+00
  0.00000000E+00  0.00000000E+00  0.00000000E+00
