 Ni\(1\1\1)                             
   1.00000000000000     
     9.8291997910000006    0.0000000000000000    0.0000000000000000
     4.9145998955000003    8.5123367178000002    0.0000000000000000
     0.0000000000000000    0.0000000000000000   19.0128002167000005
   Ni   O    C    H 
    64     2     2     4
Direct
  0.8284120455015866  0.5836964744135056  0.2707882685340824
  0.3284929109960008  0.0835117759181065  0.2702217818945022
  0.8281758579273865  0.0833769355378611  0.2705283411556931
  0.3283310324528332  0.5834357542084349  0.2706214262141950
  0.5781224600711081  0.8338740770276278  0.2702480883596309
  0.8285715215499730  0.8330071074415119  0.2707742248222085
  0.0785504983304321  0.3337360389668359  0.2709301559792637
  0.8286193285382026  0.3338014712251854  0.2701563271253419
  0.5781274076807000  0.5834851141184634  0.2701349059384091
  0.0781235952584668  0.5834875719677726  0.2716254999979988
  0.0783171602763048  0.0834654514814042  0.2701569232993378
  0.5780212664735930  0.0836483137746024  0.2705426937093229
  0.3283079859704336  0.8337095475617172  0.2704012899828442
  0.0782104754518726  0.8335404330402520  0.2706891045071939
  0.3272304382262150  0.3340905322471134  0.2708790553781903
  0.5780139560259183  0.3334802950169963  0.2705106801884476
  0.9117723491525985  0.6654209991438851  0.3779246286765433
  0.9118319929277027  0.4175145717095550  0.3765593935218700
  0.6612352796802959  0.6670515030178253  0.3751524485325649
  0.1620832166738339  0.1665407263114317  0.3751752466023929
  0.9114277290175031  0.1668870337975077  0.3750044733730709
  0.9112442955625975  0.9168845368190308  0.3758311737280796
  0.4115004253854654  0.9172316350524271  0.3758042836316774
  0.4111686685979908  0.1674286198525762  0.3756415768559875
  0.6612018298620765  0.1671235469089337  0.3756847147645054
  0.1615467221771203  0.6670222149770088  0.3759724168985137
  0.4114772552675530  0.6670974285790060  0.3756686186424102
  0.4107825399130600  0.4171193106635632  0.3758549257208601
  0.6612779951469104  0.9170709773757887  0.3757664865158851
  0.1586013977474366  0.4182919786524706  0.3784463265324862
  0.6615766083746198  0.4167357196494977  0.3751647204864133
  0.1614378475626538  0.9171755072617609  0.3760261117561597
 -0.0041276190627624  0.2476638697395802  0.4791199124396547
  0.4947841113024728  0.2507581485819049  0.4815582876762368
 -0.0042754244130420  0.7520621358447556  0.4809841366669783
  0.4944718321624421  0.7508300279722846  0.4812688044077192
  0.7421807083187352  0.7529486525620179  0.4807856326656473
 -0.0044957438098617  0.4995409228425379  0.4908923531888042
  0.7423326654816550  0.5004667161306554  0.4793214947421902
  0.2453925172348682  0.0001863478452349  0.4819476402717575
 -0.0053272807303857  0.0006995319600733  0.4814820735839646
  0.4944919830779957  0.0012924635740129  0.4818690618503775
  0.2454690297867038  0.7508133200492472  0.4816155734566894
  0.7447172099711841  0.0009601200437095  0.4814532210641898
  0.2463584706936230  0.2486704323418354  0.4812193077099463
  0.7450177645756370  0.2501938046520604  0.4811486910174153
  0.2458262400791758  0.5007857614731095  0.4817503977997703
  0.4949580281609949  0.5003441847651685  0.4813947444727849
  0.9951125859406297  0.2503086265930375  0.1647693566526587
  0.4947467145124714  0.2504486357346991  0.1649996580200487
 -0.0046963302452045  0.7501536162098577  0.1652569201725396
  0.4949694238986654  0.7502144501863593  0.1645609554914365
  0.7451243808508050  0.7501879491406211  0.1649508494231075
 -0.0047173452520368  0.5004234049400993  0.1653996775585833
  0.7451365005307534  0.5002614267194776  0.1646819433625336
  0.2450060682162795  0.0002254423449909  0.1646243905439707
  0.9950652109248287  0.0000420857073001  0.1648082201906894
  0.4949386315295028  0.0003589162633126  0.1646322714101348
  0.2449206149873631  0.7503124138204719  0.1649834699463739
  0.7449067660891651  0.0001699741781789  0.1649835401093710
  0.2449445549119710  0.2505427633734807  0.1648482931222359
  0.7449583231542820  0.2501386230337884  0.1648768716490350
  0.2447807892138019  0.5004943091717616  0.1651678432263178
  0.4949444223237023  0.5002994527075126  0.1647006104756549
  0.9302612851761679  0.5228531432526132  0.5941220422243499
  0.0506346638791137  0.2734031321474155  0.6369178620715006
  0.9348017607311695  0.4222231747459510  0.6355917018393812
  0.8019322800189583  0.4580060196968579  0.6842577818542503
  0.1212501047852571  0.2535831301008821  0.5951847166838646
  0.8406951257979763  0.3851734425563359  0.7317356525864985
  0.7370795710023202  0.5835955371865198  0.6966726738061523
  0.7224383524121415  0.4295247840906185  0.6546661002391460
 
  0.00000000E+00  0.00000000E+00  0.00000000E+00
  0.00000000E+00  0.00000000E+00  0.00000000E+00
  0.00000000E+00  0.00000000E+00  0.00000000E+00
  0.00000000E+00  0.00000000E+00  0.00000000E+00
  0.00000000E+00  0.00000000E+00  0.00000000E+00
  0.00000000E+00  0.00000000E+00  0.00000000E+00
  0.00000000E+00  0.00000000E+00  0.00000000E+00
  0.00000000E+00  0.00000000E+00  0.00000000E+00
  0.00000000E+00  0.00000000E+00  0.00000000E+00
  0.00000000E+00  0.00000000E+00  0.00000000E+00
  0.00000000E+00  0.00000000E+00  0.00000000E+00
  0.00000000E+00  0.00000000E+00  0.00000000E+00
  0.00000000E+00  0.00000000E+00  0.00000000E+00
  0.00000000E+00  0.00000000E+00  0.00000000E+00
  0.00000000E+00  0.00000000E+00  0.00000000E+00
  0.00000000E+00  0.00000000E+00  0.00000000E+00
  0.00000000E+00  0.00000000E+00  0.00000000E+00
  0.00000000E+00  0.00000000E+00  0.00000000E+00
  0.00000000E+00  0.00000000E+00  0.00000000E+00
  0.00000000E+00  0.00000000E+00  0.00000000E+00
  0.00000000E+00  0.00000000E+00  0.00000000E+00
  0.00000000E+00  0.00000000E+00  0.00000000E+00
  0.00000000E+00  0.00000000E+00  0.00000000E+00
  0.00000000E+00  0.00000000E+00  0.00000000E+00
  0.00000000E+00  0.00000000E+00  0.00000000E+00
  0.00000000E+00  0.00000000E+00  0.00000000E+00
  0.00000000E+00  0.00000000E+00  0.00000000E+00
  0.00000000E+00  0.00000000E+00  0.00000000E+00
  0.00000000E+00  0.00000000E+00  0.00000000E+00
  0.00000000E+00  0.00000000E+00  0.00000000E+00
  0.00000000E+00  0.00000000E+00  0.00000000E+00
  0.00000000E+00  0.00000000E+00  0.00000000E+00
  0.00000000E+00  0.00000000E+00  0.00000000E+00
  0.00000000E+00  0.00000000E+00  0.00000000E+00
  0.00000000E+00  0.00000000E+00  0.00000000E+00
  0.00000000E+00  0.00000000E+00  0.00000000E+00
  0.00000000E+00  0.00000000E+00  0.00000000E+00
  0.00000000E+00  0.00000000E+00  0.00000000E+00
  0.00000000E+00  0.00000000E+00  0.00000000E+00
  0.00000000E+00  0.00000000E+00  0.00000000E+00
  0.00000000E+00  0.00000000E+00  0.00000000E+00
  0.00000000E+00  0.00000000E+00  0.00000000E+00
  0.00000000E+00  0.00000000E+00  0.00000000E+00
  0.00000000E+00  0.00000000E+00  0.00000000E+00
  0.00000000E+00  0.00000000E+00  0.00000000E+00
  0.00000000E+00  0.00000000E+00  0.00000000E+00
  0.00000000E+00  0.00000000E+00  0.00000000E+00
  0.00000000E+00  0.00000000E+00  0.00000000E+00
  0.00000000E+00  0.00000000E+00  0.00000000E+00
  0.00000000E+00  0.00000000E+00  0.00000000E+00
  0.00000000E+00  0.00000000E+00  0.00000000E+00
  0.00000000E+00  0.00000000E+00  0.00000000E+00
  0.00000000E+00  0.00000000E+00  0.00000000E+00
  0.00000000E+00  0.00000000E+00  0.00000000E+00
  0.00000000E+00  0.00000000E+00  0.00000000E+00
  0.00000000E+00  0.00000000E+00  0.00000000E+00
  0.00000000E+00  0.00000000E+00  0.00000000E+00
  0.00000000E+00  0.00000000E+00  0.00000000E+00
  0.00000000E+00  0.00000000E+00  0.00000000E+00
  0.00000000E+00  0.00000000E+00  0.00000000E+00
  0.00000000E+00  0.00000000E+00  0.00000000E+00
  0.00000000E+00  0.00000000E+00  0.00000000E+00
  0.00000000E+00  0.00000000E+00  0.00000000E+00
  0.00000000E+00  0.00000000E+00  0.00000000E+00
  0.00000000E+00  0.00000000E+00  0.00000000E+00
  0.00000000E+00  0.00000000E+00  0.00000000E+00
  0.00000000E+00  0.00000000E+00  0.00000000E+00
  0.00000000E+00  0.00000000E+00  0.00000000E+00
  0.00000000E+00  0.00000000E+00  0.00000000E+00
  0.00000000E+00  0.00000000E+00  0.00000000E+00
  0.00000000E+00  0.00000000E+00  0.00000000E+00
  0.00000000E+00  0.00000000E+00  0.00000000E+00
