 Layer\(9)                              
   1.00000000000000     
     9.8291997910000006    0.0000000000000000    0.0000000000000000
     4.9145998955000003    8.5123367178000002    0.0000000000000000
     0.0000000000000000    0.0000000000000000   30.7147998810000011
   Ni   O    H    C    O 
    64    30    60     2     2
Selective dynamics
Direct
  0.0759161877214212  0.0965834215312665  0.1242688885305323   T   T   T
  0.3295197105952212  0.0928451463789196  0.1209723019266054   T   T   T
  0.3460018016411791  0.8383815988649510  0.1211478225613195   T   T   T
  0.5874223391150044  0.3315343647858799  0.1204372289781139   T   T   T
  0.3403505744431633  0.5840579112294330  0.1185177680022907   T   T   T
  0.3328209625904635  0.3351960296532130  0.1179350583963650   T   T   T
  0.8416296174374950  0.0773427093787976  0.1217668958173936   T   T   T
  0.5768453060917411  0.0879878167890624  0.1207543679262771   T   T   T
  0.8343970138799603  0.3447333576670613  0.1211472404827461   T   T   T
  0.5921220094907078  0.5915862180839856  0.1168255247762221   T   T   T
  0.0844566568257740  0.8392732959739316  0.1168817953361059   T   T   T
  0.5829416116214856  0.8465797052792802  0.1198811262060392   T   T   T
  0.0848633866463007  0.3362047829080157  0.1198886257054216   T   T   T
  0.8280186144368863  0.6037607506365229  0.1232713309445294   T   T   T
  0.0848822751516918  0.5918360689606099  0.1198710074261165   T   T   T
  0.8280946868694654  0.8445677701013343  0.1194670259854903   T   T   T
  0.1550170454153294  0.1783260785087754  0.1891968162127043   T   T   T
  0.1650315244612885  0.9213430432599071  0.1883192248072774   T   T   T
  0.4069118416776007  0.1828054805398250  0.1874665401356119   T   T   T
  0.4062759146086153  0.9360836914579880  0.1888095508702325   T   T   T
  0.4008116694891882  0.4359268353334074  0.1816576208246909   T   T   T
  0.4186693183134159  0.6711350511231906  0.1828757983370760   T   T   T
  0.9079508036319291  0.1754464123394286  0.1866841297048422   T   T   T
  0.6550556560172415  0.1658965269305801  0.1861362872634382   T   T   T
  0.6557656240268399  0.4169403945964102  0.1852510356224508   T   T   T
  0.1601626479503253  0.6826191002380122  0.1854549440207437   T   T   T
  0.9165832227939362  0.4291187826435833  0.1828258080604590   T   T   T
  0.6660245181063669  0.6684874463881133  0.1875866830735059   T   T   T
  0.9207118348311890  0.9166342034508814  0.1870283040405375   T   T   T
  0.6623385257432166  0.9115704679112734  0.1889449006068442   T   T   T
  0.1643746763933602  0.4212929971549948  0.1846665235581761   T   T   T
  0.9202594417836967  0.6822687063238727  0.1856875964194066   T   T   T
  0.2426813853964180  0.0065322628436584  0.2536592265268209   T   T   T
  0.4998015884976901  0.2492535619704607  0.2511622847897163   T   T   T
  0.5082760457397981  0.4975909899456464  0.2513038512906179   T   T   T
  0.2470327528580809  0.2584589912314378  0.2616219624837351   T   T   T
  0.9860840283564561  0.2742394120105422  0.2530546202356017   T   T   T
  0.7527462423270607  0.2513261926101231  0.2565181815963175   T   T   T
  0.5012619047736291  0.7544566407355229  0.2527991322118104   T   T   T
  0.2677518611194966  0.7434497348062528  0.2507929410512710   T   T   T
  0.4997280915394889  0.9947870499948336  0.2529755313067285   T   T   T
  0.0023778121641560  0.0048527811633677  0.2513732762195829   T   T   T
  0.2464259930696199  0.4983234826384503  0.2473190489265419   T   T   T
  0.7455448816739905  0.5096168190961554  0.2534378173535964   T   T   T
  0.7526793750089380  0.9931046910936483  0.2525463517093182   T   T   T
  0.9923452234483782  0.7575640838234976  0.2545416077065393   T   T   T
  0.7477825411867965  0.7469120786420910  0.2582505075368008   T   T   T
  0.0095212787189822  0.5043386395658782  0.2470338086057172   T   T   T
  0.2488099899999980  0.0018900000000031  0.0530725899999993   F   F   F
  0.4986599900000002  0.2520299800000032  0.0530725899999993   F   F   F
  0.4987100700000013  0.5019500100000016  0.0530725899999993   F   F   F
  0.2486699900000033  0.2519600099999977  0.0530725899999993   F   F   F
  0.9988300199999998  0.2520000100000033  0.0530725899999993   F   F   F
  0.7487000499999965  0.2521199999999979  0.0530725899999993   F   F   F
  0.4986899700000009  0.7520999700000033  0.0530725899999993   F   F   F
  0.2487699599999971  0.7521200300000004  0.0530725899999993   F   F   F
  0.4985999800000016  0.0021100000000018  0.0530725899999993   F   F   F
  0.9987700300000029  0.0022099999999980  0.0530725899999993   F   F   F
  0.2487500100000020  0.5021200300000004  0.0530725899999993   F   F   F
  0.7486699900000033  0.5022699800000012  0.0530725899999993   F   F   F
  0.7485900000000001  0.0024500000000032  0.0530725899999993   F   F   F
  0.9987000499999965  0.7524499700000007  0.0530725899999993   F   F   F
  0.7486699299999984  0.7524300299999993  0.0530725899999993   F   F   F
  0.9986899600000001  0.5022000199999965  0.0530725899999993   F   F   F
  0.9518719676671604  0.7885288559914272  0.5196662648220554   T   T   T
  0.5282432285977526  0.8822343874632196  0.5427227374466258   T   T   T
  0.5749308655533288  0.6487374258493865  0.3757957472338464   T   T   T
  0.0498057229395279  0.0856942276654375  0.4309242787930810   T   T   T
  0.4128878865459051  0.9491550439403783  0.3575436877415779   T   T   T
  0.9472336308476734  0.5452490635026781  0.5662461574507619   T   T   T
  0.7448341530101479  0.4832149995187159  0.4416258127932172   T   T   T
  0.1624698724380339  0.5503103073760386  0.3431753472300356   T   T   T
  0.7746461221105408  0.6941843039658664  0.3204451851538378   T   T   T
  0.3011731931326811  0.8122869908527564  0.4567582323819640   T   T   T
  0.0232201130314512  0.0151071109275664  0.3489709707785435   T   T   T
  0.1574278486934731  0.4068004590581566  0.4918709622674233   T   T   T
  0.2147810225282000  0.0501839944570760  0.5670874260443778   T   T   T
  0.5274034150817002  0.3320040186209034  0.4367141661039934   T   T   T
  0.4700338417346729  0.4991045271282217  0.5811691141876839   T   T   T
  0.2617492059885004  0.5853196718943101  0.4227639210847735   T   T   T
  0.5253161546183888  0.8952328712300195  0.4570677891582878   T   T   T
  0.6829173421886734  0.5407899581004181  0.5335258106036287   T   T   T
  0.9927670712939122  0.2787930380295605  0.6164044062144824   T   T   T
  0.4960656501121437  0.2663155336724053  0.5240417331686137   T   T   T
  0.7436350216307973  0.2560929315983697  0.6027169005770961   T   T   T
  0.2145521244265985  0.7606348903289626  0.5456303536028906   T   T   T
  0.8535089226036916  0.8887544867900578  0.3619082199807132   T   T   T
  0.7139027403336199  0.0002654129009857  0.5691766520543082   T   T   T
  0.2583760887191998  0.1878325023673748  0.4266734311757903   T   T   T
  0.8462793971997897  0.8426350510681411  0.4416742115213079   T   T   T
  0.5694213895305269  0.1487116066638044  0.3681784901186130   T   T   T
  0.9524560945155761  0.1604562668167406  0.5126785714243913   T   T   T
  0.2797911904845619  0.7302132931669740  0.3187335499916669   T   T   T
  0.2152724776883166  0.2605408995569032  0.3319515289990587   T   T   T
  0.0520471616173373  0.7857713714344833  0.5281778748697216   T   T   T
  0.9696211228864076  0.6909132787449708  0.5327235931739946   T   T   T
  0.5338268805849227  0.8804864905387448  0.5095939583731055   T   T   T
  0.5734492630395602  0.7758655741512755  0.5535062644770141   T   T   T
  0.4985076542171421  0.7673011018570598  0.3838433891415020   T   T   T
  0.5156855458494364  0.6018081909279449  0.3623486698198297   T   T   T
  0.0070196578503165  0.1272957593249527  0.4604428273917808   T   T   T
  0.1223871634917341  0.1312287579149192  0.4265601766655994   T   T   T
  0.4572717180483391  0.9201636063242853  0.3271793452574850   T   T   T
  0.4293951452781398  0.0419962680452551  0.3630708243697578   T   T   T
  0.9950181026533195  0.4501353104215839  0.5859664231951853   T   T   T
  0.8494218396336494  0.5424205381024111  0.5587728500801069   T   T   T
  0.8089634402439454  0.3927299966883416  0.4222538057844518   T   T   T
  0.6886747047975933  0.5665861767173764  0.4198212370674295   T   T   T
  0.0436441283847079  0.6094887069498510  0.3454438246000315   T   T   T
  0.2068233014135505  0.5484720026546790  0.3738027047190822   T   T   T
  0.6952138552266307  0.6826114679069539  0.3377044913544831   T   T   T
  0.7995754071068297  0.7646457619848218  0.3357315049908110   T   T   T
  0.3075991328558401  0.7175823747806598  0.4431594018773448   T   T   T
  0.2079972297141000  0.9099183656400553  0.4422922141727577   T   T   T
  0.0113959923859483  0.0876469548647627  0.3255723517738883   T   T   T
  0.0175506768904677  0.0611340890351231  0.3775183548022006   T   T   T
  0.2452205691977331  0.3572894341175300  0.5128100886089909   T   T   T
  0.0808229805906467  0.4365508264319516  0.5153133481991077   T   T   T
  0.1892069716082658  0.1060401365660025  0.5956499861305601   T   T   T
  0.3315874980370006  0.0039111655508843  0.5592259594933806   T   T   T
  0.5811642396934872  0.3870510505329518  0.4266037618750301   T   T   T
  0.5429927271207942  0.2577394884994993  0.4128554806796873   T   T   T
  0.3658920130542762  0.5888885960241761  0.5795077691787320   T   T   T
  0.4600083770602210  0.4209184202940687  0.5641318803337187   T   T   T
  0.3616321830179593  0.4843789803501050  0.4310346187596877   T   T   T
  0.1811891403725744  0.5827825506668216  0.4397526063039337   T   T   T
  0.4592323249798747  0.0035196472678505  0.4475197589014062   T   T   T
  0.4505860799801609  0.8527875795139738  0.4531066900034968   T   T   T
  0.6968410421404247  0.5229398936056462  0.5027311855892298   T   T   T
  0.6117467039474189  0.5081633706235462  0.5450347364774625   T   T   T
  0.0248643438629038  0.2531655200163924  0.6467888637125139   T   T   T
  0.9086902772064492  0.2555110367016856  0.6084653384890317   T   T   T
  0.5354836346675149  0.2500458864338652  0.4930673165429333   T   T   T
  0.5848511788259790  0.1789222623322473  0.5407652006390048   T   T   T
  0.7350141662880143  0.1652094166907825  0.5939593600733140   T   T   T
  0.6344691879121751  0.3419766115868846  0.6070562286842668   T   T   T
  0.2094711731076659  0.8550300710765631  0.5579221770716044   T   T   T
  0.2543743745791166  0.7624438506035104  0.5162359407140976   T   T   T
  0.9135188219002077  0.9372869023965846  0.3520637459964853   T   T   T
  0.8802479862734974  0.8564072138705094  0.3939829813360781   T   T   T
  0.7987832329537817  0.9197835647809444  0.5494616183356361   T   T   T
  0.6299484146196556  0.9735180029974994  0.5636085874805373   T   T   T
  0.2661171121799735  0.2535663256248968  0.4033896831699175   T   T   T
  0.2059630465595264  0.2690488480281107  0.4482805436117664   T   T   T
  0.9056388482465421  0.8153579319127743  0.4697925912083856   T   T   T
  0.7735826852518258  0.8024399606685582  0.4408544246989944   T   T   T
  0.5711738759919310  0.2265405394300220  0.3472862920478641   T   T   T
  0.6768117339369745  0.0460726157376125  0.3669708263760388   T   T   T
  0.8647526522284876  0.2671634297321559  0.5242624579529167   T   T   T
  0.0376623536690982  0.1392106293319878  0.5327510185400947   T   T   T
  0.2388959443267946  0.6566331460488182  0.3286878366724296   T   T   T
  0.2028249515257551  0.8371170291481683  0.3273439858084078   T   T   T
  0.1003365787684359  0.2912323565708577  0.3345481528517591   T   T   T
  0.2008195841165525  0.3661923894408419  0.3311248823931275   T   T   T
  0.6796442479438568  0.3924203904975705  0.3003709623661178   T   T   T
  0.8263143028747344  0.3796815690458990  0.3059413414615796   T   T   T
  0.5928243855190386  0.3953903757451190  0.3321898357830981   T   T   T
  0.9198500054595232  0.3479254210085367  0.3407256805803056   T   T   T
 
  0.28310063E-03  0.17259584E-02  0.35015847E-02
  0.96820113E-03 -0.30756083E-03  0.68143309E-04
  0.38774467E-03 -0.16136823E-02  0.13283493E-02
  0.95902984E-03 -0.38462843E-03 -0.27155426E-02
  0.19763823E-02 -0.27964685E-02 -0.22160911E-02
  0.15938449E-02 -0.10480587E-02 -0.15326006E-02
  0.35965043E-02 -0.34067086E-03 -0.77309634E-03
 -0.19959242E-02 -0.61029354E-03  0.29784679E-02
  0.10400400E-02 -0.10144693E-02  0.37646961E-04
  0.21678102E-02 -0.32837232E-02  0.19909109E-02
  0.44764882E-03 -0.10541241E-02 -0.48878140E-02
 -0.99427312E-03 -0.26514805E-02  0.21499819E-02
  0.27661534E-02  0.81654143E-03  0.21476205E-02
  0.25799609E-03 -0.20687038E-02 -0.87556681E-03
  0.90804663E-03 -0.15899125E-02 -0.19516724E-02
  0.69005045E-03 -0.26743265E-03  0.24608862E-02
  0.74459742E-03  0.79120948E-03  0.69721251E-03
  0.72942665E-03 -0.14113927E-02 -0.67582209E-03
 -0.76485979E-03  0.10182606E-02 -0.33317092E-03
 -0.26139336E-03  0.34233096E-03  0.12513141E-02
  0.22710141E-02  0.30925220E-02 -0.14192381E-02
  0.26196073E-02 -0.82368746E-03  0.25596396E-02
  0.77700520E-03 -0.27127995E-02  0.12660439E-02
 -0.20256574E-02 -0.62369348E-03  0.14944981E-02
 -0.33164064E-02 -0.10741837E-02  0.11016159E-02
 -0.24922392E-02 -0.11896034E-03 -0.73475657E-03
 -0.31300009E-04  0.10889765E-02  0.18277779E-02
  0.22486679E-03 -0.14460768E-02  0.21154517E-02
  0.87159164E-03 -0.40154168E-02 -0.28538928E-02
 -0.18207496E-02  0.74473697E-03  0.26800564E-02
  0.62367121E-03  0.43886475E-03 -0.70971307E-03
 -0.30914634E-02 -0.10967832E-02 -0.50863561E-03
 -0.11687380E-02  0.15177353E-02 -0.33316721E-02
  0.29432236E-02  0.16213297E-02 -0.12575237E-02
 -0.11021402E-02  0.50218481E-03 -0.77401817E-03
 -0.93274188E-03  0.16955199E-02 -0.73918469E-03
 -0.27629139E-02 -0.38930332E-02  0.20233979E-02
  0.17032783E-02  0.13226960E-02 -0.34760039E-02
  0.35161201E-02 -0.11370452E-02  0.84059084E-03
  0.17429319E-02 -0.13551361E-02  0.30710996E-02
 -0.21666927E-02 -0.38011569E-02  0.13732692E-02
  0.35391288E-02  0.24437283E-02  0.14992647E-02
  0.44447806E-03  0.23113526E-03  0.49110593E-03
  0.32371961E-03  0.39276262E-04 -0.37558809E-04
 -0.83216762E-03  0.82943524E-03 -0.15187419E-02
 -0.16109993E-02 -0.14908465E-02 -0.14567513E-02
 -0.20555128E-02  0.41131310E-03  0.68010361E-02
 -0.32228060E-03  0.18421670E-02 -0.60112249E-03
  0.00000000E+00  0.00000000E+00  0.00000000E+00
  0.00000000E+00  0.00000000E+00  0.00000000E+00
  0.00000000E+00  0.00000000E+00  0.00000000E+00
  0.00000000E+00  0.00000000E+00  0.00000000E+00
  0.00000000E+00  0.00000000E+00  0.00000000E+00
  0.00000000E+00  0.00000000E+00  0.00000000E+00
  0.00000000E+00  0.00000000E+00  0.00000000E+00
  0.00000000E+00  0.00000000E+00  0.00000000E+00
  0.00000000E+00  0.00000000E+00  0.00000000E+00
  0.00000000E+00  0.00000000E+00  0.00000000E+00
  0.00000000E+00  0.00000000E+00  0.00000000E+00
  0.00000000E+00  0.00000000E+00  0.00000000E+00
  0.00000000E+00  0.00000000E+00  0.00000000E+00
  0.00000000E+00  0.00000000E+00  0.00000000E+00
  0.00000000E+00  0.00000000E+00  0.00000000E+00
  0.00000000E+00  0.00000000E+00  0.00000000E+00
 -0.49650362E-02  0.49287214E-04 -0.19880041E-02
  0.64092157E-03  0.20968307E-02 -0.28427429E-02
  0.21776524E-02 -0.60662325E-02 -0.83901553E-02
  0.25355655E-03 -0.26678382E-02  0.34728036E-02
 -0.37721318E-02 -0.27639956E-02  0.17982832E-02
  0.15594866E-02  0.23566130E-02 -0.33985351E-02
 -0.24760142E-03 -0.82152016E-04  0.84784135E-02
 -0.59700366E-02 -0.22316854E-02 -0.39840249E-02
 -0.50932934E-03 -0.70763368E-02 -0.59780884E-02
 -0.20147823E-02 -0.32449709E-02  0.48812669E-02
 -0.15295342E-02  0.50568746E-02  0.12196062E-02
 -0.32799632E-03  0.95290610E-02 -0.20467915E-02
  0.15259543E-02 -0.82219481E-03 -0.15191543E-02
  0.13110507E-02 -0.10246512E-02 -0.57350311E-02
 -0.53626125E-02  0.29774811E-02 -0.90543008E-02
 -0.76122297E-02  0.75538727E-03 -0.66602157E-03
  0.14873489E-02 -0.24374699E-02  0.39384312E-02
  0.27838465E-02 -0.49084981E-02 -0.68139527E-03
 -0.39530371E-02 -0.27502113E-02 -0.89556067E-03
 -0.42151140E-02 -0.13455723E-02 -0.25476422E-02
 -0.26508407E-02 -0.48413455E-02 -0.13963333E-02
  0.60706914E-02  0.51172192E-03 -0.76697736E-02
 -0.53553368E-02  0.14659329E-02  0.36959666E-02
  0.29347988E-02 -0.90854721E-03 -0.84334588E-02
 -0.39060520E-03 -0.26811173E-02  0.33566824E-02
  0.39793166E-02 -0.71461362E-02 -0.57629935E-02
 -0.26971986E-02 -0.40013887E-02 -0.29280467E-02
  0.38415002E-02 -0.38399326E-02  0.32533220E-02
  0.61683460E-02 -0.12862877E-02  0.57529802E-02
 -0.19036026E-02 -0.21068750E-02 -0.24927606E-02
 -0.14507282E-01  0.12695742E-01 -0.55759349E-02
  0.29657650E-01 -0.11764556E-01  0.23704656E-01
  0.79533288E-02  0.62694313E-02  0.13946047E-01
  0.22988933E-01 -0.17824530E-02 -0.79529530E-02
 -0.16547405E-01  0.40812257E-01 -0.39848680E-03
 -0.37941349E-01 -0.59701134E-02  0.69341189E-03
  0.22003186E-01 -0.78435407E-02 -0.93126555E-02
  0.70861751E-02 -0.14797944E-01  0.10042361E-02
 -0.86366039E-02 -0.10458567E-01 -0.26921639E-01
  0.15561242E-01  0.70668168E-02  0.79714777E-02
  0.61008536E-02 -0.39723801E-01  0.18051363E-01
  0.35707273E-01 -0.16996943E-01 -0.23282529E-01
 -0.31649919E-01  0.51430494E-02 -0.18450133E-01
 -0.13267979E-01  0.50766103E-02  0.12488649E-01
 -0.17802566E-01  0.24009225E-01  0.29607209E-01
 -0.15029502E-01 -0.53612214E-02 -0.15663903E-01
 -0.19470511E-01  0.73192962E-02  0.27558698E-02
 -0.23281257E-01 -0.35493550E-01  0.33217798E-01
 -0.27566744E-01 -0.18867042E-01 -0.24481948E-02
 -0.12679099E-01 -0.94495789E-02  0.17730177E-01
 -0.19859697E-01 -0.11339067E-01  0.65380435E-02
  0.20161650E-01 -0.16951802E-01 -0.25937212E-01
 -0.37253007E-02  0.19898678E-02 -0.86240485E-02
  0.26628823E-01  0.14665025E-01 -0.39978070E-02
  0.35194979E-02 -0.27296077E-01 -0.15573901E-01
 -0.28582174E-01 -0.25304720E-01 -0.36231166E-02
  0.54440967E-02 -0.12468393E-01 -0.10733271E-02
 -0.42866518E-02  0.13603342E-01  0.17997442E-01
  0.11242229E-01 -0.11621823E-01  0.23211915E-01
 -0.18846989E-01 -0.18198866E-01 -0.60012202E-02
 -0.11283904E-01  0.31727524E-01 -0.13855222E-01
 -0.71524235E-03  0.22114684E-01 -0.24727296E-02
 -0.14672139E-02  0.15362505E-01 -0.15072833E-01
  0.11194170E-02 -0.27169311E-02  0.34818499E-01
  0.34177039E-02 -0.33861809E-03 -0.64388721E-02
 -0.21743013E-01  0.26227459E-01 -0.10076510E-01
  0.40405781E-02 -0.13191334E-02 -0.10121092E-03
 -0.39233891E-02 -0.39186488E-02 -0.18317490E-02
  0.52007393E-02  0.10465933E-02  0.57299784E-02
  0.14975520E-01 -0.14207310E-01  0.11567719E-01
  0.11656038E-02  0.16495380E-01 -0.50839333E-03
 -0.26414465E-01 -0.71906060E-02 -0.13462418E-01
 -0.87525163E-02 -0.14551816E-01 -0.10353274E-01
  0.17721283E-01  0.98374338E-02  0.32167654E-01
 -0.52776844E-02 -0.14003894E-02 -0.95602699E-02
  0.11560479E-01  0.21449047E-01 -0.11944912E-01
  0.19814717E-01  0.58427512E-02 -0.90179897E-02
  0.26340691E-02 -0.22892542E-01  0.38891542E-02
  0.17257806E-01  0.15807544E-01  0.18224707E-01
  0.35287129E-02  0.29642197E-03  0.15870444E-01
 -0.21737680E-01 -0.11884741E-01  0.38439511E-01
  0.25465044E-02  0.75656961E-02  0.16727193E-02
  0.12157740E-02  0.12823458E-01 -0.67601052E-03
  0.53859686E-02 -0.24266472E-01 -0.25192271E-03
  0.88935467E-02  0.31588537E-01 -0.39595330E-02
 -0.19968981E-01 -0.14835959E-01  0.65462984E-02
  0.78736442E-02  0.70916716E-02  0.37329705E-01
  0.34388736E-01  0.35823978E-02 -0.11971064E-02
 -0.90088383E-02  0.18026814E-01  0.24440639E-01
  0.80826288E-02  0.87931400E-03 -0.30510939E-02
  0.17976316E-02  0.92744177E-02  0.36589903E-02
  0.13713383E-02  0.54590063E-02  0.14747026E-02
  0.10191429E-02 -0.44213244E-03 -0.50846686E-02
  0.42799489E-02 -0.55937264E-02 -0.17348321E-02
 
           1
   1.00000000000000     
  0.17393904E-01 -0.14555676E-01 -0.14537120E-01  0.31940302E-01
  0.75916188E-01  0.96583422E-01  0.12426889E+00
  0.32951971E+00  0.92845146E-01  0.12097230E+00
  0.34600180E+00  0.83838160E+00  0.12114782E+00
  0.58742234E+00  0.33153436E+00  0.12043723E+00
  0.34035057E+00  0.58405791E+00  0.11851777E+00
  0.33282096E+00  0.33519603E+00  0.11793506E+00
  0.84162962E+00  0.77342709E-01  0.12176690E+00
  0.57684531E+00  0.87987817E-01  0.12075437E+00
  0.83439701E+00  0.34473336E+00  0.12114724E+00
  0.59212201E+00  0.59158622E+00  0.11682552E+00
  0.84456657E-01  0.83927330E+00  0.11688180E+00
  0.58294161E+00  0.84657971E+00  0.11988113E+00
  0.84863387E-01  0.33620478E+00  0.11988863E+00
  0.82801861E+00  0.60376075E+00  0.12327133E+00
  0.84882275E-01  0.59183607E+00  0.11987101E+00
  0.82809469E+00  0.84456777E+00  0.11946703E+00
  0.15501705E+00  0.17832608E+00  0.18919682E+00
  0.16503152E+00  0.92134304E+00  0.18831922E+00
  0.40691184E+00  0.18280548E+00  0.18746654E+00
  0.40627591E+00  0.93608369E+00  0.18880955E+00
  0.40081167E+00  0.43592684E+00  0.18165762E+00
  0.41866932E+00  0.67113505E+00  0.18287580E+00
  0.90795080E+00  0.17544641E+00  0.18668413E+00
  0.65505566E+00  0.16589653E+00  0.18613629E+00
  0.65576562E+00  0.41694039E+00  0.18525104E+00
  0.16016265E+00  0.68261910E+00  0.18545494E+00
  0.91658322E+00  0.42911878E+00  0.18282581E+00
  0.66602452E+00  0.66848745E+00  0.18758668E+00
  0.92071183E+00  0.91663420E+00  0.18702830E+00
  0.66233853E+00  0.91157047E+00  0.18894490E+00
  0.16437468E+00  0.42129300E+00  0.18466652E+00
  0.92025944E+00  0.68226871E+00  0.18568760E+00
  0.24268139E+00  0.65322628E-02  0.25365923E+00
  0.49980159E+00  0.24925356E+00  0.25116228E+00
  0.50827605E+00  0.49759099E+00  0.25130385E+00
  0.24703275E+00  0.25845899E+00  0.26162196E+00
  0.98608403E+00  0.27423941E+00  0.25305462E+00
  0.75274624E+00  0.25132619E+00  0.25651818E+00
  0.50126190E+00  0.75445664E+00  0.25279913E+00
  0.26775186E+00  0.74344973E+00  0.25079294E+00
  0.49972809E+00  0.99478705E+00  0.25297553E+00
  0.23778122E-02  0.48527812E-02  0.25137328E+00
  0.24642599E+00  0.49832348E+00  0.24731905E+00
  0.74554488E+00  0.50961682E+00  0.25343782E+00
  0.75267938E+00  0.99310469E+00  0.25254635E+00
  0.99234522E+00  0.75756408E+00  0.25454161E+00
  0.74778254E+00  0.74691208E+00  0.25825051E+00
  0.95212787E-02  0.50433864E+00  0.24703381E+00
  0.24880999E+00  0.18900000E-02  0.53072590E-01
  0.49865999E+00  0.25202998E+00  0.53072590E-01
  0.49871007E+00  0.50195001E+00  0.53072590E-01
  0.24866999E+00  0.25196001E+00  0.53072590E-01
  0.99883002E+00  0.25200001E+00  0.53072590E-01
  0.74870005E+00  0.25212000E+00  0.53072590E-01
  0.49868997E+00  0.75209997E+00  0.53072590E-01
  0.24876996E+00  0.75212003E+00  0.53072590E-01
  0.49859998E+00  0.21100000E-02  0.53072590E-01
  0.99877003E+00  0.22100000E-02  0.53072590E-01
  0.24875001E+00  0.50212003E+00  0.53072590E-01
  0.74866999E+00  0.50226998E+00  0.53072590E-01
  0.74859000E+00  0.24500000E-02  0.53072590E-01
  0.99870005E+00  0.75244997E+00  0.53072590E-01
  0.74866993E+00  0.75243003E+00  0.53072590E-01
  0.99868996E+00  0.50220002E+00  0.53072590E-01
  0.95187197E+00  0.78852886E+00  0.51966626E+00
  0.52824323E+00  0.88223439E+00  0.54272274E+00
  0.57493087E+00  0.64873743E+00  0.37579575E+00
  0.49805723E-01  0.85694228E-01  0.43092428E+00
  0.41288789E+00  0.94915504E+00  0.35754369E+00
  0.94723363E+00  0.54524906E+00  0.56624616E+00
  0.74483415E+00  0.48321500E+00  0.44162581E+00
  0.16246987E+00  0.55031031E+00  0.34317535E+00
  0.77464612E+00  0.69418430E+00  0.32044519E+00
  0.30117319E+00  0.81228699E+00  0.45675823E+00
  0.23220113E-01  0.15107111E-01  0.34897097E+00
  0.15742785E+00  0.40680046E+00  0.49187096E+00
  0.21478102E+00  0.50183994E-01  0.56708743E+00
  0.52740342E+00  0.33200402E+00  0.43671417E+00
  0.47003384E+00  0.49910453E+00  0.58116911E+00
  0.26174921E+00  0.58531967E+00  0.42276392E+00
  0.52531615E+00  0.89523287E+00  0.45706779E+00
  0.68291734E+00  0.54078996E+00  0.53352581E+00
  0.99276707E+00  0.27879304E+00  0.61640441E+00
  0.49606565E+00  0.26631553E+00  0.52404173E+00
  0.74363502E+00  0.25609293E+00  0.60271690E+00
  0.21455212E+00  0.76063489E+00  0.54563035E+00
  0.85350892E+00  0.88875449E+00  0.36190822E+00
  0.71390274E+00  0.26541290E-03  0.56917665E+00
  0.25837609E+00  0.18783250E+00  0.42667343E+00
  0.84627940E+00  0.84263505E+00  0.44167421E+00
  0.56942139E+00  0.14871161E+00  0.36817849E+00
  0.95245609E+00  0.16045627E+00  0.51267857E+00
  0.27979119E+00  0.73021329E+00  0.31873355E+00
  0.21527248E+00  0.26054090E+00  0.33195153E+00
  0.52047162E-01  0.78577137E+00  0.52817787E+00
  0.96962112E+00  0.69091328E+00  0.53272359E+00
  0.53382688E+00  0.88048649E+00  0.50959396E+00
  0.57344926E+00  0.77586557E+00  0.55350626E+00
  0.49850765E+00  0.76730110E+00  0.38384339E+00
  0.51568555E+00  0.60180819E+00  0.36234867E+00
  0.70196579E-02  0.12729576E+00  0.46044283E+00
  0.12238716E+00  0.13122876E+00  0.42656018E+00
  0.45727172E+00  0.92016361E+00  0.32717935E+00
  0.42939515E+00  0.41996268E-01  0.36307082E+00
  0.99501810E+00  0.45013531E+00  0.58596642E+00
  0.84942184E+00  0.54242054E+00  0.55877285E+00
  0.80896344E+00  0.39273000E+00  0.42225381E+00
  0.68867470E+00  0.56658618E+00  0.41982124E+00
  0.43644128E-01  0.60948871E+00  0.34544382E+00
  0.20682330E+00  0.54847200E+00  0.37380270E+00
  0.69521386E+00  0.68261147E+00  0.33770449E+00
  0.79957541E+00  0.76464576E+00  0.33573150E+00
  0.30759913E+00  0.71758237E+00  0.44315940E+00
  0.20799723E+00  0.90991837E+00  0.44229221E+00
  0.11395992E-01  0.87646955E-01  0.32557235E+00
  0.17550677E-01  0.61134089E-01  0.37751835E+00
  0.24522057E+00  0.35728943E+00  0.51281009E+00
  0.80822981E-01  0.43655083E+00  0.51531335E+00
  0.18920697E+00  0.10604014E+00  0.59564999E+00
  0.33158750E+00  0.39111656E-02  0.55922596E+00
  0.58116424E+00  0.38705105E+00  0.42660376E+00
  0.54299273E+00  0.25773949E+00  0.41285548E+00
  0.36589201E+00  0.58888860E+00  0.57950777E+00
  0.46000838E+00  0.42091842E+00  0.56413188E+00
  0.36163218E+00  0.48437898E+00  0.43103462E+00
  0.18118914E+00  0.58278255E+00  0.43975261E+00
  0.45923232E+00  0.35196473E-02  0.44751976E+00
  0.45058608E+00  0.85278758E+00  0.45310669E+00
  0.69684104E+00  0.52293989E+00  0.50273119E+00
  0.61174670E+00  0.50816337E+00  0.54503474E+00
  0.24864344E-01  0.25316552E+00  0.64678886E+00
  0.90869028E+00  0.25551104E+00  0.60846534E+00
  0.53548363E+00  0.25004589E+00  0.49306732E+00
  0.58485118E+00  0.17892226E+00  0.54076520E+00
  0.73501417E+00  0.16520942E+00  0.59395936E+00
  0.63446919E+00  0.34197661E+00  0.60705623E+00
  0.20947117E+00  0.85503007E+00  0.55792218E+00
  0.25437437E+00  0.76244385E+00  0.51623594E+00
  0.91351882E+00  0.93728690E+00  0.35206375E+00
  0.88024799E+00  0.85640721E+00  0.39398298E+00
  0.79878323E+00  0.91978356E+00  0.54946162E+00
  0.62994841E+00  0.97351800E+00  0.56360859E+00
  0.26611711E+00  0.25356633E+00  0.40338968E+00
  0.20596305E+00  0.26904885E+00  0.44828054E+00
  0.90563885E+00  0.81535793E+00  0.46979259E+00
  0.77358269E+00  0.80243996E+00  0.44085442E+00
  0.57117388E+00  0.22654054E+00  0.34728629E+00
  0.67681173E+00  0.46072616E-01  0.36697083E+00
  0.86475265E+00  0.26716343E+00  0.52426246E+00
  0.37662354E-01  0.13921063E+00  0.53275102E+00
  0.23889594E+00  0.65663315E+00  0.32868784E+00
  0.20282495E+00  0.83711703E+00  0.32734399E+00
  0.10033658E+00  0.29123236E+00  0.33454815E+00
  0.20081958E+00  0.36619239E+00  0.33112488E+00
  0.67964425E+00  0.39242039E+00  0.30037096E+00
  0.82631430E+00  0.37968157E+00  0.30594134E+00
  0.59282439E+00  0.39539038E+00  0.33218984E+00
  0.91985001E+00  0.34792542E+00  0.34072568E+00
  0.00000000E+00  0.00000000E+00  0.00000000E+00
  0.00000000E+00  0.00000000E+00  0.00000000E+00
  0.00000000E+00  0.00000000E+00  0.00000000E+00
  0.00000000E+00  0.00000000E+00  0.00000000E+00
  0.00000000E+00  0.00000000E+00  0.00000000E+00
  0.00000000E+00  0.00000000E+00  0.00000000E+00
  0.00000000E+00  0.00000000E+00  0.00000000E+00
  0.00000000E+00  0.00000000E+00  0.00000000E+00
  0.00000000E+00  0.00000000E+00  0.00000000E+00
  0.00000000E+00  0.00000000E+00  0.00000000E+00
  0.00000000E+00  0.00000000E+00  0.00000000E+00
  0.00000000E+00  0.00000000E+00  0.00000000E+00
  0.00000000E+00  0.00000000E+00  0.00000000E+00
  0.00000000E+00  0.00000000E+00  0.00000000E+00
  0.00000000E+00  0.00000000E+00  0.00000000E+00
  0.00000000E+00  0.00000000E+00  0.00000000E+00
  0.00000000E+00  0.00000000E+00  0.00000000E+00
  0.00000000E+00  0.00000000E+00  0.00000000E+00
  0.00000000E+00  0.00000000E+00  0.00000000E+00
  0.00000000E+00  0.00000000E+00  0.00000000E+00
  0.00000000E+00  0.00000000E+00  0.00000000E+00
  0.00000000E+00  0.00000000E+00  0.00000000E+00
  0.00000000E+00  0.00000000E+00  0.00000000E+00
  0.00000000E+00  0.00000000E+00  0.00000000E+00
  0.00000000E+00  0.00000000E+00  0.00000000E+00
  0.00000000E+00  0.00000000E+00  0.00000000E+00
  0.00000000E+00  0.00000000E+00  0.00000000E+00
  0.00000000E+00  0.00000000E+00  0.00000000E+00
  0.00000000E+00  0.00000000E+00  0.00000000E+00
  0.00000000E+00  0.00000000E+00  0.00000000E+00
  0.00000000E+00  0.00000000E+00  0.00000000E+00
  0.00000000E+00  0.00000000E+00  0.00000000E+00
  0.00000000E+00  0.00000000E+00  0.00000000E+00
  0.00000000E+00  0.00000000E+00  0.00000000E+00
  0.00000000E+00  0.00000000E+00  0.00000000E+00
  0.00000000E+00  0.00000000E+00  0.00000000E+00
  0.00000000E+00  0.00000000E+00  0.00000000E+00
  0.00000000E+00  0.00000000E+00  0.00000000E+00
  0.00000000E+00  0.00000000E+00  0.00000000E+00
  0.00000000E+00  0.00000000E+00  0.00000000E+00
  0.00000000E+00  0.00000000E+00  0.00000000E+00
  0.00000000E+00  0.00000000E+00  0.00000000E+00
  0.00000000E+00  0.00000000E+00  0.00000000E+00
  0.00000000E+00  0.00000000E+00  0.00000000E+00
  0.00000000E+00  0.00000000E+00  0.00000000E+00
  0.00000000E+00  0.00000000E+00  0.00000000E+00
  0.00000000E+00  0.00000000E+00  0.00000000E+00
  0.00000000E+00  0.00000000E+00  0.00000000E+00
  0.00000000E+00  0.00000000E+00  0.00000000E+00
  0.00000000E+00  0.00000000E+00  0.00000000E+00
  0.00000000E+00  0.00000000E+00  0.00000000E+00