Ru                                      
   1.00000000000000     
    10.7043999999999997    0.0000000000000000    0.0000000000000007
    -5.3521999999999990    9.2702823322701455    0.0000000000000007
     0.0000000000000000    0.0000000000000000   16.4502999999999986
   Ru   C    O 
    64     1     1
Selective dynamics
Direct
  0.0833299999999966  0.1666700000000034  0.0000000000000000   F   F   F
  0.0831762240505080  0.1663492062433389  0.2617705460773584   T   T   T
  0.1666700000000034  0.0833299999999966  0.1306999999999974   F   F   F
  0.1683053627502643  0.0843961604268214  0.3883641078613493   T   T   T
  0.3333332999999996  0.1666700000000034  0.0000000000000000   F   F   F
  0.3335881722959660  0.1669732077112744  0.2611963438891671   T   T   T
  0.4166700000000034  0.0833299999999966  0.1306999999999974   F   F   F
  0.4165984792793049  0.0830509507493947  0.3879784258418407   T   T   T
  0.5833299999999966  0.1666700000000034  0.0000000000000000   F   F   F
  0.5833214801813785  0.1666320590575718  0.2613762208005641   T   T   T
  0.6666667000000004  0.0833299999999966  0.1306999999999974   F   F   F
  0.6664726765072401  0.0830482500386756  0.3879743169269086   T   T   T
  0.8333299999999966  0.1666700000000034  0.0000000000000000   F   F   F
  0.8333844017015376  0.1669675852380299  0.2611945475756597   T   T   T
  0.9166700000000034  0.0833299999999966  0.1306999999999974   F   F   F
  0.9161049278188591  0.0844020627244703  0.3883601610636803   T   T   T
  0.0833299999999966  0.4166700000000034  0.0000000000000000   F   F   F
  0.0837191982597366  0.4172261545792638  0.2616021311551403   T   T   T
  0.1666700000000034  0.3333332999999996  0.1306999999999974   F   F   F
  0.1651010247624296  0.3301884329753282  0.3881644181964919   T   T   T
  0.3333332999999996  0.4166700000000034  0.0000000000000000   F   F   F
  0.3335114587772544  0.4172217714852568  0.2616030141077518   T   T   T
  0.4166700000000034  0.3333332999999996  0.1306999999999974   F   F   F
  0.4165277268131146  0.3340630706601081  0.3880257039932448   T   T   T
  0.5833299999999966  0.4166700000000034  0.0000000000000000   F   F   F
  0.5832824985095895  0.4168737747420853  0.2614165301898848   T   T   T
  0.6666667000000004  0.3333332999999996  0.1306999999999974   F   F   F
  0.6667898989585668  0.3335682107101168  0.3884819464243917   T   T   T
  0.8333299999999966  0.4166700000000034  0.0000000000000000   F   F   F
  0.8336065672122581  0.4168804355573400  0.2614151132410783   T   T   T
  0.9166700000000034  0.3333332999999996  0.1306999999999974   F   F   F
  0.9175485497262850  0.3340602491326239  0.3880256675337113   T   T   T
  0.0833299999999966  0.6666667000000004  0.0000000000000000   F   F   F
  0.0836247501866747  0.6666566326261084  0.2616425913915743   T   T   T
  0.1666700000000034  0.5833299999999966  0.1306999999999974   F   F   F
  0.1624605021000719  0.5814026626620922  0.3925437533028284   T   T   T
  0.3333332999999996  0.6666667000000004  0.0000000000000000   F   F   F
  0.3334267510641158  0.6668371786771585  0.2624368507829564   T   T   T
  0.4166700000000034  0.5833299999999966  0.1306999999999974   F   F   F
  0.4189565625680489  0.5814098046127507  0.3925446945821746   T   T   T
  0.5833299999999966  0.6666667000000004  0.0000000000000000   F   F   F
  0.5830468095550422  0.6666549579357869  0.2616427888032182   T   T   T
  0.6666667000000004  0.5833299999999966  0.1306999999999974   F   F   F
  0.6663182712926610  0.5837957745947410  0.3880187509896067   T   T   T
  0.8333299999999966  0.6666667000000004  0.0000000000000000   F   F   F
  0.8332934574793383  0.6666121805277905  0.2612337438987275   T   T   T
  0.9166700000000034  0.5833299999999966  0.1306999999999974   F   F   F
  0.9174999633866620  0.5838044600659589  0.3880204409458723   T   T   T
  0.0833299999999966  0.9166700000000034  0.0000000000000000   F   F   F
  0.0831188909990004  0.9170673281873408  0.2617422933068517   T   T   T
  0.1666700000000034  0.8333299999999966  0.1306999999999974   F   F   F
  0.1651014739076798  0.8353653227599597  0.3880801678213734   T   T   T
  0.3333332999999996  0.9166700000000034  0.0000000000000000   F   F   F
  0.3334876501930235  0.9165856602546819  0.2615537107007719   T   T   T
  0.4166700000000034  0.8333299999999966  0.1306999999999974   F   F   F
  0.4191933165866267  0.8383783753250613  0.3922504675134751   T   T   T
  0.5833299999999966  0.9166700000000034  0.0000000000000000   F   F   F
  0.5831097114315401  0.9165793144125978  0.2615587891457052   T   T   T
  0.6666667000000004  0.8333299999999966  0.1306999999999974   F   F   F
  0.6702783114707486  0.8353627294723442  0.3880770331500166   T   T   T
  0.8333299999999966  0.9166700000000034  0.0000000000000000   F   F   F
  0.8339570877054056  0.9170656023085567  0.2617413913717439   T   T   T
  0.9166700000000034  0.8333299999999966  0.1306999999999974   F   F   F
  0.9161111627403871  0.8322154656841259  0.3883459926513063   T   T   T
  0.3339316883817378  0.6677902671232486  0.4776734882517157   T   T   T
  0.3349382759011174  0.6698213357356839  0.5508627962925787   T   T   T
 
  0.00000000E+00  0.00000000E+00  0.00000000E+00
  0.00000000E+00  0.00000000E+00  0.00000000E+00
  0.00000000E+00  0.00000000E+00  0.00000000E+00
  0.00000000E+00  0.00000000E+00  0.00000000E+00
  0.00000000E+00  0.00000000E+00  0.00000000E+00
  0.00000000E+00  0.00000000E+00  0.00000000E+00
  0.00000000E+00  0.00000000E+00  0.00000000E+00
  0.00000000E+00  0.00000000E+00  0.00000000E+00
  0.00000000E+00  0.00000000E+00  0.00000000E+00
  0.00000000E+00  0.00000000E+00  0.00000000E+00
  0.00000000E+00  0.00000000E+00  0.00000000E+00
  0.00000000E+00  0.00000000E+00  0.00000000E+00
  0.00000000E+00  0.00000000E+00  0.00000000E+00
  0.00000000E+00  0.00000000E+00  0.00000000E+00
  0.00000000E+00  0.00000000E+00  0.00000000E+00
  0.00000000E+00  0.00000000E+00  0.00000000E+00
  0.00000000E+00  0.00000000E+00  0.00000000E+00
  0.00000000E+00  0.00000000E+00  0.00000000E+00
  0.00000000E+00  0.00000000E+00  0.00000000E+00
  0.00000000E+00  0.00000000E+00  0.00000000E+00
  0.00000000E+00  0.00000000E+00  0.00000000E+00
  0.00000000E+00  0.00000000E+00  0.00000000E+00
  0.00000000E+00  0.00000000E+00  0.00000000E+00
  0.00000000E+00  0.00000000E+00  0.00000000E+00
  0.00000000E+00  0.00000000E+00  0.00000000E+00
  0.00000000E+00  0.00000000E+00  0.00000000E+00
  0.00000000E+00  0.00000000E+00  0.00000000E+00
  0.00000000E+00  0.00000000E+00  0.00000000E+00
  0.00000000E+00  0.00000000E+00  0.00000000E+00
  0.00000000E+00  0.00000000E+00  0.00000000E+00
  0.00000000E+00  0.00000000E+00  0.00000000E+00
  0.00000000E+00  0.00000000E+00  0.00000000E+00
  0.00000000E+00  0.00000000E+00  0.00000000E+00
  0.00000000E+00  0.00000000E+00  0.00000000E+00
  0.00000000E+00  0.00000000E+00  0.00000000E+00
  0.00000000E+00  0.00000000E+00  0.00000000E+00
  0.00000000E+00  0.00000000E+00  0.00000000E+00
  0.00000000E+00  0.00000000E+00  0.00000000E+00
  0.00000000E+00  0.00000000E+00  0.00000000E+00
  0.00000000E+00  0.00000000E+00  0.00000000E+00
  0.00000000E+00  0.00000000E+00  0.00000000E+00
  0.00000000E+00  0.00000000E+00  0.00000000E+00
  0.00000000E+00  0.00000000E+00  0.00000000E+00
  0.00000000E+00  0.00000000E+00  0.00000000E+00
  0.00000000E+00  0.00000000E+00  0.00000000E+00
  0.00000000E+00  0.00000000E+00  0.00000000E+00
  0.00000000E+00  0.00000000E+00  0.00000000E+00
  0.00000000E+00  0.00000000E+00  0.00000000E+00
  0.00000000E+00  0.00000000E+00  0.00000000E+00
  0.00000000E+00  0.00000000E+00  0.00000000E+00
  0.00000000E+00  0.00000000E+00  0.00000000E+00
  0.00000000E+00  0.00000000E+00  0.00000000E+00
  0.00000000E+00  0.00000000E+00  0.00000000E+00
  0.00000000E+00  0.00000000E+00  0.00000000E+00
  0.00000000E+00  0.00000000E+00  0.00000000E+00
  0.00000000E+00  0.00000000E+00  0.00000000E+00
  0.00000000E+00  0.00000000E+00  0.00000000E+00
  0.00000000E+00  0.00000000E+00  0.00000000E+00
  0.00000000E+00  0.00000000E+00  0.00000000E+00
  0.00000000E+00  0.00000000E+00  0.00000000E+00
  0.00000000E+00  0.00000000E+00  0.00000000E+00
  0.00000000E+00  0.00000000E+00  0.00000000E+00
  0.00000000E+00  0.00000000E+00  0.00000000E+00
  0.00000000E+00  0.00000000E+00  0.00000000E+00
  0.00000000E+00  0.00000000E+00  0.00000000E+00
  0.00000000E+00  0.00000000E+00  0.00000000E+00
