 Ni\(1\1\1)                             
   1.00000000000000     
     9.8291997910000006    0.0000000000000000    0.0000000000000000
     4.9145998955000003    8.5123367178000002    0.0000000000000000
     0.0000000000000000    0.0000000000000000   19.0128002167000005
   Ni   O    C    O    C 
    64     3     1     2     1
Selective dynamics
Direct
  0.8334596779681022  0.5846010193825617  0.2712409306846830   T   T   T
  0.3328733315291006  0.0849948859648670  0.2703380045377922   T   T   T
  0.8336227885590730  0.0852965062442642  0.2712296012500658   T   T   T
  0.3334132489263364  0.5849084554362357  0.2710173598725900   T   T   T
  0.5833034732295330  0.8351965999595163  0.2704280815869952   T   T   T
  0.8334645243533858  0.8348319829330635  0.2705017320667301   T   T   T
  0.0832249649555527  0.3346180529984256  0.2708223494201956   T   T   T
  0.8332179051623039  0.3344547666611796  0.2720444847426339   T   T   T
  0.5833043981422176  0.5841510283140613  0.2716630119432202   T   T   T
  0.0829416405484334  0.5848828305578615  0.2708930224870978   T   T   T
  0.0822401380786534  0.0858066435514044  0.2709650490328194   T   T   T
  0.5837040350346074  0.0850806445261551  0.2711941825573723   T   T   T
  0.3339508528459096  0.8343786006968926  0.2705616837579954   T   T   T
  0.0831349078248650  0.8349326992245607  0.2704199181713353   T   T   T
  0.3333001100332253  0.3352709254546680  0.2711608575704478   T   T   T
  0.5831442544132863  0.3345129245543536  0.2718158035893896   T   T   T
  0.9171520558590092  0.6669419181719843  0.3756104363308416   T   T   T
  0.9182585623613148  0.4172888659125635  0.3764518862152106   T   T   T
  0.6660208459226463  0.6687153340087238  0.3746482043090171   T   T   T
  0.1662833913581386  0.1682078374827753  0.3764601220006809   T   T   T
  0.9172675266727081  0.1690392875546404  0.3791570458564672   T   T   T
  0.9173237221723326  0.9183570815267141  0.3755549419523992   T   T   T
  0.4165150172714284  0.9184948986595666  0.3752937326845763   T   T   T
  0.4170569739561505  0.1680769835716683  0.3752053492951281   T   T   T
  0.6680880507473825  0.1684917837501560  0.3773291653218398   T   T   T
  0.1669949547014660  0.6680726869238167  0.3755001863203686   T   T   T
  0.4163042052048507  0.6679151811859142  0.3771196999516419   T   T   T
  0.4169627782615717  0.4186945209155182  0.3772936538352298   T   T   T
  0.6669655948234255  0.9192353171279274  0.3765975369793618   T   T   T
  0.1672885562292624  0.4174346907893476  0.3773077543501263   T   T   T
  0.6660420345233672  0.4171648133656271  0.3782963408701784   T   T   T
  0.1669040714658680  0.9182872496701842  0.3773437070790935   T   T   T
  0.0024253542679945  0.2530677627096177  0.4855592524434848   T   T   T
  0.4999968476602887  0.2487550291570625  0.4796738333349239   T   T   T
  0.9978404618538589  0.7472847384185277  0.4797249170791020   T   T   T
  0.5039677046781618  0.7505786519530440  0.4796626212654992   T   T   T
  0.7505312810007614  0.7523154939559924  0.4797397322443939   T   T   T
  0.0009035443980153  0.5005172999937121  0.4855061038789807   T   T   T
  0.7536254543421818  0.5087337259094030  0.4809319668538423   T   T   T
  0.2510968030324001 -0.0028130385669889  0.4843814719441830   T   T   T
  0.0056718251100429  0.9968548238298125  0.4844633427461216   T   T   T
  0.5060700828828042  0.9970479207211776  0.4846151148788703   T   T   T
  0.2460352893681866  0.7563446102951047  0.4846043421173101   T   T   T
  0.7496969076825127  0.9951965320123274  0.4848125109890060   T   T   T
  0.2535429381957813  0.2515830157453859  0.4836868493101542   T   T   T
  0.7497322208573294  0.2497376775800315  0.4952305745389029   T   T   T
  0.2450889712130515  0.4989568258733705  0.4844909428300276   T   T   T
  0.4946615667064441  0.5038513192330247  0.4940161434458090   T   T   T
  0.9970724670000024  0.2558556729999992  0.1637003960000030   F   F   F
  0.4999617989999976  0.2500875830000027  0.1643123180000003   F   F   F
  0.9968841629999972  0.7476992069999966  0.1643590660000029   F   F   F
  0.5054474789999972  0.7476858750000019  0.1651548480000002   F   F   F
  0.7507219769999978  0.7486395119999969  0.1651830500000031   F   F   F
  0.9979410790000003  0.5014025589999989  0.1651978470000017   F   F   F
  0.7507272960000009  0.5014379059999996  0.1654730480000026   F   F   F
  0.2484077359999972  0.9989653640000000  0.1655050250000016   F   F   F
  0.0026835399999996  0.9989392600000002  0.1655775309999967   F   F   F
  0.5037179199999997  0.9979203070000011  0.1655856309999990   F   F   F
  0.2483221529999966  0.7533767729999994  0.1658259459999982   F   F   F
  0.7484137009999969  0.9978805350000002  0.1658943890000018   F   F   F
  0.2473094730000014  0.2543786680000011  0.1660089160000027   F   F   F
  0.7483561820000020  0.2543461500000035  0.1660180820000008   F   F   F
  0.2472921950000000  0.4989472700000022  0.1662971330000005   F   F   F
  0.5037960519999984  0.4989156760000029  0.1664085250000014   F   F   F
  0.3374122535619789  0.0809225024921842  0.5437232039561586   T   T   T
  0.8431317597369854  0.0651075312128728  0.5462391104320808   T   T   T
  0.3116519591316673  0.5943782415020924  0.5463697567880186   T   T   T
  0.9989447727282601  0.4334742364332759  0.5873623542222887   T   T   T
  0.9889334739963296  0.5392304702423399  0.6234762464191520   T   T   T
  0.0099133946469711  0.3014909481209904  0.5896943698998512   T   T   T
  0.6736214348937908  0.4321187005571209  0.5395794155445259   T   T   T
 
  0.00000000E+00  0.00000000E+00  0.00000000E+00
  0.00000000E+00  0.00000000E+00  0.00000000E+00
  0.00000000E+00  0.00000000E+00  0.00000000E+00
  0.00000000E+00  0.00000000E+00  0.00000000E+00
  0.00000000E+00  0.00000000E+00  0.00000000E+00
  0.00000000E+00  0.00000000E+00  0.00000000E+00
  0.00000000E+00  0.00000000E+00  0.00000000E+00
  0.00000000E+00  0.00000000E+00  0.00000000E+00
  0.00000000E+00  0.00000000E+00  0.00000000E+00
  0.00000000E+00  0.00000000E+00  0.00000000E+00
  0.00000000E+00  0.00000000E+00  0.00000000E+00
  0.00000000E+00  0.00000000E+00  0.00000000E+00
  0.00000000E+00  0.00000000E+00  0.00000000E+00
  0.00000000E+00  0.00000000E+00  0.00000000E+00
  0.00000000E+00  0.00000000E+00  0.00000000E+00
  0.00000000E+00  0.00000000E+00  0.00000000E+00
  0.00000000E+00  0.00000000E+00  0.00000000E+00
  0.00000000E+00  0.00000000E+00  0.00000000E+00
  0.00000000E+00  0.00000000E+00  0.00000000E+00
  0.00000000E+00  0.00000000E+00  0.00000000E+00
  0.00000000E+00  0.00000000E+00  0.00000000E+00
  0.00000000E+00  0.00000000E+00  0.00000000E+00
  0.00000000E+00  0.00000000E+00  0.00000000E+00
  0.00000000E+00  0.00000000E+00  0.00000000E+00
  0.00000000E+00  0.00000000E+00  0.00000000E+00
  0.00000000E+00  0.00000000E+00  0.00000000E+00
  0.00000000E+00  0.00000000E+00  0.00000000E+00
  0.00000000E+00  0.00000000E+00  0.00000000E+00
  0.00000000E+00  0.00000000E+00  0.00000000E+00
  0.00000000E+00  0.00000000E+00  0.00000000E+00
  0.00000000E+00  0.00000000E+00  0.00000000E+00
  0.00000000E+00  0.00000000E+00  0.00000000E+00
  0.00000000E+00  0.00000000E+00  0.00000000E+00
  0.00000000E+00  0.00000000E+00  0.00000000E+00
  0.00000000E+00  0.00000000E+00  0.00000000E+00
  0.00000000E+00  0.00000000E+00  0.00000000E+00
  0.00000000E+00  0.00000000E+00  0.00000000E+00
  0.00000000E+00  0.00000000E+00  0.00000000E+00
  0.00000000E+00  0.00000000E+00  0.00000000E+00
  0.00000000E+00  0.00000000E+00  0.00000000E+00
  0.00000000E+00  0.00000000E+00  0.00000000E+00
  0.00000000E+00  0.00000000E+00  0.00000000E+00
  0.00000000E+00  0.00000000E+00  0.00000000E+00
  0.00000000E+00  0.00000000E+00  0.00000000E+00
  0.00000000E+00  0.00000000E+00  0.00000000E+00
  0.00000000E+00  0.00000000E+00  0.00000000E+00
  0.00000000E+00  0.00000000E+00  0.00000000E+00
  0.00000000E+00  0.00000000E+00  0.00000000E+00
  0.00000000E+00  0.00000000E+00  0.00000000E+00
  0.00000000E+00  0.00000000E+00  0.00000000E+00
  0.00000000E+00  0.00000000E+00  0.00000000E+00
  0.00000000E+00  0.00000000E+00  0.00000000E+00
  0.00000000E+00  0.00000000E+00  0.00000000E+00
  0.00000000E+00  0.00000000E+00  0.00000000E+00
  0.00000000E+00  0.00000000E+00  0.00000000E+00
  0.00000000E+00  0.00000000E+00  0.00000000E+00
  0.00000000E+00  0.00000000E+00  0.00000000E+00
  0.00000000E+00  0.00000000E+00  0.00000000E+00
  0.00000000E+00  0.00000000E+00  0.00000000E+00
  0.00000000E+00  0.00000000E+00  0.00000000E+00
  0.00000000E+00  0.00000000E+00  0.00000000E+00
  0.00000000E+00  0.00000000E+00  0.00000000E+00
  0.00000000E+00  0.00000000E+00  0.00000000E+00
  0.00000000E+00  0.00000000E+00  0.00000000E+00
  0.00000000E+00  0.00000000E+00  0.00000000E+00
  0.00000000E+00  0.00000000E+00  0.00000000E+00
  0.00000000E+00  0.00000000E+00  0.00000000E+00
  0.00000000E+00  0.00000000E+00  0.00000000E+00
  0.00000000E+00  0.00000000E+00  0.00000000E+00
  0.00000000E+00  0.00000000E+00  0.00000000E+00
  0.00000000E+00  0.00000000E+00  0.00000000E+00
