Ni_CO2COH
   1.00000000000000     
     9.8291997910000006    0.0000000000000000    0.0000000000000000
     4.9145998955000003    8.5123367178000002    0.0000000000000000
     0.0000000000000000    0.0000000000000000   19.0128002167000005
   Ni   O    C    H 
    64     3     2     1
Selective dynamics
Direct
      0.8320580939623007      0.5868338509359229      0.2715352154118311   T T T
      0.3312823485858755      0.0873369481571952      0.2706408628154036   T T T
      0.8320318631717709      0.0875168926812940      0.2715493106792956   T T T
      0.3313791651779707      0.5873616163313605      0.2706804695839112   T T T
      0.5815839939374696      0.8374284551981549      0.2703378902177889   T T T
      0.8316213575956449      0.8375108122001367      0.2703551659194515   T T T
      0.0818708782835671      0.3371205916972836      0.2713851948693142   T T T
      0.8327662064722182      0.3367813293556278      0.2718226303430725   T T T
      0.5815218670750347      0.5875087647875602      0.2707206360134655   T T T
      0.0814578075116579      0.5872843494699223      0.2709157990017649   T T T
      0.0812838837579305      0.0874895617833406      0.2713786132400748   T T T
      0.5816876032392023      0.0872893779676161      0.2705434427635076   T T T
      0.3313481466974816      0.8374330604772315      0.2701836490735321   T T T
      0.0814361382238958      0.8373018783374296      0.2705880930676412   T T T
      0.3313096239238633      0.3371932140771839      0.2699263702150500   T T T
      0.5813986096366729      0.3371095560306178      0.2708479161318856   T T T
      0.9151975629508584      0.6692462575105349      0.3765044808044068   T T T
      0.9157425431262897      0.4199157888878181      0.3785306186715237   T T T
      0.6653789900402898      0.6694640609372985      0.3760033858843906   T T T
      0.1641175670182369      0.1705090534044560      0.3767106045130253   T T T
      0.9157185318580178      0.1719481256491903      0.3790300893128140   T T T
      0.9149164297864437      0.9206038844502770      0.3761162944668116   T T T
      0.4154936004792119      0.9198847729383567      0.3754802144705251   T T T
      0.4145719711885584      0.1707319094899469      0.3753379059778020   T T T
      0.6650668632946214      0.1709238537292841      0.3761858606441045   T T T
      0.1650533022078403      0.6699741193111326      0.3759688493708362   T T T
      0.4154044340799617      0.6698176984389300      0.3759733174900267   T T T
      0.4147974554903753      0.4202044127402085      0.3757507924090213   T T T
      0.6657212031563372      0.9199189659902250      0.3755793369527706   T T T
      0.1640524262135184      0.4208906169182380      0.3764606193966086   T T T
      0.6653417198198202      0.4201017141400560      0.3752118845231603   T T T
      0.1647440200230511      0.9201610960454226      0.3758245488351676   T T T
      0.0039609899565706      0.2481711854640750      0.4881025840389902   T T T
      0.4969635427325562      0.2512691882273956      0.4809613563566760   T T T
     -0.0016509451305775      0.7525689393892119      0.4817660226892675   T T T
      0.4973083610362683      0.7558232784107973      0.4811334647049784   T T T
      0.7481583408470026      0.7535617783120077      0.4811400736111119   T T T
      0.9982779355035535      0.5032439065821119      0.4879111886842644   T T T
      0.7457208853756857      0.5053937117888608      0.4851122580563544   T T T
      0.2513603092287880     -0.0006272377407253      0.4806397241009290   T T T
     -0.0007978013427349      0.0003243416333753      0.4819947581542648   T T T
      0.4995682168029575      0.0027752200467396      0.4810013210679657   T T T
      0.2478998412253884      0.7529434064219316      0.4815822871891154   T T T
      0.7487948309674173      0.0028280425213796      0.4816083154069374   T T T
      0.2524015600566998      0.2514167134563264      0.4804490397064614   T T T
      0.7470597243043526      0.2518420368697059      0.4854543654781029   T T T
      0.2485160970535661      0.5035758735239134      0.4816433106439516   T T T
      0.4944894698714248      0.5042610387198984      0.4845698474432234   T T T
     -0.0018441675763843      0.2539483861935760      0.1658588671031716   F F F
      0.4988165013069821      0.2536783748449026      0.1650997584172681   F F F
     -0.0010917144946656      0.7533784093953989      0.1648919711929088   F F F
      0.4984975412123471      0.7535346459329955      0.1650757592642884   F F F
      0.7490434894538128      0.7533039213056070      0.1652116669309702   F F F
     -0.0016466633757989      0.5037918992870974      0.1654864508096540   F F F
      0.7487743206068093      0.5037965657106558      0.1657405801505352   F F F
      0.2480807251714336      0.0038860935048482      0.1652233980552439   F F F
     -0.0015538263681601      0.0038312747908833      0.1654210075708737   F F F
      0.4986190150011373      0.0035911433858228      0.1651084447410000   F F F
      0.2484519256256133      0.7535511758832840      0.1648217475847852   F F F
      0.7488068408526958      0.0038687914608864      0.1651835633021257   F F F
      0.2481038814642200      0.2537924647174646      0.1651122599493620   F F F
      0.7487964982624101      0.2539052051237118      0.1659200765584591   F F F
      0.2483681503349580      0.5037191212807259      0.1649487544979944   F F F
      0.4984426477445754      0.5038235558895906      0.1653252261210625   F F F
      0.0095964474802859      0.5225036645133697      0.6281352413808009   T T T
      0.0324218596342921      0.2909984009088531      0.5870974155499140   T T T
      0.6624286736821245      0.4238302015240414      0.6169724043810957   T T T
      0.0162230059933408      0.4282858803918713      0.5848279015092949   T T T
      0.6605913069671406      0.4230076290984196      0.5472508501594875   T T T
      0.5942398135459197      0.3866710031597348      0.6364389453671244   T T T
 
  0.00000000E+00  0.00000000E+00  0.00000000E+00
  0.00000000E+00  0.00000000E+00  0.00000000E+00
  0.00000000E+00  0.00000000E+00  0.00000000E+00
  0.00000000E+00  0.00000000E+00  0.00000000E+00
  0.00000000E+00  0.00000000E+00  0.00000000E+00
  0.00000000E+00  0.00000000E+00  0.00000000E+00
  0.00000000E+00  0.00000000E+00  0.00000000E+00
  0.00000000E+00  0.00000000E+00  0.00000000E+00
  0.00000000E+00  0.00000000E+00  0.00000000E+00
  0.00000000E+00  0.00000000E+00  0.00000000E+00
  0.00000000E+00  0.00000000E+00  0.00000000E+00
  0.00000000E+00  0.00000000E+00  0.00000000E+00
  0.00000000E+00  0.00000000E+00  0.00000000E+00
  0.00000000E+00  0.00000000E+00  0.00000000E+00
  0.00000000E+00  0.00000000E+00  0.00000000E+00
  0.00000000E+00  0.00000000E+00  0.00000000E+00
  0.00000000E+00  0.00000000E+00  0.00000000E+00
  0.00000000E+00  0.00000000E+00  0.00000000E+00
  0.00000000E+00  0.00000000E+00  0.00000000E+00
  0.00000000E+00  0.00000000E+00  0.00000000E+00
  0.00000000E+00  0.00000000E+00  0.00000000E+00
  0.00000000E+00  0.00000000E+00  0.00000000E+00
  0.00000000E+00  0.00000000E+00  0.00000000E+00
  0.00000000E+00  0.00000000E+00  0.00000000E+00
  0.00000000E+00  0.00000000E+00  0.00000000E+00
  0.00000000E+00  0.00000000E+00  0.00000000E+00
  0.00000000E+00  0.00000000E+00  0.00000000E+00
  0.00000000E+00  0.00000000E+00  0.00000000E+00
  0.00000000E+00  0.00000000E+00  0.00000000E+00
  0.00000000E+00  0.00000000E+00  0.00000000E+00
  0.00000000E+00  0.00000000E+00  0.00000000E+00
  0.00000000E+00  0.00000000E+00  0.00000000E+00
  0.00000000E+00  0.00000000E+00  0.00000000E+00
  0.00000000E+00  0.00000000E+00  0.00000000E+00
  0.00000000E+00  0.00000000E+00  0.00000000E+00
  0.00000000E+00  0.00000000E+00  0.00000000E+00
  0.00000000E+00  0.00000000E+00  0.00000000E+00
  0.00000000E+00  0.00000000E+00  0.00000000E+00
  0.00000000E+00  0.00000000E+00  0.00000000E+00
  0.00000000E+00  0.00000000E+00  0.00000000E+00
  0.00000000E+00  0.00000000E+00  0.00000000E+00
  0.00000000E+00  0.00000000E+00  0.00000000E+00
  0.00000000E+00  0.00000000E+00  0.00000000E+00
  0.00000000E+00  0.00000000E+00  0.00000000E+00
  0.00000000E+00  0.00000000E+00  0.00000000E+00
  0.00000000E+00  0.00000000E+00  0.00000000E+00
  0.00000000E+00  0.00000000E+00  0.00000000E+00
  0.00000000E+00  0.00000000E+00  0.00000000E+00
  0.00000000E+00  0.00000000E+00  0.00000000E+00
  0.00000000E+00  0.00000000E+00  0.00000000E+00
  0.00000000E+00  0.00000000E+00  0.00000000E+00
  0.00000000E+00  0.00000000E+00  0.00000000E+00
  0.00000000E+00  0.00000000E+00  0.00000000E+00
  0.00000000E+00  0.00000000E+00  0.00000000E+00
  0.00000000E+00  0.00000000E+00  0.00000000E+00
  0.00000000E+00  0.00000000E+00  0.00000000E+00
  0.00000000E+00  0.00000000E+00  0.00000000E+00
  0.00000000E+00  0.00000000E+00  0.00000000E+00
  0.00000000E+00  0.00000000E+00  0.00000000E+00
  0.00000000E+00  0.00000000E+00  0.00000000E+00
  0.00000000E+00  0.00000000E+00  0.00000000E+00
  0.00000000E+00  0.00000000E+00  0.00000000E+00
  0.00000000E+00  0.00000000E+00  0.00000000E+00
  0.00000000E+00  0.00000000E+00  0.00000000E+00
  0.00000000E+00  0.00000000E+00  0.00000000E+00
  0.00000000E+00  0.00000000E+00  0.00000000E+00
  0.00000000E+00  0.00000000E+00  0.00000000E+00
  0.00000000E+00  0.00000000E+00  0.00000000E+00
  0.00000000E+00  0.00000000E+00  0.00000000E+00
  0.00000000E+00  0.00000000E+00  0.00000000E+00
