Co                                      
   1.00000000000000     
     9.9456000000000007    0.0000000000000000    0.0000000000000006
    -4.9727999999999994    8.6131422558785147    0.0000000000000006
     0.0000000000000000    0.0000000000000000   15.9887999999999995
   Co   H 
    64     1
Selective dynamics
Direct
  0.0833299999999966  0.1666700000000034  0.0000000000000000   F   F   F
  0.0839987380453277  0.1676459041159644  0.2526617287643466   T   T   T
  0.1666700000000034  0.0833299999999966  0.1248500000000021   F   F   F
  0.1672882827419104  0.0839355552956759  0.3736487875276456   T   T   T
  0.3333332999999996  0.1666700000000034  0.0000000000000000   F   F   F
  0.3335582074193128  0.1668425726275498  0.2528489831157952   T   T   T
  0.4166700000000034  0.0833299999999966  0.1248500000000021   F   F   F
  0.4166439386300706  0.0833687776356689  0.3734985090434030   T   T   T
  0.5833299999999966  0.1666700000000034  0.0000000000000000   F   F   F
  0.5833271956309929  0.1670637840516120  0.2526929794321971   T   T   T
  0.6666667000000004  0.0833299999999966  0.1248500000000021   F   F   F
  0.6672284746456424  0.0839042915852565  0.3734025320364558   T   T   T
  0.8333299999999966  0.1666700000000034  0.0000000000000000   F   F   F
  0.8335309659501099  0.1669338814873720  0.2526425237062726   T   T   T
  0.9166700000000034  0.0833299999999966  0.1248500000000021   F   F   F
  0.9169514480766456  0.0840489098532221  0.3736867090630766   T   T   T
  0.0833299999999966  0.4166700000000034  0.0000000000000000   F   F   F
  0.0836576248833535  0.4171560371320223  0.2525537717071005   T   T   T
  0.1666700000000034  0.3333332999999996  0.1248500000000021   F   F   F
  0.1668070560220825  0.3333729344235756  0.3732198471716665   T   T   T
  0.3333332999999996  0.4166700000000034  0.0000000000000000   F   F   F
  0.3340627690486215  0.4170309655416212  0.2525110855941742   T   T   T
  0.4166700000000034  0.3333332999999996  0.1248500000000021   F   F   F
  0.4168282619884520  0.3337482408103348  0.3734528115021604   T   T   T
  0.5833299999999966  0.4166700000000034  0.0000000000000000   F   F   F
  0.5838271856412198  0.4170879249537707  0.2526446409390286   T   T   T
  0.6666667000000004  0.3333332999999996  0.1248500000000021   F   F   F
  0.6669902541246818  0.3336842849686679  0.3732749625860162   T   T   T
  0.8333299999999966  0.4166700000000034  0.0000000000000000   F   F   F
  0.8333767767608667  0.4167920202674266  0.2526342859984436   T   T   T
  0.9166700000000034  0.3333332999999996  0.1248500000000021   F   F   F
  0.9176370357768191  0.3342425080644760  0.3732896642881011   T   T   T
  0.0833299999999966  0.6666667000000004  0.0000000000000000   F   F   F
  0.0832588286784033  0.6668641842406621  0.2527218392846918   T   T   T
  0.1666700000000034  0.5833299999999966  0.1248500000000021   F   F   F
  0.1662900620396710  0.5832281677630774  0.3748003457567005   T   T   T
  0.3333332999999996  0.6666667000000004  0.0000000000000000   F   F   F
  0.3337803574725308  0.6671858759529837  0.2529510183089876   T   T   T
  0.4166700000000034  0.5833299999999966  0.1248500000000021   F   F   F
  0.4180271619077336  0.5831994972653171  0.3747441037948490   T   T   T
  0.5833299999999966  0.6666667000000004  0.0000000000000000   F   F   F
  0.5842880362640697  0.6671867208989940  0.2525941735025261   T   T   T
  0.6666667000000004  0.5833299999999966  0.1248500000000021   F   F   F
  0.6670109145526980  0.5837933177348932  0.3735256711457256   T   T   T
  0.8333299999999966  0.6666667000000004  0.0000000000000000   F   F   F
  0.8335727397797749  0.6668258768255446  0.2529562120169032   T   T   T
  0.9166700000000034  0.5833299999999966  0.1248500000000021   F   F   F
  0.9174045918844023  0.5835581579891763  0.3735485326687714   T   T   T
  0.0833299999999966  0.9166700000000034  0.0000000000000000   F   F   F
  0.0833508739003862  0.9166948824614887  0.2528213705026362   T   T   T
  0.1666700000000034  0.8333299999999966  0.1248500000000021   F   F   F
  0.1665555212281964  0.8338579924697356  0.3735010995712447   T   T   T
  0.3333332999999996  0.9166700000000034  0.0000000000000000   F   F   F
  0.3333099732455800  0.9170682319550516  0.2526917585001222   T   T   T
  0.4166700000000034  0.8333299999999966  0.1248500000000021   F   F   F
  0.4178646888524541  0.8353389680818163  0.3749553569894268   T   T   T
  0.5833299999999966  0.9166700000000034  0.0000000000000000   F   F   F
  0.5838026478751800  0.9173115427140336  0.2527670308392127   T   T   T
  0.6666667000000004  0.8333299999999966  0.1248500000000021   F   F   F
  0.6676605270707943  0.8341040743173764  0.3735253723489886   T   T   T
  0.8333299999999966  0.9166700000000034  0.0000000000000000   F   F   F
  0.8331024635524719  0.9169059164867676  0.2528322769977719   T   T   T
  0.9166700000000034  0.8333299999999966  0.1248500000000021   F   F   F
  0.9167050952975142  0.8331462486664347  0.3739504688535267   T   T   T
  0.3349505573856977  0.6676417075638406  0.4339967145633003   T   T   T
 
  0.00000000E+00  0.00000000E+00  0.00000000E+00
  0.00000000E+00  0.00000000E+00  0.00000000E+00
  0.00000000E+00  0.00000000E+00  0.00000000E+00
  0.00000000E+00  0.00000000E+00  0.00000000E+00
  0.00000000E+00  0.00000000E+00  0.00000000E+00
  0.00000000E+00  0.00000000E+00  0.00000000E+00
  0.00000000E+00  0.00000000E+00  0.00000000E+00
  0.00000000E+00  0.00000000E+00  0.00000000E+00
  0.00000000E+00  0.00000000E+00  0.00000000E+00
  0.00000000E+00  0.00000000E+00  0.00000000E+00
  0.00000000E+00  0.00000000E+00  0.00000000E+00
  0.00000000E+00  0.00000000E+00  0.00000000E+00
  0.00000000E+00  0.00000000E+00  0.00000000E+00
  0.00000000E+00  0.00000000E+00  0.00000000E+00
  0.00000000E+00  0.00000000E+00  0.00000000E+00
  0.00000000E+00  0.00000000E+00  0.00000000E+00
  0.00000000E+00  0.00000000E+00  0.00000000E+00
  0.00000000E+00  0.00000000E+00  0.00000000E+00
  0.00000000E+00  0.00000000E+00  0.00000000E+00
  0.00000000E+00  0.00000000E+00  0.00000000E+00
  0.00000000E+00  0.00000000E+00  0.00000000E+00
  0.00000000E+00  0.00000000E+00  0.00000000E+00
  0.00000000E+00  0.00000000E+00  0.00000000E+00
  0.00000000E+00  0.00000000E+00  0.00000000E+00
  0.00000000E+00  0.00000000E+00  0.00000000E+00
  0.00000000E+00  0.00000000E+00  0.00000000E+00
  0.00000000E+00  0.00000000E+00  0.00000000E+00
  0.00000000E+00  0.00000000E+00  0.00000000E+00
  0.00000000E+00  0.00000000E+00  0.00000000E+00
  0.00000000E+00  0.00000000E+00  0.00000000E+00
  0.00000000E+00  0.00000000E+00  0.00000000E+00
  0.00000000E+00  0.00000000E+00  0.00000000E+00
  0.00000000E+00  0.00000000E+00  0.00000000E+00
  0.00000000E+00  0.00000000E+00  0.00000000E+00
  0.00000000E+00  0.00000000E+00  0.00000000E+00
  0.00000000E+00  0.00000000E+00  0.00000000E+00
  0.00000000E+00  0.00000000E+00  0.00000000E+00
  0.00000000E+00  0.00000000E+00  0.00000000E+00
  0.00000000E+00  0.00000000E+00  0.00000000E+00
  0.00000000E+00  0.00000000E+00  0.00000000E+00
  0.00000000E+00  0.00000000E+00  0.00000000E+00
  0.00000000E+00  0.00000000E+00  0.00000000E+00
  0.00000000E+00  0.00000000E+00  0.00000000E+00
  0.00000000E+00  0.00000000E+00  0.00000000E+00
  0.00000000E+00  0.00000000E+00  0.00000000E+00
  0.00000000E+00  0.00000000E+00  0.00000000E+00
  0.00000000E+00  0.00000000E+00  0.00000000E+00
  0.00000000E+00  0.00000000E+00  0.00000000E+00
  0.00000000E+00  0.00000000E+00  0.00000000E+00
  0.00000000E+00  0.00000000E+00  0.00000000E+00
  0.00000000E+00  0.00000000E+00  0.00000000E+00
  0.00000000E+00  0.00000000E+00  0.00000000E+00
  0.00000000E+00  0.00000000E+00  0.00000000E+00
  0.00000000E+00  0.00000000E+00  0.00000000E+00
  0.00000000E+00  0.00000000E+00  0.00000000E+00
  0.00000000E+00  0.00000000E+00  0.00000000E+00
  0.00000000E+00  0.00000000E+00  0.00000000E+00
  0.00000000E+00  0.00000000E+00  0.00000000E+00
  0.00000000E+00  0.00000000E+00  0.00000000E+00
  0.00000000E+00  0.00000000E+00  0.00000000E+00
  0.00000000E+00  0.00000000E+00  0.00000000E+00
  0.00000000E+00  0.00000000E+00  0.00000000E+00
  0.00000000E+00  0.00000000E+00  0.00000000E+00
  0.00000000E+00  0.00000000E+00  0.00000000E+00
  0.00000000E+00  0.00000000E+00  0.00000000E+00
