 Ni\(1\1\1)                             
   1.00000000000000     
     9.8291997910000006    0.0000000000000000    0.0000000000000000
     4.9145998955000003    8.5123367178000002    0.0000000000000000
     0.0000000000000000    0.0000000000000000   19.0128002167000005
   Ni   O    C    H 
    64     2     2     4
Direct
  0.8346222631101782  0.5905897774559973  0.2724211407992722
  0.3349622905864981  0.0904461502791450  0.2719308706090661
  0.8346125824080796  0.0909061735705837  0.2722808797231552
  0.3353468908653613  0.5902798980054014  0.2723204468328174
  0.5850398611892329  0.8408148645327191  0.2725476986544483
  0.8343620886227275  0.8408106265694528  0.2720077517776677
  0.0849008002818750  0.3404496342669543  0.2721267669642100
  0.8345243125684065  0.3402701274204259  0.2715059798549294
  0.5848772638875799  0.5907414361985912  0.2720457515321167
  0.0845624639182537  0.5903075971246974  0.2720343923367456
  0.0847437188824039  0.0903787029543848  0.2716536899315720
  0.5847939736797453  0.0903511052437510  0.2725906652308603
  0.3348272138387535  0.8407106220764680  0.2718373477907948
  0.0846057570546362  0.8403900621267589  0.2717045350297840
  0.3355334703955398  0.3398559094662860  0.2719420032096338
  0.5848773717268345  0.3404065238575213  0.2727322709097683
  0.9188485963741947  0.6733909315856732  0.3781294335971287
  0.9196142095278662  0.4237568428100722  0.3770220549815678
  0.6698714813408282  0.6739880043518162  0.3781358069055536
  0.1690422828961730  0.1738025410001390  0.3769000464590631
  0.9176444547384777  0.1747154074312715  0.3780226639727475
  0.9191491076666491  0.9234919017081950  0.3768031930797775
  0.4191788984726240  0.9237098575600818  0.3771040388101136
  0.4199873700210786  0.1741093717336608  0.3782699965789355
  0.6689197416807074  0.1737012371726682  0.3780437018437195
  0.1692095326506229  0.6731938231823283  0.3766247265890761
  0.4204064441559362  0.6717584039478364  0.3779558727483636
  0.4191467661649655  0.4231227875800903  0.3779315482610432
  0.6701270742719573  0.9215367760464896  0.3791248248912539
  0.1681964001527783  0.4238258897523238  0.3776257114598465
  0.6695036486138946  0.4236776005604910  0.3776211559446792
  0.1691158886043704  0.9236126165251081  0.3769726059429399
  0.0049362861058605  0.2545086639469273  0.4823648920243093
  0.5024109950225217  0.2558626322823969  0.4860441397575302
  0.0055835562060419  0.7582617177804097  0.4818426748732971
  0.5005261674800320  0.7581860863105008  0.4821338248126563
  0.7503781037662145  0.7598049473836318  0.4896059999477096
  0.0041075728792879  0.5050726848309901  0.4872123036866418
  0.7543648187355733  0.5060008114061231  0.4808740159518320
  0.2527718038148354  0.0067265205529516  0.4828128032688204
  0.0043981980861298  0.0061975415076592  0.4825942861900521
  0.5011935284688737  0.0074122926771720  0.4828413972313282
  0.2529580901590666  0.7571577840648344  0.4825284430105548
  0.7552299457841544  0.0047402042618237  0.4817348575433223
  0.2531939666639389  0.2558908650242018  0.4825382712814380
  0.7551247872413768  0.2554445132803502  0.4857876341533400
  0.2504259101772470  0.5081106226273345  0.4817645811586798
  0.5023847300390302  0.5079894713733285  0.4855406506460657
  0.0003419588772894  0.2575107836051512  0.1663513463423344
  0.5006470173973662  0.2574947472578248  0.1666027282457396
  0.0005750511292247  0.7572491704492874  0.1662552869499095
  0.5005957410677249  0.7573408296469454  0.1665033262676766
  0.7503500333695329  0.7574257241754492  0.1666306607378405
  0.0004454091135489  0.5073719005001461  0.1665215356980100
  0.7504352970511422  0.5075393299435471  0.1663578725709386
  0.2507100131160613  0.0073598557183660  0.1660468483586145
  0.0003514037760479  0.0073250785084859  0.1664084280392351
  0.5005795794935639  0.0074426757162039  0.1667188972926519
  0.2504409478611904  0.7572749783848289  0.1663866953534918
  0.7504673694778932  0.0073357295336397  0.1665612163564813
  0.2503938938384012  0.2575230174483865  0.1666039658219869
  0.7502841990566184  0.2573399097771961  0.1664775873513661
  0.2503460394338167  0.5075243164940004  0.1666259517646646
  0.5004511028039553  0.5074546440569052  0.1667106047044173
  0.8121044305775243  0.6922318054950193  0.5916517440286811
  0.0124875878866425  0.4724908325456563  0.6341083382084467
  0.9344799455292239  0.5633071238557636  0.5786645451134613
  0.5878641088810966  0.3397935669052813  0.5660404239079186
  0.1020223704682401  0.3770935032797482  0.6142942500550623
  0.5257252017452381  0.4611473522446757  0.5887002221179830
  0.5299355198077029  0.2768360367855286  0.5891339666827159
  0.7097569052615339  0.2811022652639344  0.5882863562401334
 
  0.00000000E+00  0.00000000E+00  0.00000000E+00
  0.00000000E+00  0.00000000E+00  0.00000000E+00
  0.00000000E+00  0.00000000E+00  0.00000000E+00
  0.00000000E+00  0.00000000E+00  0.00000000E+00
  0.00000000E+00  0.00000000E+00  0.00000000E+00
  0.00000000E+00  0.00000000E+00  0.00000000E+00
  0.00000000E+00  0.00000000E+00  0.00000000E+00
  0.00000000E+00  0.00000000E+00  0.00000000E+00
  0.00000000E+00  0.00000000E+00  0.00000000E+00
  0.00000000E+00  0.00000000E+00  0.00000000E+00
  0.00000000E+00  0.00000000E+00  0.00000000E+00
  0.00000000E+00  0.00000000E+00  0.00000000E+00
  0.00000000E+00  0.00000000E+00  0.00000000E+00
  0.00000000E+00  0.00000000E+00  0.00000000E+00
  0.00000000E+00  0.00000000E+00  0.00000000E+00
  0.00000000E+00  0.00000000E+00  0.00000000E+00
  0.00000000E+00  0.00000000E+00  0.00000000E+00
  0.00000000E+00  0.00000000E+00  0.00000000E+00
  0.00000000E+00  0.00000000E+00  0.00000000E+00
  0.00000000E+00  0.00000000E+00  0.00000000E+00
  0.00000000E+00  0.00000000E+00  0.00000000E+00
  0.00000000E+00  0.00000000E+00  0.00000000E+00
  0.00000000E+00  0.00000000E+00  0.00000000E+00
  0.00000000E+00  0.00000000E+00  0.00000000E+00
  0.00000000E+00  0.00000000E+00  0.00000000E+00
  0.00000000E+00  0.00000000E+00  0.00000000E+00
  0.00000000E+00  0.00000000E+00  0.00000000E+00
  0.00000000E+00  0.00000000E+00  0.00000000E+00
  0.00000000E+00  0.00000000E+00  0.00000000E+00
  0.00000000E+00  0.00000000E+00  0.00000000E+00
  0.00000000E+00  0.00000000E+00  0.00000000E+00
  0.00000000E+00  0.00000000E+00  0.00000000E+00
  0.00000000E+00  0.00000000E+00  0.00000000E+00
  0.00000000E+00  0.00000000E+00  0.00000000E+00
  0.00000000E+00  0.00000000E+00  0.00000000E+00
  0.00000000E+00  0.00000000E+00  0.00000000E+00
  0.00000000E+00  0.00000000E+00  0.00000000E+00
  0.00000000E+00  0.00000000E+00  0.00000000E+00
  0.00000000E+00  0.00000000E+00  0.00000000E+00
  0.00000000E+00  0.00000000E+00  0.00000000E+00
  0.00000000E+00  0.00000000E+00  0.00000000E+00
  0.00000000E+00  0.00000000E+00  0.00000000E+00
  0.00000000E+00  0.00000000E+00  0.00000000E+00
  0.00000000E+00  0.00000000E+00  0.00000000E+00
  0.00000000E+00  0.00000000E+00  0.00000000E+00
  0.00000000E+00  0.00000000E+00  0.00000000E+00
  0.00000000E+00  0.00000000E+00  0.00000000E+00
  0.00000000E+00  0.00000000E+00  0.00000000E+00
  0.00000000E+00  0.00000000E+00  0.00000000E+00
  0.00000000E+00  0.00000000E+00  0.00000000E+00
  0.00000000E+00  0.00000000E+00  0.00000000E+00
  0.00000000E+00  0.00000000E+00  0.00000000E+00
  0.00000000E+00  0.00000000E+00  0.00000000E+00
  0.00000000E+00  0.00000000E+00  0.00000000E+00
  0.00000000E+00  0.00000000E+00  0.00000000E+00
  0.00000000E+00  0.00000000E+00  0.00000000E+00
  0.00000000E+00  0.00000000E+00  0.00000000E+00
  0.00000000E+00  0.00000000E+00  0.00000000E+00
  0.00000000E+00  0.00000000E+00  0.00000000E+00
  0.00000000E+00  0.00000000E+00  0.00000000E+00
  0.00000000E+00  0.00000000E+00  0.00000000E+00
  0.00000000E+00  0.00000000E+00  0.00000000E+00
  0.00000000E+00  0.00000000E+00  0.00000000E+00
  0.00000000E+00  0.00000000E+00  0.00000000E+00
  0.00000000E+00  0.00000000E+00  0.00000000E+00
  0.00000000E+00  0.00000000E+00  0.00000000E+00
  0.00000000E+00  0.00000000E+00  0.00000000E+00
  0.00000000E+00  0.00000000E+00  0.00000000E+00
  0.00000000E+00  0.00000000E+00  0.00000000E+00
  0.00000000E+00  0.00000000E+00  0.00000000E+00
  0.00000000E+00  0.00000000E+00  0.00000000E+00
  0.00000000E+00  0.00000000E+00  0.00000000E+00
