 Ni\(1\1\1)                             
   1.00000000000000     
     9.8291997910000006    0.0000000000000000    0.0000000000000000
     4.9145998955000003    8.5123367178000002    0.0000000000000000
     0.0000000000000000    0.0000000000000000   33.0128002167000005
   Ni   O    C    O    C    O 
    64     3     1     1     1     1
Selective dynamics
Direct
  0.8344383761664028  0.5846602967808765  0.1210553746324410   T   T   T
  0.3348161141928376  0.0843040310859381  0.1204912484122998   T   T   T
  0.8345536897523236  0.0846478650868159  0.1205923879495760   T   T   T
  0.3347324268543672  0.5845557281179667  0.1206925565474322   T   T   T
  0.5845719862501038  0.8345151484672805  0.1208323367082941   T   T   T
  0.8344115346066938  0.8346526693556726  0.1206213837706826   T   T   T
  0.0843639290524335  0.3343637527699252  0.1208616766298708   T   T   T
  0.8336901223056623  0.3345846684835554  0.1212079752458226   T   T   T
  0.5849929209927822  0.5836078116576324  0.1215385627599777   T   T   T
  0.0842555379521358  0.5843723648792554  0.1207888381930335   T   T   T
  0.0839328969002529  0.0858052723711514  0.1205248670587359   T   T   T
  0.5844301166634589  0.0846468609218071  0.1213328237482165   T   T   T
  0.3355680491418986  0.8341971171137090  0.1205405835275321   T   T   T
  0.0844551122257702  0.8347554091960888  0.1205065912393434   T   T   T
  0.3346882638187501  0.3342944745015179  0.1211879162456898   T   T   T
  0.5844788774563866  0.3343450695288600  0.1217377982416479   T   T   T
  0.9189026684770200  0.6679703797605683  0.1811717488717722   T   T   T
  0.9184372390136595  0.4178529692640837  0.1810287527805028   T   T   T
  0.6694188144689553  0.6672973048129669  0.1813184306309981   T   T   T
  0.1687098311194146  0.1689423176024583  0.1815897099081727   T   T   T
  0.9182035275799283  0.1688266058407385  0.1818357888707643   T   T   T
  0.9193083825051056  0.9183330525209494  0.1808527841669217   T   T   T
  0.4190740875890683  0.9184730714338913  0.1814119174164086   T   T   T
  0.4187944337943121  0.1686062948925404  0.1819427443352789   T   T   T
  0.6699343767112673  0.1674415568881055  0.1820332015340905   T   T   T
  0.1688691637300845  0.6687398101812669  0.1808793793194465   T   T   T
  0.4190735825027979  0.6675696726124540  0.1817392701260931   T   T   T
  0.4179877577749990  0.4190845746691143  0.1819773975546856   T   T   T
  0.6682564376823449  0.9191306429211098  0.1822512442733954   T   T   T
  0.1691595175246620  0.4176724160521294  0.1822443901048278   T   T   T
  0.6679279050766035  0.4167717291503139  0.1838984247951164   T   T   T
  0.1693162448492516  0.9197479868800942  0.1815487782927009   T   T   T
  0.0002870980149819  0.2579462637966637  0.2432779909210119   T   T   T
  0.5040112608189828  0.2538683156809263  0.2434746163997309   T   T   T
  0.0003254746376700  0.7494104275745344  0.2411314126105855   T   T   T
  0.5090894126116826  0.7490728188154521  0.2413966203140300   T   T   T
  0.7518883109609987  0.7530022279945412  0.2416211929927324   T   T   T
  0.0014768715335625  0.5032044625173988  0.2433026571542528   T   T   T
  0.7533806301224529  0.5039821661492480  0.2439488533072062   T   T   T
  0.2528551506330719  0.0027063638388248  0.2438839829867727   T   T   T
  0.0104305638945133  0.0003251550154388  0.2425558148120767   T   T   T
  0.5077580258322858  0.0001504408818996  0.2449495556743082   T   T   T
  0.2506947902473508  0.7602024760670133  0.2426170545259247   T   T   T
  0.7548077502418503 -0.0045938900951464  0.2442582565806824   T   T   T
  0.2541396264068820  0.2558858040474802  0.2444208349886222   T   T   T
  0.7530561271872632  0.2506016674886505  0.2485610968296562   T   T   T
  0.2460213172182452  0.5047018922164451  0.2440950125674272   T   T   T
  0.5023335014856897  0.5041523509405441  0.2485432403131334   T   T   T
  0.9970724666754620  0.2558556730310926  0.0591330299999981   F   F   F
  0.4999617994073233  0.2500875833011236  0.0594854499999968   F   F   F
  0.9968841634502041  0.7476992072800570  0.0595123729999969   F   F   F
  0.5054474787370111  0.7476858751006858  0.0599706819999994   F   F   F
  0.7507219768486166  0.7486395117188209  0.0599869240000004   F   F   F
  0.9979410792479300  0.5014025590734690  0.0599954460000021   F   F   F
  0.7507272959160147  0.5014379058895102  0.0601539399999993   F   F   F
  0.2484077360003596  0.9989653641424212  0.0601723560000025   F   F   F
  0.0026835401693219  0.9989392601468481  0.0602141139999972   F   F   F
  0.5037179195970367  0.9979203075034633  0.0602187790000031   F   F   F
  0.2483221526645849  0.7533767732178518  0.0603571819999971   F   F   F
  0.7484137013454841  0.9978805352280915  0.0603965990000006   F   F   F
  0.2473094733631029  0.2543786677836692  0.0604625579999976   F   F   F
  0.7483561822084468  0.2543461498031050  0.0604678369999974   F   F   F
  0.2472921951577476  0.4989472698041553  0.0606285479999968   F   F   F
  0.5037960521228442  0.4989156761291298  0.0606927010000007   F   F   F
  0.3375325157899586  0.0860257097340157  0.2785568215941837   T   T   T
  0.8543385323492939  0.0628215255791790  0.2786669954623132   T   T   T
  0.3147664395060687  0.6030933183678260  0.2785993932750319   T   T   T
  0.5796840671584914  0.3293103359621120  0.2870724219702712   T   T   T
  0.5742455787339530  0.3240961855958450  0.3228186333857244   T   T   T
  0.9177786681588971  0.4245638983097830  0.2844025805802341   T   T   T
  0.9207499416035279  0.4212082833961306  0.3204350118202221   T   T   T
 
  0.00000000E+00  0.00000000E+00  0.00000000E+00
  0.00000000E+00  0.00000000E+00  0.00000000E+00
  0.00000000E+00  0.00000000E+00  0.00000000E+00
  0.00000000E+00  0.00000000E+00  0.00000000E+00
  0.00000000E+00  0.00000000E+00  0.00000000E+00
  0.00000000E+00  0.00000000E+00  0.00000000E+00
  0.00000000E+00  0.00000000E+00  0.00000000E+00
  0.00000000E+00  0.00000000E+00  0.00000000E+00
  0.00000000E+00  0.00000000E+00  0.00000000E+00
  0.00000000E+00  0.00000000E+00  0.00000000E+00
  0.00000000E+00  0.00000000E+00  0.00000000E+00
  0.00000000E+00  0.00000000E+00  0.00000000E+00
  0.00000000E+00  0.00000000E+00  0.00000000E+00
  0.00000000E+00  0.00000000E+00  0.00000000E+00
  0.00000000E+00  0.00000000E+00  0.00000000E+00
  0.00000000E+00  0.00000000E+00  0.00000000E+00
  0.00000000E+00  0.00000000E+00  0.00000000E+00
  0.00000000E+00  0.00000000E+00  0.00000000E+00
  0.00000000E+00  0.00000000E+00  0.00000000E+00
  0.00000000E+00  0.00000000E+00  0.00000000E+00
  0.00000000E+00  0.00000000E+00  0.00000000E+00
  0.00000000E+00  0.00000000E+00  0.00000000E+00
  0.00000000E+00  0.00000000E+00  0.00000000E+00
  0.00000000E+00  0.00000000E+00  0.00000000E+00
  0.00000000E+00  0.00000000E+00  0.00000000E+00
  0.00000000E+00  0.00000000E+00  0.00000000E+00
  0.00000000E+00  0.00000000E+00  0.00000000E+00
  0.00000000E+00  0.00000000E+00  0.00000000E+00
  0.00000000E+00  0.00000000E+00  0.00000000E+00
  0.00000000E+00  0.00000000E+00  0.00000000E+00
  0.00000000E+00  0.00000000E+00  0.00000000E+00
  0.00000000E+00  0.00000000E+00  0.00000000E+00
  0.00000000E+00  0.00000000E+00  0.00000000E+00
  0.00000000E+00  0.00000000E+00  0.00000000E+00
  0.00000000E+00  0.00000000E+00  0.00000000E+00
  0.00000000E+00  0.00000000E+00  0.00000000E+00
  0.00000000E+00  0.00000000E+00  0.00000000E+00
  0.00000000E+00  0.00000000E+00  0.00000000E+00
  0.00000000E+00  0.00000000E+00  0.00000000E+00
  0.00000000E+00  0.00000000E+00  0.00000000E+00
  0.00000000E+00  0.00000000E+00  0.00000000E+00
  0.00000000E+00  0.00000000E+00  0.00000000E+00
  0.00000000E+00  0.00000000E+00  0.00000000E+00
  0.00000000E+00  0.00000000E+00  0.00000000E+00
  0.00000000E+00  0.00000000E+00  0.00000000E+00
  0.00000000E+00  0.00000000E+00  0.00000000E+00
  0.00000000E+00  0.00000000E+00  0.00000000E+00
  0.00000000E+00  0.00000000E+00  0.00000000E+00
  0.00000000E+00  0.00000000E+00  0.00000000E+00
  0.00000000E+00  0.00000000E+00  0.00000000E+00
  0.00000000E+00  0.00000000E+00  0.00000000E+00
  0.00000000E+00  0.00000000E+00  0.00000000E+00
  0.00000000E+00  0.00000000E+00  0.00000000E+00
  0.00000000E+00  0.00000000E+00  0.00000000E+00
  0.00000000E+00  0.00000000E+00  0.00000000E+00
  0.00000000E+00  0.00000000E+00  0.00000000E+00
  0.00000000E+00  0.00000000E+00  0.00000000E+00
  0.00000000E+00  0.00000000E+00  0.00000000E+00
  0.00000000E+00  0.00000000E+00  0.00000000E+00
  0.00000000E+00  0.00000000E+00  0.00000000E+00
  0.00000000E+00  0.00000000E+00  0.00000000E+00
  0.00000000E+00  0.00000000E+00  0.00000000E+00
  0.00000000E+00  0.00000000E+00  0.00000000E+00
  0.00000000E+00  0.00000000E+00  0.00000000E+00
  0.00000000E+00  0.00000000E+00  0.00000000E+00
  0.00000000E+00  0.00000000E+00  0.00000000E+00
  0.00000000E+00  0.00000000E+00  0.00000000E+00
  0.00000000E+00  0.00000000E+00  0.00000000E+00
  0.00000000E+00  0.00000000E+00  0.00000000E+00
  0.00000000E+00  0.00000000E+00  0.00000000E+00
  0.00000000E+00  0.00000000E+00  0.00000000E+00
