 Cu_COOHCH
   1.000
   10.1184999999999992    0.0000000000000000    0.0000000000000000
   -5.0592499999999996    8.7628780000000006    0.0000000000000000
    0.0000000000000000    0.0000000000000000   30.4844000000000008
   Cu   O    H    C    H    C    O    O    H 
   64   30   60    1    1    1    1    1    1
Selective Dynamics
Direct
    0.4273522800000000    0.0890661000000000    0.1163646600000000    T  T  T
    0.9137318100000000    0.5780149600000000    0.1132289300000000    T  T  T
    0.6697768300000000    0.3319594700000000    0.1148774900000000    T  T  T
    0.1697064300000000    0.8353995500000000    0.1134562100000000    T  T  T
    0.1775734700000000    0.5924086000000000    0.1124557700000000    T  T  T
    0.4368193900000000    0.3374988300000000    0.1148554600000000    T  T  T
    0.1809418300000000    0.0868274100000000    0.1116135100000000    T  T  T
    0.4138213400000000    0.8403385100000000    0.1123430000000000    T  T  T
    0.9312431500000000    0.3483443400000000    0.1117434700000000    T  T  T
    0.1822589600000000    0.3400385300000000    0.1122752900000000    T  T  T
    0.6773238400000000    0.0863829700000000    0.1132790700000000    T  T  T
    0.6731810600000000    0.8395395700000000    0.1120656400000000    T  T  T
    0.6657016100000001    0.5791373399999999    0.1170691400000000    T  T  T
    0.4290132400000000    0.5880527200000000    0.1149283900000000    T  T  T
    0.9274375900000000    0.8372950500000000    0.1130245900000000    T  T  T
    0.9239572200000000    0.0961474200000000    0.1117720000000000    T  T  T
    0.3474155500000000    0.1756389600000000    0.1830790900000000    T  T  T
    0.8570368300000000    0.4391618900000000    0.1809563500000000    T  T  T
    0.1053836000000000    0.6798616600000000    0.1808321600000000    T  T  T
    0.3538644700000000    0.9282470000000000    0.1792788300000000    T  T  T
    0.6131691100000000    0.1761656200000000    0.1815492600000000    T  T  T
    0.5824735400000000    0.4210127000000000    0.1840387600000000    T  T  T
    0.1099057500000000    0.4307199500000000    0.1794688700000000    T  T  T
    0.8541617700000000    0.6843008700000000    0.1768459000000000    T  T  T
    0.0949584800000000    0.9276698000000000    0.1780201700000000    T  T  T
    0.3369975000000000    0.4199926900000000    0.1791871300000000    T  T  T
    0.3401081200000000    0.6611515000000000    0.1799664000000000    T  T  T
    0.0925318000000000    0.1640798700000000    0.1794691100000000    T  T  T
    0.5943044200000001    0.9249933100000000    0.1802650400000000    T  T  T
    0.8663074100000000    0.2053096000000000    0.1784811400000000    T  T  T
    0.5889480499999999    0.6736903700000000    0.1824489400000000    T  T  T
    0.8483017100000000    0.9241346700000000    0.1796219900000000    T  T  T
    0.4994545700000000    0.2310230900000000    0.2449513800000000    T  T  T
    0.2388784400000000    0.9886985200000000    0.2437599900000000    T  T  T
    0.9997510500000000    0.7460558200000000    0.2440926700000000    T  T  T
    0.5167437700000000    0.0033197200000000    0.2492213200000000    T  T  T
    0.0238629800000000    0.5176200800000000    0.2466123300000000    T  T  T
    0.7673789000000000    0.5070501100000000    0.2462810800000000    T  T  T
    0.2766371100000000    0.7607869500000000    0.2497495400000000    T  T  T
    0.7657718999999999    0.2609692400000000    0.2481670500000000    T  T  T
    0.2706337000000000    0.2575555300000000    0.2501950400000000    T  T  T
    0.2644551800000000    0.5194901900000000    0.2529399800000000    T  T  T
    0.0180267400000000    0.2625626500000000    0.2459244900000000    T  T  T
    0.4971658900000000    0.4912571400000000    0.2513630900000000    T  T  T
    0.5137091300000000    0.7668272400000000    0.2500668700000000    T  T  T
    0.0141162900000000    0.0089017500000000    0.2447647000000000    T  T  T
    0.7560086000000000    0.0085060700000000    0.2462254600000000    T  T  T
    0.7624395200000000    0.7540688500000000    0.2462117300000000    T  T  T
    0.5051699800000000    0.2552200000000000    0.0459221600000000    F  F  F
    0.2551900300000000    0.0052500000000000    0.0459221600000000    F  F  F
    0.0052100000000000    0.7552400000000000    0.0459221600000000    F  F  F
    0.5051599700000000    0.0052700000000000    0.0459221600000000    F  F  F
    0.0051299800000000    0.5051999900000000    0.0459221600000000    F  F  F
    0.7552299800000000    0.5052699700000000    0.0459221600000000    F  F  F
    0.2551200100000000    0.7552599700000000    0.0459221600000000    F  F  F
    0.7550999900000001    0.2552900000000000    0.0459221600000000    F  F  F
    0.2552500100000000    0.2551600000000000    0.0459221600000000    F  F  F
    0.2551399900000000    0.5051699500000000    0.0459221600000000    F  F  F
    0.0052600000000000    0.2552700000000000    0.0459221600000000    F  F  F
    0.5051800000000000    0.5051699500000000    0.0459221600000000    F  F  F
    0.5051100100000000    0.7552000000000000    0.0459221600000000    F  F  F
    0.0051800000000000    0.0052200000000000    0.0459221600000000    F  F  F
    0.7551700000000000    0.0052400000000000    0.0459221600000000    F  F  F
    0.7551899900000000    0.7551799800000000    0.0459221600000000    F  F  F
    0.8170126900000000    0.8804761400000000    0.3462461100000000    T  T  T
    0.1692515700000000    0.9244556300000000    0.3278316900000000    T  T  T
    0.7933500800000000    0.6110186900000000    0.3571288600000000    T  T  T
    0.9329834400000000    0.0679240600000000    0.4137276200000000    T  T  T
    0.3368511200000000    0.9695303000000000    0.6521155000000000    T  T  T
    0.7672732100000000    0.0660325800000000    0.4827831100000000    T  T  T
    0.4661938500000000    0.0466871400000000    0.3429867100000000    T  T  T
    0.9967572600000000    0.4343676300000000    0.5691743100000000    T  T  T
    0.2003149100000000    0.6693052800000000    0.3542130700000000    T  T  T
    0.5094062400000000    0.2159880300000000    0.4227989800000000    T  T  T
    0.1952101400000000    0.2375000800000000    0.6107387800000000    T  T  T
    0.7589592400000000    0.6336189900000000    0.5959480900000000    T  T  T
    0.2613517300000000    0.9117092999999999    0.4476001900000000    T  T  T
    0.8269101800000001    0.5659085200000000    0.5194044300000000    T  T  T
    0.8631252500000000    0.5100840800000001    0.6798744799999999    T  T  T
    0.3666163400000000    0.9597424600000000    0.5321555200000000    T  T  T
    0.5344770000000000    0.2056293300000000    0.5974669700000000    T  T  T
    0.2197664500000000    0.4709046700000000    0.5225553100000000    T  T  T
    0.8442637000000000    0.0104200900000000    0.5655833000000000    T  T  T
    0.9605829800000000    0.8205897100000000    0.4259631200000000    T  T  T
    0.8217043400000000    0.3130349100000000    0.4356874400000000    T  T  T
    0.7750958500000000    0.2259499500000000    0.3444289100000000    T  T  T
    0.4907122800000000    0.8440603800000001    0.3891186200000000    T  T  T
    0.3935237600000000    0.3201165200000000    0.5199761100000000    T  T  T
    0.1212094700000000    0.5512409400000000    0.4444326400000000    T  T  T
    0.7987563100000000    0.2209428500000000    0.6277997400000001    T  T  T
    0.4522789700000000    0.4428871700000000    0.4209983400000000    T  T  T
    0.4648073100000000    0.7967218000000000    0.4848409000000000    T  T  T
    0.1139508300000000    0.7809247800000000    0.5776138600000000    T  T  T
    0.4840486000000000    0.5824511700000000    0.6104100800000000    T  T  T
    0.8352791100000000    0.9514782400000000    0.3717556300000000    T  T  T
    0.7181267700000000    0.8608523800000000    0.3348843400000000    T  T  T
    0.1548355200000000    0.8302020300000000    0.3399826600000000    T  T  T
    0.0709607100000000    0.9173312100000000    0.3303657800000000    T  T  T
    0.9188187799999999    0.7375732699999999    0.4042951600000000    T  T  T
    0.8068756200000000    0.7116173500000000    0.3517965400000000    T  T  T
    0.0904579500000000    0.2261135500000000    0.3846619400000000    T  T  T
    0.8887217900000000    0.0715551100000000    0.4432418700000000    T  T  T
    0.2753007600000000    0.8780159199999999    0.6341516800000000    T  T  T
    0.2941114500000000    0.9343581300000000    0.6810933300000001    T  T  T
    0.6669409700000000    0.9758266400000000    0.4793256300000000    T  T  T
    0.7710834900000000    0.1473808000000000    0.4617181900000000    T  T  T
    0.3621363800000000    0.0269849800000000    0.3359166500000000    T  T  T
    0.4429631900000000    0.9600501299999999    0.3631116000000000    T  T  T
    0.0834941700000000    0.4348781200000000    0.5539274800000000    T  T  T
    0.9487932400000000    0.4725304800000000    0.5489273500000000    T  T  T
    0.1869684700000000    0.6053847400000000    0.3276874300000000    T  T  T
    0.1325587900000000    0.6039795300000000    0.3774894400000000    T  T  T
    0.4694563900000000    0.2843436800000000    0.4158742900000000    T  T  T
    0.5174269400000000    0.1681227000000000    0.3948661700000000    T  T  T
    0.1142794800000000    0.1431614700000000    0.6245493900000000    T  T  T
    0.1378520700000000    0.2695153300000000    0.5925767000000000    T  T  T
    0.6588374000000000    0.6297210100000000    0.5993484900000000    T  T  T
    0.7771211200000000    0.5966396000000000    0.6243231000000000    T  T  T
    0.3138287300000000    0.0102519200000000    0.4319048600000000    T  T  T
    0.3005121200000000    0.9539198400000000    0.4760434800000000    T  T  T
    0.7532051300000000    0.5646868800000000    0.5421300600000000    T  T  T
    0.7619366900000000    0.4993771900000000    0.4949598300000000    T  T  T
    0.7774523500000000    0.4805486500000000    0.6987802200000000    T  T  T
    0.8490746400000000    0.4188713300000000    0.6636579500000001    T  T  T
    0.2655997500000000    0.9121709600000000    0.5482306400000000    T  T  T
    0.4443120500000000    0.0328208000000000    0.5531104900000000    T  T  T
    0.6302041800000000    0.2138458700000000    0.6073686000000000    T  T  T
    0.4653865100000000    0.1434567300000000    0.6206239400000000    T  T  T
    0.2614673900000000    0.4032703300000000    0.5218304400000000    T  T  T
    0.1821235700000000    0.4754622100000000    0.4927040900000000    T  T  T
    0.8142499399999999    0.0563547900000000    0.5422881700000000    T  T  T
    0.8362120500000000    0.9155631400000001    0.5521960600000000    T  T  T
    0.9715849600000001    0.9957837800000000    0.4183337900000000    T  T  T
    0.0579980700000000    0.8360344300000000    0.4364858400000000    T  T  T
    0.8047607700000000    0.2915175400000000    0.4039268400000000    T  T  T
    0.7308615400000000    0.3258059300000000    0.4412318500000000    T  T  T
    0.8189585200000000    0.5615567800000000    0.3330190900000000    T  T  T
    0.6619813200000000    0.1408630300000000    0.3389076900000000    T  T  T
    0.3920678900000000    0.7583152700000000    0.3769898900000000    T  T  T
    0.5003403700000000    0.8443138400000000    0.4206592900000000    T  T  T
    0.3960548100000000    0.2498720600000000    0.4995015100000000    T  T  T
    0.4135503000000000    0.2854107700000000    0.5478085100000000    T  T  T
    0.0123063400000000    0.4716041700000000    0.4436236500000000    T  T  T
    0.1433322600000000    0.6450373000000000    0.4599103800000000    T  T  T
    0.8819071200000000    0.3057685900000000    0.6083851300000001    T  T  T
    0.8017336000000000    0.1253719100000000    0.6217369900000000    T  T  T
    0.5376655200000000    0.5179359100000001    0.4015486100000000    T  T  T
    0.3650875500000000    0.4221427600000000    0.4043516200000000    T  T  T
    0.4335182000000000    0.6944242400000000    0.4945123100000000    T  T  T
    0.4265182200000000    0.8483868400000000    0.5046286700000000    T  T  T
    0.0779138500000000    0.6710179600000000    0.5763122300000000    T  T  T
    0.0170627300000000    0.7852427800000000    0.5799287000000000    T  T  T
    0.4521513800000000    0.6153537500000000    0.5825065200000000    T  T  T
    0.4144951200000000    0.4743447700000000    0.6124175200000000    T  T  T
    0.3047511800000000    0.4118066300000000    0.3018422000000000    T  T  T
    0.4007127800000000    0.4826688100000000    0.3250486500000000    T  T  T
    0.1726193300000000    0.2932740300000000    0.3244861700000000    T  T  T
    0.1931510000000000    0.3004951200000000    0.3699619200000000    T  T  T
    0.0463821000000000    0.1885317200000000    0.3093735000000000    T  T  T
    0.8474738500000000    0.1906125700000000    0.3348160100000000    T  T  T
	
	   0.001313735447500   -0.001892168246540   -0.001933930336000
   0.001826439842499   -0.001509580993060    0.004659845383999
  -0.003700335450000   -0.001645142715720   -0.000984646120000
   0.000692358362500   -0.001309261601980    0.001180965656000
  -0.000732731177500    0.002928115683700    0.000643525684000
  -0.003753609352500   -0.000670447795780    0.004465964600000
  -0.002342230380000   -0.001038926815680   -0.001880887480000
   0.003511928980000    0.001469534640600   -0.002084828116000
  -0.000803004160002    0.001853523954560   -0.002481735004000
  -0.003063578245000   -0.000078690644440    0.004439748016000
   0.001503457322500    0.002711847854660   -0.000949893904000
  -0.001218166215000    0.002266080250800   -0.001630610556000
  -0.001819913410000   -0.000997916546638    0.000622491448000
   0.001760922554999   -0.001832668304919    0.001078538072000
  -0.000685578967501   -0.000470303662261    0.003009724812000
   0.001924032774999   -0.001043308254680    0.001551960804000
  -0.001354765965000   -0.000910988796880   -0.000229547532000
   0.003622321815000    0.000725566298400    0.001341618444000
  -0.000169484874999    0.000533484012640    0.001206572552000
  -0.000880916610000   -0.001464627428920    0.000106085712000
   0.001016302140001    0.001769926098440   -0.002054953404000
   0.001386689832500    0.000658179766580   -0.000089624136000
   0.002476452282500   -0.003348032797460    0.000232900816000
  -0.001060267022500    0.001851157977500    0.001682738880000
  -0.002799738357500    0.000329922356700   -0.002599404788000
  -0.002366312410000    0.003903686891440    0.000289906643999
  -0.002933201372501   -0.001821889964980   -0.000649012876001
  -0.001755458565000   -0.000639690094000   -0.001268760727999
   0.001221758282499   -0.000686045718618    0.000731930444000
   0.001979735117501   -0.001098076242180   -0.000463058036000
   0.000506279147500    0.000584221076260   -0.003638617984000
   0.000055955305001   -0.000402391357762    0.005353670328000
   0.000068856392499    0.002107735045340    0.000232291128000
   0.000921997720000   -0.000960937201480   -0.000957515004001
   0.000925741565001    0.000111463808159    0.002328093628000
  -0.002810514560001   -0.001202617376720   -0.001172430024000
  -0.000056309452500   -0.000785942527820    0.000462753192000
   0.001912447092500   -0.001780003408141   -0.000791375024001
   0.002203556337500    0.001306106965900   -0.002381136484000
  -0.000717755797499    0.001630683967020    0.000720346372000
  -0.000492619172500   -0.000653623070020   -0.002291817191998
  -0.000661446345001    0.000309504850961   -0.000649622564000
  -0.000167359990000    0.001138998882440   -0.005042729448000
   0.003963214080000   -0.001675111758479   -0.001019398336000
   0.000479768677501    0.003202919537779   -0.000988609091999
  -0.002713022812500   -0.000519551036620   -0.001102315904000
   0.001476997445000    0.000469339745680   -0.000470679136001
   0.000015633082499    0.002607744864020   -0.002430521212000
   0.000000000000000    0.000000000000000    0.000000000000000
   0.000000000000000    0.000000000000000    0.000000000000000
   0.000000000000000    0.000000000000000    0.000000000000000
   0.000000000000000    0.000000000000000    0.000000000000000
   0.000000000000000    0.000000000000000    0.000000000000000
   0.000000000000000    0.000000000000000    0.000000000000000
   0.000000000000000    0.000000000000000    0.000000000000000
   0.000000000000000    0.000000000000000    0.000000000000000
   0.000000000000000    0.000000000000000    0.000000000000000
   0.000000000000000    0.000000000000000    0.000000000000000
   0.000000000000000    0.000000000000000    0.000000000000000
   0.000000000000000    0.000000000000000    0.000000000000000
   0.000000000000000    0.000000000000000    0.000000000000000
   0.000000000000000    0.000000000000000    0.000000000000000
   0.000000000000000    0.000000000000000    0.000000000000000
   0.000000000000000    0.000000000000000    0.000000000000000
   0.002655701509999   -0.004908087967800    0.000303014936000
  -0.011126555562500   -0.002956156893299    0.002238164648000
  -0.005421795855001   -0.007432497862040   -0.004876284624000
   0.007067671065000   -0.001090803053440    0.002992653548000
   0.001849105282500   -0.001399519245380    0.008512463856000
   0.000210869539999    0.003290110173880   -0.003984311080000
  -0.001268151605000   -0.006639457403040   -0.001851622455998
  -0.009502536312500   -0.000849035249420   -0.002121714239998
  -0.000511388990000    0.000348412029280    0.003556310103999
   0.003041823469999   -0.006602478057880    0.002753655852000
  -0.002991888672500   -0.000863231111780   -0.004830862867998
   0.002177956532499   -0.000992395933499   -0.002892359872000
  -0.005815607875001    0.003245945268761   -0.003780675287999
   0.001666061617499    0.001824343570819   -0.000495676344000
  -0.001290007564999   -0.001248710115001   -0.003692880215997
  -0.004317614542499   -0.004200836084420   -0.006769670708000
   0.004392896182500   -0.003317012209340   -0.013796020063999
  -0.007996650550000    0.003301151400160   -0.000603591120001
   0.006070998815000   -0.001563998465440    0.006719676292001
   0.001410114160000   -0.000322298652841    0.003341090240001
  -0.002906893272499    0.004569227475540    0.000260336776000
  -0.000027674097500   -0.002259508092300   -0.008520694644000
  -0.002637690579999   -0.003788192159401   -0.001658961047999
  -0.002269377180000   -0.004479758491160   -0.002704575968002
  -0.000868369670000   -0.001869998165200    0.005036632568002
  -0.002373395360002    0.003997274428480   -0.005144242500002
  -0.003072937857499   -0.000333252250340   -0.002948756012001
   0.003701499077501   -0.006429586474940   -0.005771001764000
   0.012166130252500   -0.008134492018620    0.000133826515999
  -0.000250028135000    0.004260511283600    0.002464663740003
   0.003081943322501   -0.005528061586300    0.018734188020000
  -0.001502850212500    0.006568039947339   -0.031230962955998
   0.022226600655000    0.004458727583960    0.024504580096000
  -0.032624826587500   -0.007188802224860   -0.000301490716000
  -0.020060887507499   -0.007136224956860    0.005434453988002
   0.035440602767499    0.010157840548819   -0.006437390747999
   0.005965108712500   -0.017105575999900   -0.006364533031999
   0.011133739697501    0.001611931408100    0.007420207804000
  -0.020302416102500    0.000571252016821    0.024072006459999
   0.007513643952500    0.029503120536742    0.015721414767999
   0.001105294347500   -0.007893162358499    0.001915334852001
  -0.020499878630001    0.010096938546720    0.006118523924002
  -0.030493971672500    0.028317678400900    0.022719413632000
   0.053728627890000   -0.001208926648880    0.007085793936000
  -0.018855875342500   -0.002173456630340   -0.013664022612002
   0.001374547632500    0.020529407692060    0.013025679276002
  -0.000295915532500    0.005336154558100   -0.030447513876000
   0.010206733320000    0.005386015333920   -0.037336378588000
  -0.015400812332500    0.007333389711860    0.021194583944002
   0.004656887847500   -0.008292223822620    0.004314457131999
  -0.004862343990000    0.004826417944840   -0.015369015104000
   0.003272069937500    0.000558983987620    0.005521944216003
  -0.013850000429999   -0.009509825720720   -0.034123322828005
  -0.007903509757500    0.019593357064100    0.003490463800002
  -0.021941005992500    0.005279195851100   -0.013933809552000
  -0.013918553267500   -0.010720242058861   -0.019125302872000
   0.011088155854999    0.021425061452440    0.014379186636003
   0.024887260230000    0.006579168802399   -0.003707817572000
  -0.008301723325001   -0.021592958194920   -0.009830914155998
   0.041082475997501   -0.004670876860340    0.002554897563996
  -0.012379580010001    0.010708587431120   -0.033370053304001
   0.024109653505000   -0.011466576378120   -0.009012103172001
   0.024388873512500    0.008746491418140   -0.002182987884002
  -0.000487914070000    0.013611904170080    0.005912144536001
  -0.026113065912500   -0.025339351426260   -0.027909077888003
  -0.033176031875000    0.026963550863560   -0.005662782144000
  -0.010373789755000    0.004040563045800   -0.005940495028000
  -0.027475926677501    0.011882550196779    0.020010569848001
  -0.019840455985001   -0.006648045023480   -0.003854142692001
   0.027253016122500   -0.023269910157779    0.001146518283999
  -0.002844917459999    0.000683679741559   -0.007250104852000
  -0.006320369247500   -0.013851744140940    0.028894638540002
  -0.004410401187500   -0.004557309961460    0.003115810523999
  -0.000719728905000   -0.019793939341520   -0.029917390159998
   0.021042736155000   -0.002312874019320    0.023494022236001
  -0.003067726829999   -0.028720683160120    0.019303941455998
   0.017280627262501   -0.006084679596860    0.009707452336000
  -0.004220325165000   -0.013742120537160    0.008357907948000
  -0.008867347475000    0.003161821639960   -0.035960617616000
  -0.003279102295000   -0.024719027292639   -0.009780919739999
   0.011646140537500    0.012749198830980   -0.006399894936003
   0.007367026887501    0.006047875509260   -0.001896129680002
  -0.021271262477500   -0.015380691094380   -0.008204266571997
  -0.017018305150000   -0.006818220114240    0.004789099239998
   0.003763120742500   -0.010061799405940    0.000510613700001
  -0.007463253822500   -0.016785380437780    0.000753879212001
   0.013462461880000    0.001668101456080    0.000298137432001
   0.032339383702500   -0.013702249442260    0.025393200356000
   0.007678575502501   -0.009636624565381   -0.010411946820003
   0.007301307230001    0.009654588465279    0.016866103987997
  -0.000124659920000    0.002038245422800   -0.000520063864000
  -0.012122114777499    0.009112429203419    0.017759601751999
  -0.008477633447500    0.006246091809620   -0.004021806892000
   0.003696389235000   -0.002750492146640    0.000535001219999
   0.008159052475000   -0.000939731036720    0.002339677699998
   0.000591476917500   -0.022661766424580   -0.017969944111998
