Ni_COCHO
   1.00000000000000     
     9.8291997910000006    0.0000000000000000    0.0000000000000000
     4.9145998955000003    8.5123367178000002    0.0000000000000000
     0.0000000000000000    0.0000000000000000   19.0128002167000005
   Ni   O    C    H 
    64     2     2     1
Selective dynamics
Direct
      0.8357156552571147      0.5832276462165739      0.2702006026487293   T T T
      0.3359425128201388      0.0829721818144250      0.2701331050060045   T T T
      0.8355426700716820      0.0831444158256585      0.2701270855745743   T T T
      0.3361360284676482      0.5825079826546246      0.2702069963564377   T T T
      0.5853196976957618      0.8331105326749451      0.2699124285492366   T T T
      0.8356918229320505      0.8331591942800342      0.2697684282447125   T T T
      0.0862605519420582      0.3324019772957171      0.2703164393223038   T T T
      0.8356936678359815      0.3326032600200992      0.2703476801391988   T T T
      0.5857064196440904      0.5829243613313176      0.2703878991528822   T T T
      0.0858033897185800      0.5827612774783518      0.2700929422881276   T T T
      0.0858296617537976      0.0828222926709332      0.2700514246915422   T T T
      0.5855029479426724      0.0832110092281131      0.2707267531722791   T T T
      0.3357467252945374      0.8330231357409871      0.2696974223060479   T T T
      0.0856374524423988      0.8328897595248532      0.2700382605361727   T T T
      0.3362164848865413      0.3324762481066490      0.2703023993352000   T T T
      0.5857036556526847      0.3328711663270398      0.2708280802568772   T T T
      0.9191915255832603      0.6649023216877533      0.3756631045051159   T T T
      0.9190454718538500      0.4153993260790230      0.3748866310104530   T T T
      0.6691375332772599      0.6652485631902094      0.3751581863148788   T T T
      0.1684291876154821      0.1657972753120040      0.3755000277733466   T T T
      0.9181945797265068      0.1667715355296426      0.3761170258265857   T T T
      0.9187135426924791      0.9165033670821998      0.3750682400552923   T T T
      0.4188066416538401      0.9153161577930654      0.3750970660794471   T T T
      0.4194169215657872      0.1666939054111813      0.3767932740000018   T T T
      0.6685287569335157      0.1667033804900200      0.3761802102640048   T T T
      0.1691428991175306      0.6652827056288543      0.3750245674379347   T T T
      0.4197743432292700      0.6641836722364012      0.3756522438607648   T T T
      0.4194241349539530      0.4154165838940471      0.3763629528786638   T T T
      0.6689057530188546      0.9156708126629852      0.3750056129980160   T T T
      0.1687238142299922      0.4153020267756889      0.3755275149987281   T T T
      0.6692168844324079      0.4152484721524836      0.3762520917124412   T T T
      0.1687728841917981      0.9156718639507416      0.3751274024334685   T T T
      0.0015950847438837      0.2480210917912937      0.4842441653525537   T T T
      0.4979906068823886      0.2452052327846225      0.4858722092899056   T T T
      0.0025318004720897      0.7489295513925356      0.4807429606854775   T T T
      0.5017073090491334      0.7476513356008194      0.4807023673388817   T T T
      0.7505790765345428      0.7517163858908417      0.4804034479532713   T T T
      0.0021785872343588      0.4989401754917681      0.4848788200829789   T T T
      0.7531492788595676      0.5013288472508253      0.4830700229678476   T T T
      0.2512824518370846     -0.0026124518618869      0.4806989962017578   T T T
      0.0013353511041520      0.9992908633748745      0.4807429217244701   T T T
      0.5015033268027312      0.9958051982557841      0.4805407327132941   T T T
      0.2530198104274813      0.7472826086689601      0.4807679729489163   T T T
      0.7541914280399317      0.9957284435806066      0.4800258681015950   T T T
      0.2521149543757127      0.2464292791903732      0.4802985567881179   T T T
      0.7487226468354811      0.2503291023368998      0.4855053822479174   T T T
      0.2480495462734374      0.5014534027514148      0.4801158937794469   T T T
      0.5051699589885662      0.4975963353247379      0.4859116342380170   T T T
      0.0026350050122485      0.2501608086896747      0.1648718985829864   F F F
      0.5027424592181573      0.2501125952230360      0.1649884510081098   F F F
      0.0025997374482371      0.7499186733605792      0.1642968802330526   F F F
      0.5029355719611163      0.7494398787183708      0.1645044445267041   F F F
      0.7528875419482166      0.7497338657843450      0.1646732107338570   F F F
      0.0028715272236265      0.5000081179000999      0.1648417508037211   F F F
      0.7527448736191705      0.4998528380215468      0.1648182660631811   F F F
      0.2525425545526824      0.0000030384723772      0.1644348871163074   F F F
      0.0025236523541632      0.0001069454374797      0.1645520606389390   F F F
      0.5029348996025668     -0.0000478340861848      0.1649061010035509   F F F
      0.2526601448632572      0.7496437478253040      0.1644648536897720   F F F
      0.7524380066231683      0.0003925716039620      0.1646158029295147   F F F
      0.2526541215366804      0.2503014577630069      0.1649332945269772   F F F
      0.7526801897295504      0.2502295628032306      0.1649706904707650   F F F
      0.2526150361023331      0.5001769876246122      0.1646406498327397   F F F
      0.5028137945841973      0.4999831109805867      0.1648700617569048   F F F
      0.9114812576984981      0.4159408942121888      0.6164277624378739   T T T
      0.5289324167583093      0.2834518138553460      0.5836492606974002   T T T
      0.9188196008690762      0.4159552502479816      0.5535887882966593   T T T
      0.6057741606453922      0.3514217014040825      0.5643621362231320   T T T
      0.6557118147552770      0.3903859312672730      0.6070408032839268   T T T
 
  0.00000000E+00  0.00000000E+00  0.00000000E+00
  0.00000000E+00  0.00000000E+00  0.00000000E+00
  0.00000000E+00  0.00000000E+00  0.00000000E+00
  0.00000000E+00  0.00000000E+00  0.00000000E+00
  0.00000000E+00  0.00000000E+00  0.00000000E+00
  0.00000000E+00  0.00000000E+00  0.00000000E+00
  0.00000000E+00  0.00000000E+00  0.00000000E+00
  0.00000000E+00  0.00000000E+00  0.00000000E+00
  0.00000000E+00  0.00000000E+00  0.00000000E+00
  0.00000000E+00  0.00000000E+00  0.00000000E+00
  0.00000000E+00  0.00000000E+00  0.00000000E+00
  0.00000000E+00  0.00000000E+00  0.00000000E+00
  0.00000000E+00  0.00000000E+00  0.00000000E+00
  0.00000000E+00  0.00000000E+00  0.00000000E+00
  0.00000000E+00  0.00000000E+00  0.00000000E+00
  0.00000000E+00  0.00000000E+00  0.00000000E+00
  0.00000000E+00  0.00000000E+00  0.00000000E+00
  0.00000000E+00  0.00000000E+00  0.00000000E+00
  0.00000000E+00  0.00000000E+00  0.00000000E+00
  0.00000000E+00  0.00000000E+00  0.00000000E+00
  0.00000000E+00  0.00000000E+00  0.00000000E+00
  0.00000000E+00  0.00000000E+00  0.00000000E+00
  0.00000000E+00  0.00000000E+00  0.00000000E+00
  0.00000000E+00  0.00000000E+00  0.00000000E+00
  0.00000000E+00  0.00000000E+00  0.00000000E+00
  0.00000000E+00  0.00000000E+00  0.00000000E+00
  0.00000000E+00  0.00000000E+00  0.00000000E+00
  0.00000000E+00  0.00000000E+00  0.00000000E+00
  0.00000000E+00  0.00000000E+00  0.00000000E+00
  0.00000000E+00  0.00000000E+00  0.00000000E+00
  0.00000000E+00  0.00000000E+00  0.00000000E+00
  0.00000000E+00  0.00000000E+00  0.00000000E+00
  0.00000000E+00  0.00000000E+00  0.00000000E+00
  0.00000000E+00  0.00000000E+00  0.00000000E+00
  0.00000000E+00  0.00000000E+00  0.00000000E+00
  0.00000000E+00  0.00000000E+00  0.00000000E+00
  0.00000000E+00  0.00000000E+00  0.00000000E+00
  0.00000000E+00  0.00000000E+00  0.00000000E+00
  0.00000000E+00  0.00000000E+00  0.00000000E+00
  0.00000000E+00  0.00000000E+00  0.00000000E+00
  0.00000000E+00  0.00000000E+00  0.00000000E+00
  0.00000000E+00  0.00000000E+00  0.00000000E+00
  0.00000000E+00  0.00000000E+00  0.00000000E+00
  0.00000000E+00  0.00000000E+00  0.00000000E+00
  0.00000000E+00  0.00000000E+00  0.00000000E+00
  0.00000000E+00  0.00000000E+00  0.00000000E+00
  0.00000000E+00  0.00000000E+00  0.00000000E+00
  0.00000000E+00  0.00000000E+00  0.00000000E+00
  0.00000000E+00  0.00000000E+00  0.00000000E+00
  0.00000000E+00  0.00000000E+00  0.00000000E+00
  0.00000000E+00  0.00000000E+00  0.00000000E+00
  0.00000000E+00  0.00000000E+00  0.00000000E+00
  0.00000000E+00  0.00000000E+00  0.00000000E+00
  0.00000000E+00  0.00000000E+00  0.00000000E+00
  0.00000000E+00  0.00000000E+00  0.00000000E+00
  0.00000000E+00  0.00000000E+00  0.00000000E+00
  0.00000000E+00  0.00000000E+00  0.00000000E+00
  0.00000000E+00  0.00000000E+00  0.00000000E+00
  0.00000000E+00  0.00000000E+00  0.00000000E+00
  0.00000000E+00  0.00000000E+00  0.00000000E+00
  0.00000000E+00  0.00000000E+00  0.00000000E+00
  0.00000000E+00  0.00000000E+00  0.00000000E+00
  0.00000000E+00  0.00000000E+00  0.00000000E+00
  0.00000000E+00  0.00000000E+00  0.00000000E+00
  0.00000000E+00  0.00000000E+00  0.00000000E+00
  0.00000000E+00  0.00000000E+00  0.00000000E+00
  0.00000000E+00  0.00000000E+00  0.00000000E+00
  0.00000000E+00  0.00000000E+00  0.00000000E+00
  0.00000000E+00  0.00000000E+00  0.00000000E+00
