Ni                                      
   1.00000000000000     
     9.7777999999999992    0.0000000000000000    0.0000000000000006
    -4.8888999999999987    8.4678231931234844    0.0000000000000006
     0.0000000000000000    0.0000000000000000   20.9877000000000002
   Ni   H 
    64     1
Selective dynamics
Direct
  0.9999985999999979  0.0000014000000021  0.9987795999999989   F   F   F
  0.3333353000000017  0.1666680000000014  0.0946606999999986   F   F   F
  0.1667931830359310  0.3334998770059395  0.1906946754656431   T   T   T
  0.0000105265404955  0.9996580894805710  0.2868589827439861   T   T   T
  0.2499985999999979  0.0000014000000021  0.9987795999999989   F   F   F
  0.0833319999999986  0.1666680000000014  0.0946606999999986   F   F   F
  0.4165380963162101  0.3332736287059566  0.1906061619557151   T   T   T
  0.2500398652563303  0.9996953065500328  0.2867047702903244   T   T   T
  0.2499985999999979  0.2500014000000021  0.9987795999999989   F   F   F
  0.0833319999999986  0.4166680000000014  0.0946606999999986   F   F   F
  0.4166005947796524  0.0830701277270788  0.1906344109723852   T   T   T
  0.2499048401184071  0.2493634233583130  0.2866098577776300   T   T   T
  0.9999985999999979  0.2500014000000021  0.9987795999999989   F   F   F
  0.3333353000000017  0.4166680000000014  0.0946606999999986   F   F   F
  0.1666167763513091  0.0830503367710339  0.1906940420698313   T   T   T
 -0.0001966844091567  0.2495258353481324  0.2866101053444605   T   T   T
  0.4999985999999979  0.0000014000000021  0.9987795999999989   F   F   F
  0.8333319999999986  0.1666680000000014  0.0946606999999986   F   F   F
  0.6666611215329918  0.3333399218393922  0.1905078564356193   T   T   T
  0.5006814185063854  0.0009435089110030  0.2867954007774732   T   T   T
  0.7499985999999979  0.0000014000000021  0.9987795999999989   F   F   F
  0.5833319999999986  0.1666680000000014  0.0946606999999986   F   F   F
  0.9167691108223369  0.3332904002403959  0.1906114631858013   T   T   T
  0.7500994556125251  0.9998418028998968  0.2866483610669902   T   T   T
  0.7499985999999979  0.2500014000000021  0.9987795999999989   F   F   F
  0.5833319999999986  0.4166680000000014  0.0946606999999986   F   F   F
  0.9166492377718964  0.0831226441796330  0.1906860373573060   T   T   T
  0.7499417231703488  0.2497324514768987  0.2866808599388590   T   T   T
  0.4999985999999979  0.2500014000000021  0.9987795999999989   F   F   F
  0.8333319999999986  0.4166680000000014  0.0946606999999986   F   F   F
  0.6665669863081394  0.0831080346885720  0.1906295699907874   T   T   T
  0.4998954197910515  0.2496325166254686  0.2866821360536652   T   T   T
  0.9999985999999979  0.5000014000000021  0.9987795999999989   F   F   F
  0.3333353000000017  0.6666646999999983  0.0946606999999986   F   F   F
  0.1669367633764584  0.8329486056492232  0.1906996521817348   T   T   T
 -0.0013585425149912  0.4989402892086966  0.2867718237720211   T   T   T
  0.2499985999999979  0.5000014000000021  0.9987795999999989   F   F   F
  0.0833319999999986  0.6666646999999983  0.0946606999999986   F   F   F
  0.4166881524402384  0.8331613564100548  0.1905850033840225   T   T   T
  0.2491548291780431  0.4977973794352075  0.2877329338294558   T   T   T
  0.2499985999999979  0.7500014000000021  0.9987795999999989   F   F   F
  0.0833319999999986  0.9166680000000014  0.0946606999999986   F   F   F
  0.4166359071483698  0.5831839896078611  0.1905354362093297   T   T   T
  0.2491834986008667  0.7504282887743682  0.2877841776829975   T   T   T
  0.9999985999999979  0.7500014000000021  0.9987795999999989   F   F   F
  0.3333353000000017  0.9166680000000014  0.0946606999999986   F   F   F
  0.1666892747357689  0.5831491204518808  0.1905767245089241   T   T   T
  0.0000171940043439  0.7497113804885700  0.2867144548687892   T   T   T
  0.4999985999999979  0.5000014000000021  0.9987795999999989   F   F   F
  0.8333319999999986  0.6666646999999983  0.0946606999999986   F   F   F
  0.6663127651498167  0.8330608839791326  0.1906788299294016   T   T   T
  0.5006849473462377  0.4989345459093241  0.2867495379182243   T   T   T
  0.7499985999999979  0.5000014000000021  0.9987795999999989   F   F   F
  0.5833319999999986  0.6666646999999983  0.0946606999999986   F   F   F
  0.9167636237059065  0.8332356401009112  0.1906979678854939   T   T   T
  0.7501090466932344  0.4999124963286324  0.2866833290122766   T   T   T
  0.7499985999999979  0.7500014000000021  0.9987795999999989   F   F   F
  0.5833319999999986  0.9166680000000014  0.0946606999999986   F   F   F
  0.9168670933025161  0.5833381016525292  0.1906292890172770   T   T   T
  0.7503000863268141  0.7497921998894039  0.2866581293779744   T   T   T
  0.4999985999999979  0.7500014000000021  0.9987795999999989   F   F   F
  0.8333319999999986  0.9166680000000014  0.0946606999999986   F   F   F
  0.6665792945107205  0.5833745094285133  0.1906186959725541   T   T   T
  0.5018757219402707  0.7504592693802481  0.2877198309438749   T   T   T
  0.3334854190409933  0.6659701663174357  0.3317040635215888   T   T   T
 
  0.00000000E+00  0.00000000E+00  0.00000000E+00
  0.00000000E+00  0.00000000E+00  0.00000000E+00
  0.00000000E+00  0.00000000E+00  0.00000000E+00
  0.00000000E+00  0.00000000E+00  0.00000000E+00
  0.00000000E+00  0.00000000E+00  0.00000000E+00
  0.00000000E+00  0.00000000E+00  0.00000000E+00
  0.00000000E+00  0.00000000E+00  0.00000000E+00
  0.00000000E+00  0.00000000E+00  0.00000000E+00
  0.00000000E+00  0.00000000E+00  0.00000000E+00
  0.00000000E+00  0.00000000E+00  0.00000000E+00
  0.00000000E+00  0.00000000E+00  0.00000000E+00
  0.00000000E+00  0.00000000E+00  0.00000000E+00
  0.00000000E+00  0.00000000E+00  0.00000000E+00
  0.00000000E+00  0.00000000E+00  0.00000000E+00
  0.00000000E+00  0.00000000E+00  0.00000000E+00
  0.00000000E+00  0.00000000E+00  0.00000000E+00
  0.00000000E+00  0.00000000E+00  0.00000000E+00
  0.00000000E+00  0.00000000E+00  0.00000000E+00
  0.00000000E+00  0.00000000E+00  0.00000000E+00
  0.00000000E+00  0.00000000E+00  0.00000000E+00
  0.00000000E+00  0.00000000E+00  0.00000000E+00
  0.00000000E+00  0.00000000E+00  0.00000000E+00
  0.00000000E+00  0.00000000E+00  0.00000000E+00
  0.00000000E+00  0.00000000E+00  0.00000000E+00
  0.00000000E+00  0.00000000E+00  0.00000000E+00
  0.00000000E+00  0.00000000E+00  0.00000000E+00
  0.00000000E+00  0.00000000E+00  0.00000000E+00
  0.00000000E+00  0.00000000E+00  0.00000000E+00
  0.00000000E+00  0.00000000E+00  0.00000000E+00
  0.00000000E+00  0.00000000E+00  0.00000000E+00
  0.00000000E+00  0.00000000E+00  0.00000000E+00
  0.00000000E+00  0.00000000E+00  0.00000000E+00
  0.00000000E+00  0.00000000E+00  0.00000000E+00
  0.00000000E+00  0.00000000E+00  0.00000000E+00
  0.00000000E+00  0.00000000E+00  0.00000000E+00
  0.00000000E+00  0.00000000E+00  0.00000000E+00
  0.00000000E+00  0.00000000E+00  0.00000000E+00
  0.00000000E+00  0.00000000E+00  0.00000000E+00
  0.00000000E+00  0.00000000E+00  0.00000000E+00
  0.00000000E+00  0.00000000E+00  0.00000000E+00
  0.00000000E+00  0.00000000E+00  0.00000000E+00
  0.00000000E+00  0.00000000E+00  0.00000000E+00
  0.00000000E+00  0.00000000E+00  0.00000000E+00
  0.00000000E+00  0.00000000E+00  0.00000000E+00
  0.00000000E+00  0.00000000E+00  0.00000000E+00
  0.00000000E+00  0.00000000E+00  0.00000000E+00
  0.00000000E+00  0.00000000E+00  0.00000000E+00
  0.00000000E+00  0.00000000E+00  0.00000000E+00
  0.00000000E+00  0.00000000E+00  0.00000000E+00
  0.00000000E+00  0.00000000E+00  0.00000000E+00
  0.00000000E+00  0.00000000E+00  0.00000000E+00
  0.00000000E+00  0.00000000E+00  0.00000000E+00
  0.00000000E+00  0.00000000E+00  0.00000000E+00
  0.00000000E+00  0.00000000E+00  0.00000000E+00
  0.00000000E+00  0.00000000E+00  0.00000000E+00
  0.00000000E+00  0.00000000E+00  0.00000000E+00
  0.00000000E+00  0.00000000E+00  0.00000000E+00
  0.00000000E+00  0.00000000E+00  0.00000000E+00
  0.00000000E+00  0.00000000E+00  0.00000000E+00
  0.00000000E+00  0.00000000E+00  0.00000000E+00
  0.00000000E+00  0.00000000E+00  0.00000000E+00
  0.00000000E+00  0.00000000E+00  0.00000000E+00
  0.00000000E+00  0.00000000E+00  0.00000000E+00
  0.00000000E+00  0.00000000E+00  0.00000000E+00
  0.00000000E+00  0.00000000E+00  0.00000000E+00
