 Ni_Pol_COCO
   1.000
    9.8292000000000002    0.0000000000000000    0.0000000000000000
    4.9146000000000001    8.5123370000000005    0.0000000000000000
    0.0000000000000000    0.0000000000000000   33.0127999999999986
   Ni   O    O    H    C    O    C    O 
   64    3   30   60    1    1    1    1
Selective Dynamics
Direct
    0.8436586400000000    0.5836505400000001    0.1197039400000000    T  T  T
    0.3411251500000000    0.0784864500000000    0.1205058600000000    T  T  T
    0.8324411100000000    0.0928313200000000    0.1213097700000000    T  T  T
    0.3342586200000000    0.5910820900000000    0.1224173200000000    T  T  T
    0.5864195900000000    0.8316509100000000    0.1220297400000000    T  T  T
    0.8398046800000000    0.8393449600000000    0.1214659300000000    T  T  T
    0.0908405000000000    0.3399459400000000    0.1201255100000000    T  T  T
    0.8329602000000000    0.3416479900000000    0.1256070900000000    T  T  T
    0.5908802399999999    0.5841942100000000    0.1255969500000000    T  T  T
    0.0906375200000000    0.5818720800000000    0.1209904100000000    T  T  T
    0.0783428800000000    0.0944401900000000    0.1199718800000000    T  T  T
    0.5836853500000000    0.0893777800000000    0.1233698700000000    T  T  T
    0.3416014800000000    0.8359296600000000    0.1210690500000000    T  T  T
    0.0939226300000000    0.8289879900000000    0.1215314200000000    T  T  T
    0.3440622500000000    0.3458412000000000    0.1225381600000000    T  T  T
    0.5776941799999999    0.3540275900000000    0.1219292500000000    T  T  T
    0.9088265900000000    0.6729859700000000    0.1862017700000000    T  T  T
    0.9111695399999999    0.4315646100000000    0.1834899400000000    T  T  T
    0.6693002400000000    0.6805082000000000    0.1853456200000000    T  T  T
    0.1669137500000000    0.1739283800000000    0.1824773600000000    T  T  T
    0.9167990400000000    0.1704190400000000    0.1855347400000000    T  T  T
    0.8982556000000000    0.9330790799999999    0.1858643500000000    T  T  T
    0.4095219000000000    0.9140510400000000    0.1826082700000000    T  T  T
    0.4226880400000000    0.1754811600000000    0.1830979700000000    T  T  T
    0.6608283600000000    0.1872346400000000    0.1821620300000000    T  T  T
    0.1580787200000000    0.6814820800000000    0.1867999900000000    T  T  T
    0.4232739200000000    0.6738948100000000    0.1864652500000000    T  T  T
    0.4093280100000000    0.4361947000000000    0.1863126900000000    T  T  T
    0.6538774100000000    0.9403069900000000    0.1845064000000000    T  T  T
    0.1675832400000000    0.4222727500000000    0.1843778700000000    T  T  T
    0.6584058800000000    0.4345338600000000    0.1889042200000000    T  T  T
    0.1511751300000000    0.9248154400000000    0.1838913900000000    T  T  T
    0.9874686200000000    0.2619153800000000    0.2460894900000000    T  T  T
    0.4894910800000000    0.2656417600000000    0.2416430700000000    T  T  T
    0.9836484000000000    0.7447842200000000    0.2461043700000000    T  T  T
    0.4859794000000000    0.7719824600000000    0.2481753600000000    T  T  T
    0.7423491300000000    0.7609080300000000    0.2478190700000000    T  T  T
    0.9949275400000001    0.4978897700000000    0.2476245700000000    T  T  T
    0.7379775800000000    0.5206491600000001    0.2452856300000000    T  T  T
    0.2349451900000000    0.0221581900000000    0.2454336800000000    T  T  T
    0.9987672000000000    0.0151200700000000    0.2461762000000000    T  T  T
    0.4917609600000000    0.0217457600000000    0.2429832000000000    T  T  T
    0.2319353500000000    0.7746052000000000    0.2487830900000000    T  T  T
    0.7376154300000000    0.0135608800000000    0.2455978200000000    T  T  T
    0.2482756700000000    0.2570316300000000    0.2456802400000000    T  T  T
    0.7347184100000000    0.2674905300000000    0.2497680500000000    T  T  T
    0.2496596900000000    0.5189521300000000    0.2458998500000000    T  T  T
    0.4941963700000000    0.5218218700000000    0.2481016600000000    T  T  T
    0.9970724700000000    0.2558556700000000    0.0591330300000000    F  F  F
    0.4999618000000000    0.2500875800000000    0.0594854500000000    F  F  F
    0.9968841600000000    0.7476992099999999    0.0595123700000000    F  F  F
    0.5054474799999999    0.7476858800000000    0.0599706800000000    F  F  F
    0.7507219800000000    0.7486395100000000    0.0599869200000000    F  F  F
    0.9979410800000000    0.5014025600000001    0.0599954500000000    F  F  F
    0.7507273000000000    0.5014379100000000    0.0601539400000000    F  F  F
    0.2484077400000000    0.9989653600000000    0.0601723600000000    F  F  F
    0.0026835400000000    0.9989392600000000    0.0602141100000000    F  F  F
    0.5037179200000000    0.9979203100000000    0.0602187800000000    F  F  F
    0.2483221500000000    0.7533767700000000    0.0603571800000000    F  F  F
    0.7484137000000000    0.9978805400000000    0.0603966000000000    F  F  F
    0.2473094700000000    0.2543786700000000    0.0604625600000000    F  F  F
    0.7483561800000000    0.2543461500000000    0.0604678400000000    F  F  F
    0.2472922000000000    0.4989472700000000    0.0606285500000000    F  F  F
    0.5037960500000001    0.4989156800000000    0.0606927000000000    F  F  F
    0.3209001400000000    0.1002124500000000    0.2820270600000000    T  T  T
    0.8204063100000000    0.0887291500000000    0.2821272400000000    T  T  T
    0.3165639200000000    0.6115358400000001    0.2833084000000000    T  T  T
    0.3378129600000000    0.0674528100000000    0.6116904300000000    T  T  T
    0.9135704300000000    0.5233721500000000    0.3967170000000000    T  T  T
    0.2576717200000000    0.0125066800000000    0.3549638800000000    T  T  T
    0.8785352900000000    0.1737153400000000    0.4695033000000000    T  T  T
    0.6146736800000000    0.0578267000000000    0.3491617100000000    T  T  T
    0.9154304700000000    0.5516661200000000    0.5018949300000000    T  T  T
    0.0297928800000000    0.7042415800000000    0.3055611300000000    T  T  T
    0.9003831900000000    0.9485654200000000    0.4148238200000000    T  T  T
    0.4759663200000000    0.7501551900000000    0.3152659200000000    T  T  T
    0.7196681100000000    0.2882484300000000    0.5464425000000001    T  T  T
    0.3634154500000000    0.9326970000000000    0.4352538100000000    T  T  T
    0.3292833800000000    0.8147053399999999    0.5928931800000000    T  T  T
    0.3543733100000000    0.1086076000000000    0.5261898200000000    T  T  T
    0.7184235500000000    0.7935645700000000    0.3110562400000000    T  T  T
    0.5617408600000000    0.0960267600000000    0.6407962900000000    T  T  T
    0.1825665800000000    0.9873058600000000    0.5025466200000001    T  T  T
    0.2332306800000000    0.6523963500000000    0.4021463400000000    T  T  T
    0.4624183700000000    0.4731804800000000    0.4556039400000000    T  T  T
    0.6377891200000000    0.9604835700000000    0.4917545600000000    T  T  T
    0.1680870700000000    0.3217427500000000    0.4412605700000000    T  T  T
    0.3928636200000000    0.4185679500000000    0.5816324500000000    T  T  T
    0.9729155200000000    0.3337825400000000    0.5713409600000000    T  T  T
    0.7480352400000000    0.4629758000000000    0.4579527700000000    T  T  T
    0.7562695000000000    0.0089715000000000    0.5652782600000000    T  T  T
    0.4617675700000000    0.2123343000000000    0.4311002900000000    T  T  T
    0.2397879100000000    0.4920374300000000    0.5107838200000000    T  T  T
    0.6968723200000000    0.8282920900000000    0.4175100600000000    T  T  T
    0.1192019100000000    0.7828199400000000    0.5447733900000000    T  T  T
    0.0242774800000000    0.9547200500000000    0.3452658000000000    T  T  T
    0.3340473400000000    0.3862362900000000    0.3414046800000000    T  T  T
    0.3654673600000000    0.0849010300000000    0.5837752600000000    T  T  T
    0.4284315900000000    0.0565407700000000    0.6269076400000000    T  T  T
    0.0125450500000000    0.4442362100000000    0.4101009300000000    T  T  T
    0.8996297000000000    0.4737538300000000    0.3717024600000000    T  T  T
    0.2705625500000000    0.0660164600000000    0.3304615900000000    T  T  T
    0.1797858900000000    0.9801635600000000    0.3517867900000000    T  T  T
    0.9903313400000000    0.1207901800000000    0.4773998500000000    T  T  T
    0.8314890400000000    0.2889525000000000    0.4607961300000000    T  T  T
    0.6090503700000000    0.0454042600000000    0.3776902600000000    T  T  T
    0.5691918900000000    0.1658586900000000    0.3408236200000000    T  T  T
    0.8565620100000000    0.6600007600000000    0.5133750100000000    T  T  T
    0.0209109800000000    0.5363110700000000    0.4948044900000000    T  T  T
    0.9515385200000001    0.6906803100000000    0.3202526400000000    T  T  T
    0.0292599600000000    0.7954499000000000    0.3216872700000000    T  T  T
    0.8829473799999999    0.0284828400000000    0.4393002500000000    T  T  T
    0.8061246000000000    0.9301578400000000    0.4171228000000000    T  T  T
    0.4663699200000000    0.6601725700000000    0.3212049200000000    T  T  T
    0.4002853100000000    0.8383624200000001    0.3311009100000000    T  T  T
    0.8021230100000000    0.2960504200000000    0.5588461200000000    T  T  T
    0.7591154300000000    0.2462263900000000    0.5181000600000000    T  T  T
    0.4745879600000000    0.8895605599999999    0.4320933300000000    T  T  T
    0.3254730600000000    0.9394573600000000    0.4079915700000000    T  T  T
    0.3400520600000000    0.9038497300000000    0.6050480100000000    T  T  T
    0.4349787800000000    0.7483825000000000    0.5803152800000000    T  T  T
    0.3151347500000000    0.2198104500000000    0.5185296400000000    T  T  T
    0.2721498600000000    0.0749371100000000    0.5243312700000000    T  T  T
    0.6488117700000000    0.7499791200000000    0.3189848600000000    T  T  T
    0.6680902300000000    0.9004317600000000    0.3273571900000000    T  T  T
    0.6449352100000000    0.0589660000000000    0.6202294400000000    T  T  T
    0.6086288800000000    0.0709387900000000    0.6681177600000000    T  T  T
    0.1661580000000000    0.9084109000000000    0.5182102000000000    T  T  T
    0.2443643900000000    0.9459093100000000    0.4763482700000000    T  T  T
    0.2522580100000000    0.5501796100000000    0.3890320700000000    T  T  T
    0.1278421700000000    0.7196059200000000    0.4093195800000000    T  T  T
    0.3719673100000000    0.5705411300000000    0.4436979900000000    T  T  T
    0.5523173900000000    0.4886784700000000    0.4588970800000000    T  T  T
    0.7047025400000000    0.9667035300000000    0.5118278200000000    T  T  T
    0.5307416100000000    0.0020876800000000    0.5053597100000000    T  T  T
    0.1364697900000000    0.2479547000000000    0.4517843800000000    T  T  T
    0.2791387400000000    0.2587227900000000    0.4336106300000000    T  T  T
    0.4025909600000000    0.3439467400000000    0.6041902400000000    T  T  T
    0.5071828100000000    0.3797394100000000    0.5770230800000000    T  T  T
    0.9905071300000000    0.3961727900000000    0.5522305600000000    T  T  T
    0.0721131000000000    0.2763601000000000    0.5861066400000000    T  T  T
    0.7982749200000000    0.4984196200000000    0.4784927800000000    T  T  T
    0.7822497000000000    0.4773227300000000    0.4313438200000000    T  T  T
    0.8658777500000000    0.9209356800000000    0.5572491200000000    T  T  T
    0.7446044900000000    0.1131318800000000    0.5549517600000000    T  T  T
    0.5381850800000000    0.1225166200000000    0.4475354000000000    T  T  T
    0.4666668600000000    0.3128073700000000    0.4346074900000000    T  T  T
    0.3241868600000000    0.4943853800000000    0.4962500800000000    T  T  T
    0.2904114700000000    0.4442652200000000    0.5365278800000000    T  T  T
    0.6790074800000000    0.8653386600000000    0.4467223300000000    T  T  T
    0.7818451000000000    0.7195564300000000    0.4121868000000000    T  T  T
    0.1669809900000000    0.6722426600000000    0.5364763400000000    T  T  T
    0.1885721200000000    0.7837811099999999    0.5679241400000000    T  T  T
    0.9776539300000000    0.9518079699999999    0.3734635300000000    T  T  T
    0.9387534400000001    0.0244880900000000    0.3274787800000000    T  T  T
    0.3189540800000000    0.4600992700000000    0.3203817400000000    T  T  T
    0.2436471400000000    0.3739345800000000    0.3347230700000000    T  T  T
    0.7788496499999999    0.3983432600000000    0.2962525700000000    T  T  T
    0.7087744100000000    0.4217778800000000    0.3281190700000000    T  T  T
    0.9328941100000000    0.3941388900000000    0.2894319100000000    T  T  T
    0.9977618300000000    0.4234012100000000    0.3178920900000000    T  T  T

  -0.002736596718002   -0.000571092689331    0.001666486144000
   0.000661996620000    0.000707545451440    0.001797877088000
  -0.003220095066000    0.000244729688750   -0.001241941536000
  -0.003576796733999   -0.000037879899651    0.002767793152000
   0.000990046170001   -0.001554948599790    0.000261791504000
  -0.003005179608000    0.001158869559180    0.000841496272001
  -0.001462535814000    0.001899017261330    0.001338999168000
  -0.001976209806001   -0.000443407634330   -0.000210621664000
  -0.000610196736002   -0.003101555109320   -0.002602729152001
  -0.001664722458000    0.000828505760210    0.000645730368000
   0.002240713578000   -0.001047953808070    0.002158706992000
   0.001399874664001   -0.000070992890580    0.001271653056000
  -0.000856221612000   -0.000916948941641   -0.002133617264000
   0.000935199234000   -0.005414782689069    0.001303345344000
  -0.001562990238001   -0.001180235525050   -0.000341022224000
   0.000694236396001   -0.004514773298060   -0.004135843584000
   0.002690399477999   -0.001810999696751   -0.000451615104000
  -0.002564684010000   -0.000928270349850   -0.001289479967999
  -0.001521461867998    0.001971627495940   -0.001913421888000
   0.004062457506000   -0.004106266245430    0.004588779200001
  -0.000848407397999   -0.000432511842970   -0.002315187664000
   0.003053244396000   -0.000260647758941   -0.001464447808001
  -0.001135272600001   -0.003309937119081    0.001692236128000
   0.001862731692000    0.001534774361100    0.002108857664000
  -0.000918882762000    0.001160486903210   -0.000240993440000
  -0.000388941444000    0.003349093869280   -0.000906861616000
  -0.001473003912001   -0.001152570429801   -0.001261088959999
   0.000721512426000    0.001315581683350   -0.004551144608000
  -0.000518392008001    0.000866896400082   -0.003669372719999
  -0.000579234756000    0.002248448695180    0.001430444624000
  -0.001335345966000   -0.002729651105790   -0.001593857984001
  -0.001530799608000    0.004568911761380   -0.003542273439999
   0.004911208926000   -0.000525296316270    0.001483265104000
   0.002445455814001    0.000409528533070    0.003760488048001
  -0.002137359540001    0.000922056343840    0.002027646176000
  -0.000458188157999   -0.001576910429250   -0.001051787808001
   0.001283398644000   -0.000772068965900    0.000631204736001
  -0.004875872952002   -0.002003974376540   -0.000324185696000
   0.002825600124000   -0.000178588830261    0.000465810608000
   0.000031994046000   -0.003890052885630    0.000618659872002
  -0.001189922951999    0.001545840399200    0.000142285168000
   0.003776820953999    0.000028516328950   -0.001062682032002
   0.001420171962001   -0.000958404022829    0.000790326432000
   0.000774246084000   -0.003030221725260   -0.002809389279999
   0.005280934284000    0.000647788845700    0.000782073231999
   0.000912886949999   -0.001260932479810    0.002393097872000
   0.005270318748001   -0.004815258794159    0.001120784559999
  -0.000622090067999    0.002623502263400    0.003050712847999
   0.000000000000000    0.000000000000000    0.000000000000000
   0.000000000000000    0.000000000000000    0.000000000000000
   0.000000000000000    0.000000000000000    0.000000000000000
   0.000000000000000    0.000000000000000    0.000000000000000
   0.000000000000000    0.000000000000000    0.000000000000000
   0.000000000000000    0.000000000000000    0.000000000000000
   0.000000000000000    0.000000000000000    0.000000000000000
   0.000000000000000    0.000000000000000    0.000000000000000
   0.000000000000000    0.000000000000000    0.000000000000000
   0.000000000000000    0.000000000000000    0.000000000000000
   0.000000000000000    0.000000000000000    0.000000000000000
   0.000000000000000    0.000000000000000    0.000000000000000
   0.000000000000000    0.000000000000000    0.000000000000000
   0.000000000000000    0.000000000000000    0.000000000000000
   0.000000000000000    0.000000000000000    0.000000000000000
   0.000000000000000    0.000000000000000    0.000000000000000
  -0.005443607544000   -0.006695634037460   -0.000823339231998
   0.003653710223999    0.000151519598600   -0.003775673936000
   0.000242682947999   -0.005132087977301    0.001529813151999
  -0.001530308148000   -0.000286355016680   -0.008773481727999
  -0.003622305930001   -0.007474768243071    0.001464447808001
  -0.003784684314001   -0.000695202562790    0.002063630127999
  -0.002959670411999    0.000810544729140   -0.001609374000001
   0.003021938394000    0.001219903015470    0.003777324576001
   0.006861715373999    0.000888092119210    0.006805588719999
   0.005454370518000    0.006258866025989   -0.000531506080000
   0.006503735910000    0.006946322362110   -0.003031895552001
  -0.006542462957999    0.004858586589491    0.001726569440001
  -0.005858301491999    0.001366570581980    0.001809761695995
  -0.004733300406000    0.003013452421370   -0.003766430352000
  -0.000687650832000   -0.007541079348300    0.006599918976001
  -0.003104651112000    0.000998497130100   -0.001802829008003
   0.000239242728000   -0.001001221077940    0.000497172768000
   0.003915609258000    0.005332553513650   -0.000747079664002
  -0.005296169544000   -0.001893994982501    0.001071925615999
  -0.000339746298000    0.002368898263731    0.007171370544000
  -0.001495119612001   -0.001322306429580    0.000461849072000
  -0.004196970108000    0.002904920124621   -0.005138112192000
   0.002355813510000    0.004930430713770    0.002758879695998
   0.002761464593999   -0.003143861424210   -0.000855031519997
  -0.005212179030002    0.003231878988790   -0.005264551216005
  -0.002161391933999    0.001629005931690   -0.004153010240000
   0.002665089287999   -0.006443158122040   -0.004498654256000
   0.001301877540000    0.001965498613300    0.004334910768000
   0.002552200926001   -0.004213521691630   -0.004813266239999
  -0.000249219366001   -0.004293878152910   -0.006525640176001
   0.002049339054000   -0.000644639281010   -0.004537279232000
   0.000176630724000    0.000260988252419   -0.000541409920002
  -0.003107255849999    0.003043756341090    0.001063012159998
   0.026206809624000   -0.026230085478540    0.026117746592000
  -0.025364496330000    0.005053178613310    0.004932112319999
  -0.008799296424000   -0.026505204210380    0.002378572240001
  -0.019326959376000    0.015733011983620    0.003659468879999
  -0.008283214278000   -0.011263268948290    0.050877676720001
  -0.013840054206000    0.004760694713990   -0.002437004896001
   0.007592123226001    0.003068782611870    0.003253411439999
   0.017601787338000   -0.000181738394950   -0.021484730239999
  -0.024225488633999    0.000864087328870   -0.000256509456001
   0.006425642916001    0.010622885835780    0.016602137120001
  -0.010345822751999   -0.027231476803220    0.010312208336003
   0.020831465874000    0.015492368216630    0.021210393872000
  -0.034071840588000   -0.011090042890340   -0.019532353248000
  -0.005061988853999    0.019050865576110   -0.003650885552002
  -0.013010371433998   -0.000310615177130    0.004952250127999
   0.004305631914002    0.041213245695830    0.017509989120001
  -0.043234571682000    0.000767387180550    0.020617153856000
   0.005552171058000    0.004346995135790    0.008032014239998
   0.014701387002001   -0.036641269493130    0.018537347456000
   0.003336227063999    0.023823988302120   -0.009781362512001
   0.002619285215999   -0.009040612634220    0.011884938128000
   0.005482924343999   -0.010530952596180   -0.014905939456000
   0.007841588322000    0.010739249482570   -0.021615130799997
  -0.014062439856000    0.019835277430661   -0.008862286159999
   0.004134456395999   -0.011029605297640   -0.002348530591998
  -0.003792498528000   -0.016235920853580   -0.012445165343998
  -0.016360605108000    0.002923306772540   -0.014744836992000
   0.007499679600000    0.007758484435279   -0.017481598111999
  -0.011376266934000    0.033073749056430    0.009678362575997
  -0.018132072678000   -0.014255866144010   -0.005321663360000
  -0.014072662224001   -0.021282204473920    0.004371554976000
   0.005459383410001   -0.032273419131689    0.002826555936000
   0.024734690340000   -0.023735630244060    0.023856039664000
   0.001613659764001   -0.014897781477180   -0.008937225216000
  -0.019995934728000    0.033367680053041   -0.016918399744000
   0.020977380348000   -0.027493146042599   -0.003059626304001
  -0.007608292260000    0.006423239253461    0.026903781359998
   0.018162592344000   -0.012685425090880   -0.007523617120004
  -0.009727762656000    0.005368901192640   -0.022341082272002
   0.000485709918000    0.005792900698610   -0.020758778767998
  -0.013876225662000   -0.005998899254010   -0.033762850816000
  -0.012319476966000   -0.001681101434130   -0.012985254752003
   0.026935448220000   -0.010673959857780   -0.010331355760002
  -0.004371880722000   -0.000315552332590    0.020756798000001
   0.002668922675999    0.008889263282360    0.001275944719998
  -0.000752769282000    0.023198076162510    0.011422428800001
  -0.008361258125998    0.038130587974650    0.012550476175999
  -0.012586831206000    0.005238917806650   -0.001353524800003
  -0.009620329500000   -0.006024180894900    0.003285103727999
   0.003166820802000    0.020304392322730   -0.015821714527998
   0.041278954050000   -0.031788726662910    0.011699076064001
   0.005560869899999    0.002900153215900    0.008280600624001
  -0.013557857874000   -0.007837053305790    0.006366188352001
  -0.007557524441999   -0.016797649972210   -0.025484891216001
  -0.010764644964000   -0.011578821280881    0.013745869664000
   0.000377637864000    0.012989145275041   -0.039331449920002
   0.004456116966002   -0.000155350150251   -0.001452233072001
  -0.014914385766000   -0.002854612212950   -0.000718028400001
  -0.010776145128000    0.011838958299600    0.020237176527999
   0.017945268731999   -0.002081096149760    0.016284223855999
   0.003114971772002    0.004156233663620   -0.008065687296000
   0.000396165906000    0.002855633693390    0.000267403680001
   0.004173183444001    0.002703007490980    0.002104566000000
  -0.005959640543999    0.007841735091140    0.001580322736000