 Ni\(1\1\1)                             
   1.00000000000000     
     9.8291997910000006    0.0000000000000000    0.0000000000000000
     4.9145998955000003    8.5123367178000002    0.0000000000000000
     0.0000000000000000    0.0000000000000000   19.0128002167000005
   Ni   O    C    H 
    64     3     2     3
Direct
  0.8306265913088370  0.5866358737032269  0.2705139645085033
  0.3309794054986526  0.0864418275937925  0.2696460729827572
  0.8312729046224201  0.0865333387891466  0.2702524058808981
  0.3310232326744976  0.5869784383645036  0.2702526125641094
  0.5810754115665850  0.8370724296348522  0.2707725238834386
  0.8306207538874973  0.8368061211715149  0.2702374911066681
  0.0814799657214915  0.3364429647639392  0.2702445875563663
  0.8309293582016885  0.3362363545510472  0.2696207683600288
  0.5808136017158337  0.5869183151130452  0.2701872583945014
  0.0807195412005035  0.5866490657877883  0.2702371443295886
  0.0808879314823630  0.0863802621101188  0.2695615948808758
  0.5813864401764799  0.0861768777557352  0.2696557177388374
  0.3307138354609480  0.8366627900326709  0.2697650529636587
  0.0808443219572071  0.8367623536783525  0.2699640390165540
  0.3314209809444307  0.3364971342800506  0.2690074044715136
  0.5808699487610751  0.3363094739745841  0.2704838900185384
  0.9144405550149231  0.6690303539942939  0.3762752710730479
  0.9155460209983636  0.4190956898981510  0.3748682789224485
  0.6650327360024112  0.6700497459121318  0.3760462701652582
  0.1645195037147229  0.1691735582750821  0.3748190360702853
  0.9134734443762442  0.1702725958175221  0.3760184479485733
  0.9145220026160995  0.9192746617591955  0.3752824642554816
  0.4143840256073555  0.9192428658096049  0.3752030203057666
  0.4145358370954818  0.1691455598820370  0.3737496191110857
  0.6657694484885636  0.1695446412633121  0.3752595172877364
  0.1649675866607374  0.6690404395178231  0.3751140314545381
  0.4158022422604762  0.6679820603467472  0.3760779714951217
  0.4147611712688373  0.4205187733143357  0.3751327482386306
  0.6657233252773109  0.9177910947268197  0.3774311458063360
  0.1642810402936908  0.4199477131513474  0.3756935136812202
  0.6648118925659297  0.4191421903598083  0.3753588969206126
  0.1643412605629139  0.9191845571697616  0.3754957563023051
  0.0006029847604120  0.2488534942741869  0.4801386576837646
  0.4962652673497320  0.2497090341945613  0.4771731594964121
  0.0014216792210676  0.7533272644252124  0.4800227347640025
  0.4959056874258719  0.7531259411703456  0.4801947417914340
  0.7458542111720895  0.7560503981290978  0.4872508809973140
  0.0010095814009512  0.4996665885855246  0.4852010965060818
  0.7509387605582549  0.5011612370084410  0.4782487179824086
  0.2475921847098926  0.0020920441094101  0.4810661307709953
 -0.0026927631546695  0.0033685139374120  0.4811371527880313
  0.4962127600443030  0.0035079528698415  0.4809611512863697
  0.2505854253699100  0.7502114947748778  0.4813630875517713
  0.7487361693173085  0.0037610348044681  0.4807574111134335
  0.2495568534040016  0.2507719855605848  0.4804542439852192
  0.7464486349645332  0.2542296425146273  0.4885219528712734
  0.2499641637268355  0.5016693575644138  0.4806559529952796
  0.5026142557957672  0.4984604971025155  0.4881661802701825
 -0.0027015170523290  0.2535131091899593  0.1645214816339530
  0.4979755253616878  0.2533014721596031  0.1640528203475567
 -0.0025218583953254  0.7532900590718281  0.1644303489734036
  0.4976892414137337  0.7531443146193288  0.1648020646202794
  0.7475344852862194  0.7531756875703487  0.1648852568275317
 -0.0028075439478269  0.5035862348213385  0.1647669169391565
  0.7473553486216566  0.5034802568456868  0.1645775955818581
  0.2476301620614448  0.0033071181769533  0.1640013441280955
 -0.0024306933690082  0.0031864761016598  0.1643430468526380
  0.4975951202140746  0.0030564544070839  0.1646085477535405
  0.2471814500026965  0.7534222132821845  0.1643533718414976
  0.7477716398704951  0.0030534228828397  0.1644036054371362
  0.2471167743881767  0.2535145249203780  0.1643110999869088
  0.7473697724319660  0.2532968894761182  0.1646786882540603
  0.2469689863052236  0.5037296132896260  0.1644263898817449
  0.4973389691323112  0.5034299984013552  0.1648474996644954
  0.8040726103038350  0.6834817739889137  0.5889368901911222
  0.9961633891989736  0.4584084384612795  0.6313703161534030
  0.5759467389196746  0.3301351145312904  0.6188741014093743
  0.9251477749687331  0.5531268163455688  0.5761020631271129
  0.6326959151752320  0.3851389713207501  0.5677337877019466
  0.0853612546066994  0.3619480737276448  0.6121022415662088
  0.6896240323371012  0.4417170556406336  0.5962049454529341
  0.5234040451137143  0.2774750812397446  0.5965069501247746
 
  0.00000000E+00  0.00000000E+00  0.00000000E+00
  0.00000000E+00  0.00000000E+00  0.00000000E+00
  0.00000000E+00  0.00000000E+00  0.00000000E+00
  0.00000000E+00  0.00000000E+00  0.00000000E+00
  0.00000000E+00  0.00000000E+00  0.00000000E+00
  0.00000000E+00  0.00000000E+00  0.00000000E+00
  0.00000000E+00  0.00000000E+00  0.00000000E+00
  0.00000000E+00  0.00000000E+00  0.00000000E+00
  0.00000000E+00  0.00000000E+00  0.00000000E+00
  0.00000000E+00  0.00000000E+00  0.00000000E+00
  0.00000000E+00  0.00000000E+00  0.00000000E+00
  0.00000000E+00  0.00000000E+00  0.00000000E+00
  0.00000000E+00  0.00000000E+00  0.00000000E+00
  0.00000000E+00  0.00000000E+00  0.00000000E+00
  0.00000000E+00  0.00000000E+00  0.00000000E+00
  0.00000000E+00  0.00000000E+00  0.00000000E+00
  0.00000000E+00  0.00000000E+00  0.00000000E+00
  0.00000000E+00  0.00000000E+00  0.00000000E+00
  0.00000000E+00  0.00000000E+00  0.00000000E+00
  0.00000000E+00  0.00000000E+00  0.00000000E+00
  0.00000000E+00  0.00000000E+00  0.00000000E+00
  0.00000000E+00  0.00000000E+00  0.00000000E+00
  0.00000000E+00  0.00000000E+00  0.00000000E+00
  0.00000000E+00  0.00000000E+00  0.00000000E+00
  0.00000000E+00  0.00000000E+00  0.00000000E+00
  0.00000000E+00  0.00000000E+00  0.00000000E+00
  0.00000000E+00  0.00000000E+00  0.00000000E+00
  0.00000000E+00  0.00000000E+00  0.00000000E+00
  0.00000000E+00  0.00000000E+00  0.00000000E+00
  0.00000000E+00  0.00000000E+00  0.00000000E+00
  0.00000000E+00  0.00000000E+00  0.00000000E+00
  0.00000000E+00  0.00000000E+00  0.00000000E+00
  0.00000000E+00  0.00000000E+00  0.00000000E+00
  0.00000000E+00  0.00000000E+00  0.00000000E+00
  0.00000000E+00  0.00000000E+00  0.00000000E+00
  0.00000000E+00  0.00000000E+00  0.00000000E+00
  0.00000000E+00  0.00000000E+00  0.00000000E+00
  0.00000000E+00  0.00000000E+00  0.00000000E+00
  0.00000000E+00  0.00000000E+00  0.00000000E+00
  0.00000000E+00  0.00000000E+00  0.00000000E+00
  0.00000000E+00  0.00000000E+00  0.00000000E+00
  0.00000000E+00  0.00000000E+00  0.00000000E+00
  0.00000000E+00  0.00000000E+00  0.00000000E+00
  0.00000000E+00  0.00000000E+00  0.00000000E+00
  0.00000000E+00  0.00000000E+00  0.00000000E+00
  0.00000000E+00  0.00000000E+00  0.00000000E+00
  0.00000000E+00  0.00000000E+00  0.00000000E+00
  0.00000000E+00  0.00000000E+00  0.00000000E+00
  0.00000000E+00  0.00000000E+00  0.00000000E+00
  0.00000000E+00  0.00000000E+00  0.00000000E+00
  0.00000000E+00  0.00000000E+00  0.00000000E+00
  0.00000000E+00  0.00000000E+00  0.00000000E+00
  0.00000000E+00  0.00000000E+00  0.00000000E+00
  0.00000000E+00  0.00000000E+00  0.00000000E+00
  0.00000000E+00  0.00000000E+00  0.00000000E+00
  0.00000000E+00  0.00000000E+00  0.00000000E+00
  0.00000000E+00  0.00000000E+00  0.00000000E+00
  0.00000000E+00  0.00000000E+00  0.00000000E+00
  0.00000000E+00  0.00000000E+00  0.00000000E+00
  0.00000000E+00  0.00000000E+00  0.00000000E+00
  0.00000000E+00  0.00000000E+00  0.00000000E+00
  0.00000000E+00  0.00000000E+00  0.00000000E+00
  0.00000000E+00  0.00000000E+00  0.00000000E+00
  0.00000000E+00  0.00000000E+00  0.00000000E+00
  0.00000000E+00  0.00000000E+00  0.00000000E+00
  0.00000000E+00  0.00000000E+00  0.00000000E+00
  0.00000000E+00  0.00000000E+00  0.00000000E+00
  0.00000000E+00  0.00000000E+00  0.00000000E+00
  0.00000000E+00  0.00000000E+00  0.00000000E+00
  0.00000000E+00  0.00000000E+00  0.00000000E+00
  0.00000000E+00  0.00000000E+00  0.00000000E+00
  0.00000000E+00  0.00000000E+00  0.00000000E+00
