Co                                      
   1.00000000000000     
     9.9456000000000007    0.0000000000000000    0.0000000000000006
    -4.9727999999999994    8.6131422558785147    0.0000000000000006
     0.0000000000000000    0.0000000000000000   15.9887999999999995
   Co   C    H 
    64     1     2
Selective dynamics
Direct
  0.0833299999999966  0.1666700000000034  0.0000000000000000   F   F   F
  0.0838894933694150  0.1672648453365314  0.2528923276593601   T   T   T
  0.1666700000000034  0.0833299999999966  0.1248500000000021   F   F   F
  0.1678846589915201  0.0839017912865474  0.3738376845551784   T   T   T
  0.3333332999999996  0.1666700000000034  0.0000000000000000   F   F   F
  0.3337273181369278  0.1667220110122166  0.2527270734981819   T   T   T
  0.4166700000000034  0.0833299999999966  0.1248500000000021   F   F   F
  0.4170933429742829  0.0825127650219015  0.3734464278560424   T   T   T
  0.5833299999999966  0.1666700000000034  0.0000000000000000   F   F   F
  0.5836449264679906  0.1666806646896734  0.2525856061296886   T   T   T
  0.6666667000000004  0.0833299999999966  0.1248500000000021   F   F   F
  0.6660082665476040  0.0825478095451006  0.3735461492913534   T   T   T
  0.8333299999999966  0.1666700000000034  0.0000000000000000   F   F   F
  0.8334100328206666  0.1668303287746113  0.2527751763193937   T   T   T
  0.9166700000000034  0.0833299999999966  0.1248500000000021   F   F   F
  0.9164302848900326  0.0837656295272260  0.3738926313195777   T   T   T
  0.0833299999999966  0.4166700000000034  0.0000000000000000   F   F   F
  0.0837922151935342  0.4171747253320041  0.2528441944977708   T   T   T
  0.1666700000000034  0.3333332999999996  0.1248500000000021   F   F   F
  0.1655055509632506  0.3308782544965808  0.3734555941150113   T   T   T
  0.3333332999999996  0.4166700000000034  0.0000000000000000   F   F   F
  0.3335739804105804  0.4171415119719976  0.2530136212345497   T   T   T
  0.4166700000000034  0.3333332999999996  0.1248500000000021   F   F   F
  0.4171356346931946  0.3331891695970048  0.3734779917668847   T   T   T
  0.5833299999999966  0.4166700000000034  0.0000000000000000   F   F   F
  0.5834789974096777  0.4168755696719630  0.2524766402090143   T   T   T
  0.6666667000000004  0.3333332999999996  0.1248500000000021   F   F   F
  0.6669060022624674  0.3334875582319513  0.3730544270564214   T   T   T
  0.8333299999999966  0.4166700000000034  0.0000000000000000   F   F   F
  0.8337921599146536  0.4169346441226663  0.2524896534947003   T   T   T
  0.9166700000000034  0.3333332999999996  0.1248500000000021   F   F   F
  0.9161697331937068  0.3331526448333755  0.3735139405439967   T   T   T
  0.0833299999999966  0.6666667000000004  0.0000000000000000   F   F   F
  0.0841831081343861  0.6676461726255103  0.2523383597623285   T   T   T
  0.1666700000000034  0.5833299999999966  0.1248500000000021   F   F   F
  0.1626069614761286  0.5801299277492538  0.3755834169941051   T   T   T
  0.3333332999999996  0.6666667000000004  0.0000000000000000   F   F   F
  0.3335550668021081  0.6670722314792199  0.2534933666979691   T   T   T
  0.4166700000000034  0.5833299999999966  0.1248500000000021   F   F   F
  0.4167706050841866  0.5805852306152326  0.3757512777330912   T   T   T
  0.5833299999999966  0.6666667000000004  0.0000000000000000   F   F   F
  0.5834335768124388  0.6675399075843920  0.2525484593107844   T   T   T
  0.6666667000000004  0.5833299999999966  0.1248500000000021   F   F   F
  0.6663949756058692  0.5835512392884483  0.3730395185044663   T   T   T
  0.8333299999999966  0.6666667000000004  0.0000000000000000   F   F   F
  0.8334148204338060  0.6668526762358511  0.2524503892962167   T   T   T
  0.9166700000000034  0.5833299999999966  0.1248500000000021   F   F   F
  0.9167383727832182  0.5837277295171094  0.3729392875330027   T   T   T
  0.0833299999999966  0.9166700000000034  0.0000000000000000   F   F   F
  0.0837240830124522  0.9174067524596266  0.2526099815308374   T   T   T
  0.1666700000000034  0.8333299999999966  0.1248500000000021   F   F   F
  0.1661228326334627  0.8356835767885313  0.3725643213991531   T   T   T
  0.3333332999999996  0.9166700000000034  0.0000000000000000   F   F   F
  0.3335340884851263  0.9160773192854789  0.2526220372306997   T   T   T
  0.4166700000000034  0.8333299999999966  0.1248500000000021   F   F   F
  0.4188829747513027  0.8367477205521019  0.3785166164070015   T   T   T
  0.5833299999999966  0.9166700000000034  0.0000000000000000   F   F   F
  0.5830027156975685  0.9159369470081525  0.2526364867723943   T   T   T
  0.6666667000000004  0.8333299999999966  0.1248500000000021   F   F   F
  0.6695265298481810  0.8354076387249814  0.3728166205931275   T   T   T
  0.8333299999999966  0.9166700000000034  0.0000000000000000   F   F   F
  0.8339106506612071  0.9173037097156327  0.2526931795091723   T   T   T
  0.9166700000000034  0.8333299999999966  0.1248500000000021   F   F   F
  0.9164061125150814  0.8327662125428563  0.3737218604469618   T   T   T
  0.3324771139865854  0.6676987496026149  0.4579251524240890   T   T   T
  0.4079434399710547  0.6454558068441548  0.5008063423158147   T   T   T
  0.2304118358146811  0.6506582703518610  0.4961486011619131   T   T   T
 
  0.00000000E+00  0.00000000E+00  0.00000000E+00
  0.00000000E+00  0.00000000E+00  0.00000000E+00
  0.00000000E+00  0.00000000E+00  0.00000000E+00
  0.00000000E+00  0.00000000E+00  0.00000000E+00
  0.00000000E+00  0.00000000E+00  0.00000000E+00
  0.00000000E+00  0.00000000E+00  0.00000000E+00
  0.00000000E+00  0.00000000E+00  0.00000000E+00
  0.00000000E+00  0.00000000E+00  0.00000000E+00
  0.00000000E+00  0.00000000E+00  0.00000000E+00
  0.00000000E+00  0.00000000E+00  0.00000000E+00
  0.00000000E+00  0.00000000E+00  0.00000000E+00
  0.00000000E+00  0.00000000E+00  0.00000000E+00
  0.00000000E+00  0.00000000E+00  0.00000000E+00
  0.00000000E+00  0.00000000E+00  0.00000000E+00
  0.00000000E+00  0.00000000E+00  0.00000000E+00
  0.00000000E+00  0.00000000E+00  0.00000000E+00
  0.00000000E+00  0.00000000E+00  0.00000000E+00
  0.00000000E+00  0.00000000E+00  0.00000000E+00
  0.00000000E+00  0.00000000E+00  0.00000000E+00
  0.00000000E+00  0.00000000E+00  0.00000000E+00
  0.00000000E+00  0.00000000E+00  0.00000000E+00
  0.00000000E+00  0.00000000E+00  0.00000000E+00
  0.00000000E+00  0.00000000E+00  0.00000000E+00
  0.00000000E+00  0.00000000E+00  0.00000000E+00
  0.00000000E+00  0.00000000E+00  0.00000000E+00
  0.00000000E+00  0.00000000E+00  0.00000000E+00
  0.00000000E+00  0.00000000E+00  0.00000000E+00
  0.00000000E+00  0.00000000E+00  0.00000000E+00
  0.00000000E+00  0.00000000E+00  0.00000000E+00
  0.00000000E+00  0.00000000E+00  0.00000000E+00
  0.00000000E+00  0.00000000E+00  0.00000000E+00
  0.00000000E+00  0.00000000E+00  0.00000000E+00
  0.00000000E+00  0.00000000E+00  0.00000000E+00
  0.00000000E+00  0.00000000E+00  0.00000000E+00
  0.00000000E+00  0.00000000E+00  0.00000000E+00
  0.00000000E+00  0.00000000E+00  0.00000000E+00
  0.00000000E+00  0.00000000E+00  0.00000000E+00
  0.00000000E+00  0.00000000E+00  0.00000000E+00
  0.00000000E+00  0.00000000E+00  0.00000000E+00
  0.00000000E+00  0.00000000E+00  0.00000000E+00
  0.00000000E+00  0.00000000E+00  0.00000000E+00
  0.00000000E+00  0.00000000E+00  0.00000000E+00
  0.00000000E+00  0.00000000E+00  0.00000000E+00
  0.00000000E+00  0.00000000E+00  0.00000000E+00
  0.00000000E+00  0.00000000E+00  0.00000000E+00
  0.00000000E+00  0.00000000E+00  0.00000000E+00
  0.00000000E+00  0.00000000E+00  0.00000000E+00
  0.00000000E+00  0.00000000E+00  0.00000000E+00
  0.00000000E+00  0.00000000E+00  0.00000000E+00
  0.00000000E+00  0.00000000E+00  0.00000000E+00
  0.00000000E+00  0.00000000E+00  0.00000000E+00
  0.00000000E+00  0.00000000E+00  0.00000000E+00
  0.00000000E+00  0.00000000E+00  0.00000000E+00
  0.00000000E+00  0.00000000E+00  0.00000000E+00
  0.00000000E+00  0.00000000E+00  0.00000000E+00
  0.00000000E+00  0.00000000E+00  0.00000000E+00
  0.00000000E+00  0.00000000E+00  0.00000000E+00
  0.00000000E+00  0.00000000E+00  0.00000000E+00
  0.00000000E+00  0.00000000E+00  0.00000000E+00
  0.00000000E+00  0.00000000E+00  0.00000000E+00
  0.00000000E+00  0.00000000E+00  0.00000000E+00
  0.00000000E+00  0.00000000E+00  0.00000000E+00
  0.00000000E+00  0.00000000E+00  0.00000000E+00
  0.00000000E+00  0.00000000E+00  0.00000000E+00
  0.00000000E+00  0.00000000E+00  0.00000000E+00
  0.00000000E+00  0.00000000E+00  0.00000000E+00
  0.00000000E+00  0.00000000E+00  0.00000000E+00
