Ni_Pol_COC
   1.00000000000000     
     9.8291997910000006    0.0000000000000000    0.0000000000000000
     4.9145998955000003    8.5123367178000002    0.0000000000000000
     0.0000000000000000    0.0000000000000000   19.0128002167000005
   Ni   O    C    O    C 
    64     3     1     1     1
Selective dynamics
Direct
  0.8330271542040416  0.5842071989433786  0.2712024537066934   T   T   T
  0.3330845510002414  0.0841005185407757  0.2699109206015657   T   T   T
  0.8328007455918659  0.0844971893604615  0.2704786710824242   T   T   T
  0.3339119652707688  0.5839467082517350  0.2707131564395709   T   T   T
  0.5835910659684953  0.8341637535343922  0.2707713133738675   T   T   T
  0.8331572293971149  0.8343550682571490  0.2704020319495108   T   T   T
  0.0826107347123569  0.3346863106737855  0.2709699328514166   T   T   T
  0.8318499684083243  0.3342929806226775  0.2717430019750172   T   T   T
  0.5838698655708106  0.5826612970590874  0.2720326204767549   T   T   T
  0.0832653850269599  0.5841684076142388  0.2708894164539248   T   T   T
  0.0821011890512676  0.0860279783012195  0.2701086379030815   T   T   T
  0.5830719588235245  0.0843577867262923  0.2717169215496065   T   T   T
  0.3348847404408145  0.8334120372168685  0.2702568987129951   T   T   T
  0.0832049340623036  0.8343840614518142  0.2700447199191594   T   T   T
  0.3333944314157491  0.3342884573786212  0.2715957817999137   T   T   T
  0.5829877549128960  0.3336192413476354  0.2727937443485648   T   T   T
  0.9169705077941043  0.6664577557407698  0.3755041048708941   T   T   T
  0.9155651166841264  0.4169569911509506  0.3755914236933379   T   T   T
  0.6674855916171953  0.6655424451991732  0.3757500516686939   T   T   T
  0.1661147282793782  0.1681549768289036  0.3758807625698525   T   T   T
  0.9156816857051795  0.1675973304834195  0.3768467009338312   T   T   T
  0.9173806787260655  0.9173981252638597  0.3748614071603065   T   T   T
  0.4173212810403966  0.9171269642506961  0.3754762359397431   T   T   T
  0.4160518624100088  0.1669052544010346  0.3762918426596802   T   T   T
  0.6672138328042694  0.1663014517884777  0.3776706082329095   T   T   T
  0.1671855131267506  0.6676511101229912  0.3750109880808998   T   T   T
  0.4173083802967571  0.6661309122270039  0.3766445113665570   T   T   T
  0.4159266738876684  0.4174365765437297  0.3776722086134240   T   T   T
  0.6663880277645220  0.9179039900965457  0.3774629420844548   T   T   T
  0.1669836168997796  0.4165456902417203  0.3777920405349855   T   T   T
  0.6655874292093118  0.4153978825768021  0.3811338665852958   T   T   T
  0.1675302325912226  0.9187533597882371  0.3755129395532043   T   T   T
 -0.0017614545089628  0.2547626891416533  0.4830306522501011   T   T   T
  0.4999010632588989  0.2490960120223937  0.4854677891662399   T   T   T
  0.9975230501120443  0.7469568345551703  0.4794348916813621   T   T   T
  0.5061532078628843  0.7472902508847303  0.4797486483875125   T   T   T
  0.7492396634900387  0.7504044035507360  0.4802713024192611   T   T   T
  0.9984643472758471  0.5006501448820002  0.4837393237748427   T   T   T
  0.7511716009705033  0.5019473132000725  0.4851920737816501   T   T   T
  0.2500564176437121  0.0000236569340457  0.4836727525993693   T   T   T
  0.0091421235530944  0.9970943990404425  0.4815492431927818   T   T   T
  0.5051473651860098  0.9966525014891228  0.4859058528638036   T   T   T
  0.2470106815270849  0.7592844411912878  0.4816596792824892   T   T   T
  0.7531852974929545  0.9914368331573860  0.4853095998067912   T   T   T
  0.2511414967138187  0.2527895127699754  0.4854469101234524   T   T   T
  0.7532781029242446  0.2459332497185754  0.4954827306686341   T   T   T
  0.2420293081454780  0.5029212719544418  0.4851714549391875   T   T   T
  0.4974077233864921  0.5052891448680700  0.4952148625427601   T   T   T
  0.9970724670000024  0.2558556729999992  0.1637003960000030   F   F   F
  0.4999617989999976  0.2500875830000027  0.1643123180000003   F   F   F
  0.9968841629999972  0.7476992069999966  0.1643590660000029   F   F   F
  0.5054474789999972  0.7476858750000019  0.1651548480000002   F   F   F
  0.7507219769999978  0.7486395119999969  0.1651830500000031   F   F   F
  0.9979410790000003  0.5014025589999989  0.1651978470000017   F   F   F
  0.7507272960000009  0.5014379059999996  0.1654730480000026   F   F   F
  0.2484077359999972  0.9989653640000000  0.1655050250000016   F   F   F
  0.0026835399999996  0.9989392600000002  0.1655775309999967   F   F   F
  0.5037179199999997  0.9979203070000011  0.1655856309999990   F   F   F
  0.2483221529999966  0.7533767729999994  0.1658259459999982   F   F   F
  0.7484137009999969  0.9978805350000002  0.1658943890000018   F   F   F
  0.2473094730000014  0.2543786680000011  0.1660089160000027   F   F   F
  0.7483561820000020  0.2543461500000035  0.1660180820000008   F   F   F
  0.2472921950000000  0.4989472700000022  0.1662971330000005   F   F   F
  0.5037960519999984  0.4989156760000029  0.1664085250000014   F   F   F
  0.3345781693841399  0.0821622772014448  0.5443086725683645   T   T   T
  0.8559936965935048  0.0534987835509641  0.5453281405254712   T   T   T
  0.3050448349693810  0.6052054469387433  0.5451574915780830   T   T   T
  0.9174330253722579  0.4184683071110465  0.5548338556986465   T   T   T
  0.9206704082440015  0.4131152910974232  0.6173705787994584   T   T   T
  0.5764436550993919  0.3284997556229609  0.5452273523596664   T   T   T
 
  0.00000000E+00  0.00000000E+00  0.00000000E+00
  0.00000000E+00  0.00000000E+00  0.00000000E+00
  0.00000000E+00  0.00000000E+00  0.00000000E+00
  0.00000000E+00  0.00000000E+00  0.00000000E+00
  0.00000000E+00  0.00000000E+00  0.00000000E+00
  0.00000000E+00  0.00000000E+00  0.00000000E+00
  0.00000000E+00  0.00000000E+00  0.00000000E+00
  0.00000000E+00  0.00000000E+00  0.00000000E+00
  0.00000000E+00  0.00000000E+00  0.00000000E+00
  0.00000000E+00  0.00000000E+00  0.00000000E+00
  0.00000000E+00  0.00000000E+00  0.00000000E+00
  0.00000000E+00  0.00000000E+00  0.00000000E+00
  0.00000000E+00  0.00000000E+00  0.00000000E+00
  0.00000000E+00  0.00000000E+00  0.00000000E+00
  0.00000000E+00  0.00000000E+00  0.00000000E+00
  0.00000000E+00  0.00000000E+00  0.00000000E+00
  0.00000000E+00  0.00000000E+00  0.00000000E+00
  0.00000000E+00  0.00000000E+00  0.00000000E+00
  0.00000000E+00  0.00000000E+00  0.00000000E+00
  0.00000000E+00  0.00000000E+00  0.00000000E+00
  0.00000000E+00  0.00000000E+00  0.00000000E+00
  0.00000000E+00  0.00000000E+00  0.00000000E+00
  0.00000000E+00  0.00000000E+00  0.00000000E+00
  0.00000000E+00  0.00000000E+00  0.00000000E+00
  0.00000000E+00  0.00000000E+00  0.00000000E+00
  0.00000000E+00  0.00000000E+00  0.00000000E+00
  0.00000000E+00  0.00000000E+00  0.00000000E+00
  0.00000000E+00  0.00000000E+00  0.00000000E+00
  0.00000000E+00  0.00000000E+00  0.00000000E+00
  0.00000000E+00  0.00000000E+00  0.00000000E+00
  0.00000000E+00  0.00000000E+00  0.00000000E+00
  0.00000000E+00  0.00000000E+00  0.00000000E+00
  0.00000000E+00  0.00000000E+00  0.00000000E+00
  0.00000000E+00  0.00000000E+00  0.00000000E+00
  0.00000000E+00  0.00000000E+00  0.00000000E+00
  0.00000000E+00  0.00000000E+00  0.00000000E+00
  0.00000000E+00  0.00000000E+00  0.00000000E+00
  0.00000000E+00  0.00000000E+00  0.00000000E+00
  0.00000000E+00  0.00000000E+00  0.00000000E+00
  0.00000000E+00  0.00000000E+00  0.00000000E+00
  0.00000000E+00  0.00000000E+00  0.00000000E+00
  0.00000000E+00  0.00000000E+00  0.00000000E+00
  0.00000000E+00  0.00000000E+00  0.00000000E+00
  0.00000000E+00  0.00000000E+00  0.00000000E+00
  0.00000000E+00  0.00000000E+00  0.00000000E+00
  0.00000000E+00  0.00000000E+00  0.00000000E+00
  0.00000000E+00  0.00000000E+00  0.00000000E+00
  0.00000000E+00  0.00000000E+00  0.00000000E+00
  0.00000000E+00  0.00000000E+00  0.00000000E+00
  0.00000000E+00  0.00000000E+00  0.00000000E+00
  0.00000000E+00  0.00000000E+00  0.00000000E+00
  0.00000000E+00  0.00000000E+00  0.00000000E+00
  0.00000000E+00  0.00000000E+00  0.00000000E+00
  0.00000000E+00  0.00000000E+00  0.00000000E+00
  0.00000000E+00  0.00000000E+00  0.00000000E+00
  0.00000000E+00  0.00000000E+00  0.00000000E+00
  0.00000000E+00  0.00000000E+00  0.00000000E+00
  0.00000000E+00  0.00000000E+00  0.00000000E+00
  0.00000000E+00  0.00000000E+00  0.00000000E+00
  0.00000000E+00  0.00000000E+00  0.00000000E+00
  0.00000000E+00  0.00000000E+00  0.00000000E+00
  0.00000000E+00  0.00000000E+00  0.00000000E+00
  0.00000000E+00  0.00000000E+00  0.00000000E+00
  0.00000000E+00  0.00000000E+00  0.00000000E+00
  0.00000000E+00  0.00000000E+00  0.00000000E+00
  0.00000000E+00  0.00000000E+00  0.00000000E+00
  0.00000000E+00  0.00000000E+00  0.00000000E+00
  0.00000000E+00  0.00000000E+00  0.00000000E+00
  0.00000000E+00  0.00000000E+00  0.00000000E+00
  0.00000000E+00  0.00000000E+00  0.00000000E+00
