Ni_COOHCHOH
   1.00000000000000     
     9.8291997910000006    0.0000000000000000    0.0000000000000000
     4.9145998955000003    8.5123367178000002    0.0000000000000000
     0.0000000000000000    0.0000000000000000   19.0128002167000005
   Ni   O    C    H 
    64     3     2     3
Selective dynamics
Direct
      0.8333456800354164      0.5875608567565175      0.2701583188152454   T T T
      0.3333985757233984      0.0874371485293784      0.2688009336861299   T T T
      0.8332794341382985      0.0877276034703796      0.2684965375930081   T T T
      0.3332817772683715      0.5874400808004355      0.2685344593376944   T T T
      0.5835959701018946      0.8371176903342377      0.2687488065011701   T T T
      0.8335174564931669      0.8371474766470881      0.2687676662157801   T T T
      0.0826747989154398      0.3380203386919459      0.2692328672896108   T T T
      0.8333057986840102      0.3381910988451767      0.2695311063160202   T T T
      0.5834148173566774      0.5876717337601947      0.2695570636384987   T T T
      0.0831575776681932      0.5873591268444764      0.2692386501499062   T T T
      0.0832229494491920      0.0876755880533680      0.2684921369489334   T T T
      0.5832959271117478      0.0874799712509126      0.2689228085384998   T T T
      0.3333990784804655      0.8373933373583043      0.2685604532519550   T T T
      0.0833188564888439      0.8375379651688742      0.2683816512648640   T T T
      0.3326316499511488      0.3378705011153445      0.2691472696642857   T T T
      0.5833446595775663      0.3378171956110932      0.2686782600075944   T T T
      0.9172711753054432      0.6700170011815763      0.3753440756985517   T T T
      0.9165836994387945      0.4218279621010633      0.3768594812740075   T T T
      0.6681411051435719      0.6687798596107279      0.3758561509815067   T T T
      0.1667250149780682      0.1707404472754716      0.3737045954858509   T T T
      0.9168145849914214      0.1709924804315584      0.3734998397198598   T T T
      0.9166552535635720      0.9209194465245190      0.3736898999321397   T T T
      0.4173955101822694      0.9198494153342532      0.3740171304219933   T T T
      0.4169097443145793      0.1702860102270210      0.3738790511421455   T T T
      0.6667697412981036      0.1710633719393063      0.3736889220504416   T T T
      0.1669164984688519      0.6705780256377508      0.3737413720579220   T T T
      0.4169654627414477      0.6703373011641863      0.3739646254087493   T T T
      0.4173149624109861      0.4203556597683378      0.3739108775502885   T T T
      0.6671120256295094      0.9199815767231722      0.3739921465099801   T T T
      0.1648781180239618      0.4215054275258014      0.3755441302189850   T T T
      0.6680358404956883      0.4215256171071264      0.3751490108372491   T T T
      0.1668687024805134      0.9206841056221122      0.3738509895998089   T T T
      0.0031427471575363      0.2497239064983590      0.4785602830122200   T T T
      0.5005912236805519      0.2532334180404286      0.4795148557301227   T T T
      0.0005536886656812      0.7573475762478368      0.4789977208774625   T T T
      0.4998022076775884      0.7538105376704423      0.4795470707733862   T T T
      0.7484462009084978      0.7562394109069916      0.4790655768266573   T T T
      0.0022960863983715      0.5064683735235594      0.4859158942849927   T T T
      0.7518140591643298      0.4995205652331893      0.4892412393653328   T T T
      0.2512719068257082      0.0029591135488488      0.4799186011857549   T T T
      0.0003811645427349      0.0041506777153205      0.4798055673163876   T T T
      0.5002934913098408      0.0037270713959945      0.4799662789191679   T T T
      0.2503889922752663      0.7544953647317496      0.4796544823194225   T T T
      0.7500635657593283      0.0042291487623880      0.4797366849392577   T T T
      0.2526417819036507      0.2516894539928182      0.4787295818962015   T T T
      0.7503572229370862      0.2520327945795264      0.4783936741310142   T T T
      0.2524682863259147      0.5041582616896304      0.4791062254246896   T T T
      0.4996693210047103      0.5039371410553366      0.4795594537317351   T T T
     -0.0003075168316238      0.2546883799643695      0.1632159465631152   F F F
      0.4999007839071670      0.2544072156318718      0.1631590188169562   F F F
      0.9998892796196049      0.7543577755144472      0.1630749519022570   F F F
      0.5001562015097841      0.7540613831420317      0.1632076967089175   F F F
      0.7500485935537713      0.7542100843794400      0.1633837586160357   F F F
     -0.0002266192274766      0.5043699112881609      0.1638361214742547   F F F
      0.7499633578873902      0.5042905896066256      0.1640578739464258   F F F
      0.2498818263387113      0.0044828116693353      0.1629466723438543   F F F
     -0.0000603619630065      0.0046507444707013      0.1625646276274269   F F F
      0.4999025524939846      0.0044134571237867      0.1631904758030248   F F F
      0.2498423209443875      0.7545329934765780      0.1626247702542251   F F F
      0.7500466105512746      0.0044218646703590      0.1630363259363652   F F F
      0.2495489733156219      0.2545784020665669      0.1633269992632642   F F F
      0.7498978348393909      0.2546627140302510      0.1631740461678889   F F F
      0.2497877238233295      0.5045268999155803      0.1631661726429457   F F F
      0.5000281962607106      0.5044298336846688      0.1632134116562070   F F F
      0.0000387289040960      0.5118418690282082      0.5926242705491666   T T T
      0.0172804382685538      0.3044349042089786      0.6515658556287905   T T T
      0.7192906745188132      0.3818823486008556      0.6248589447307401   T T T
      0.9361167114479563      0.4337118898231008      0.6117015514817513   T T T
      0.7742791079327183      0.4748646884066043      0.5943841886970862   T T T
      0.1259239492300185      0.2836777732119932      0.6536957580796583   T T T
      0.6921298404743028      0.5991728015006073      0.6068087438151962   T T T
      0.7946295517531171      0.2711448055807660      0.6144589644519746   T T T
 
  0.00000000E+00  0.00000000E+00  0.00000000E+00
  0.00000000E+00  0.00000000E+00  0.00000000E+00
  0.00000000E+00  0.00000000E+00  0.00000000E+00
  0.00000000E+00  0.00000000E+00  0.00000000E+00
  0.00000000E+00  0.00000000E+00  0.00000000E+00
  0.00000000E+00  0.00000000E+00  0.00000000E+00
  0.00000000E+00  0.00000000E+00  0.00000000E+00
  0.00000000E+00  0.00000000E+00  0.00000000E+00
  0.00000000E+00  0.00000000E+00  0.00000000E+00
  0.00000000E+00  0.00000000E+00  0.00000000E+00
  0.00000000E+00  0.00000000E+00  0.00000000E+00
  0.00000000E+00  0.00000000E+00  0.00000000E+00
  0.00000000E+00  0.00000000E+00  0.00000000E+00
  0.00000000E+00  0.00000000E+00  0.00000000E+00
  0.00000000E+00  0.00000000E+00  0.00000000E+00
  0.00000000E+00  0.00000000E+00  0.00000000E+00
  0.00000000E+00  0.00000000E+00  0.00000000E+00
  0.00000000E+00  0.00000000E+00  0.00000000E+00
  0.00000000E+00  0.00000000E+00  0.00000000E+00
  0.00000000E+00  0.00000000E+00  0.00000000E+00
  0.00000000E+00  0.00000000E+00  0.00000000E+00
  0.00000000E+00  0.00000000E+00  0.00000000E+00
  0.00000000E+00  0.00000000E+00  0.00000000E+00
  0.00000000E+00  0.00000000E+00  0.00000000E+00
  0.00000000E+00  0.00000000E+00  0.00000000E+00
  0.00000000E+00  0.00000000E+00  0.00000000E+00
  0.00000000E+00  0.00000000E+00  0.00000000E+00
  0.00000000E+00  0.00000000E+00  0.00000000E+00
  0.00000000E+00  0.00000000E+00  0.00000000E+00
  0.00000000E+00  0.00000000E+00  0.00000000E+00
  0.00000000E+00  0.00000000E+00  0.00000000E+00
  0.00000000E+00  0.00000000E+00  0.00000000E+00
  0.00000000E+00  0.00000000E+00  0.00000000E+00
  0.00000000E+00  0.00000000E+00  0.00000000E+00
  0.00000000E+00  0.00000000E+00  0.00000000E+00
  0.00000000E+00  0.00000000E+00  0.00000000E+00
  0.00000000E+00  0.00000000E+00  0.00000000E+00
  0.00000000E+00  0.00000000E+00  0.00000000E+00
  0.00000000E+00  0.00000000E+00  0.00000000E+00
  0.00000000E+00  0.00000000E+00  0.00000000E+00
  0.00000000E+00  0.00000000E+00  0.00000000E+00
  0.00000000E+00  0.00000000E+00  0.00000000E+00
  0.00000000E+00  0.00000000E+00  0.00000000E+00
  0.00000000E+00  0.00000000E+00  0.00000000E+00
  0.00000000E+00  0.00000000E+00  0.00000000E+00
  0.00000000E+00  0.00000000E+00  0.00000000E+00
  0.00000000E+00  0.00000000E+00  0.00000000E+00
  0.00000000E+00  0.00000000E+00  0.00000000E+00
  0.00000000E+00  0.00000000E+00  0.00000000E+00
  0.00000000E+00  0.00000000E+00  0.00000000E+00
  0.00000000E+00  0.00000000E+00  0.00000000E+00
  0.00000000E+00  0.00000000E+00  0.00000000E+00
  0.00000000E+00  0.00000000E+00  0.00000000E+00
  0.00000000E+00  0.00000000E+00  0.00000000E+00
  0.00000000E+00  0.00000000E+00  0.00000000E+00
  0.00000000E+00  0.00000000E+00  0.00000000E+00
  0.00000000E+00  0.00000000E+00  0.00000000E+00
  0.00000000E+00  0.00000000E+00  0.00000000E+00
  0.00000000E+00  0.00000000E+00  0.00000000E+00
  0.00000000E+00  0.00000000E+00  0.00000000E+00
  0.00000000E+00  0.00000000E+00  0.00000000E+00
  0.00000000E+00  0.00000000E+00  0.00000000E+00
  0.00000000E+00  0.00000000E+00  0.00000000E+00
  0.00000000E+00  0.00000000E+00  0.00000000E+00
  0.00000000E+00  0.00000000E+00  0.00000000E+00
  0.00000000E+00  0.00000000E+00  0.00000000E+00
  0.00000000E+00  0.00000000E+00  0.00000000E+00
  0.00000000E+00  0.00000000E+00  0.00000000E+00
  0.00000000E+00  0.00000000E+00  0.00000000E+00
  0.00000000E+00  0.00000000E+00  0.00000000E+00
  0.00000000E+00  0.00000000E+00  0.00000000E+00
  0.00000000E+00  0.00000000E+00  0.00000000E+00
