 Ni_O                                   
   1.00000000000000     
     9.8292000000000002    0.0000000000000000    0.0000000000000000
     4.9146000000000001    8.5123370000000005    0.0000000000000000
     0.0000000000000000    0.0000000000000000   30.7148000000000003
   Ni   O    H    C    O    H 
    64    30    60     1     1     1
Selective dynamics
Direct
  0.0792283199999986  0.0817630000000023  0.1186269600000003   F   F   F
  0.3261458200000007  0.0945059900000018  0.1218180300000000   F   F   F
  0.3333135000000027  0.8340758399999970  0.1222633900000005   F   F   F
  0.5853292299999993  0.3375219899999991  0.1220220000000012   F   F   F
  0.3372137499999965  0.5903115300000010  0.1199067900000017   F   F   F
  0.3372616199999996  0.3405483000000018  0.1218415900000025   F   F   F
  0.8334440200000017  0.0800302700000017  0.1204451199999994   F   F   F
  0.5765709699999988  0.0842646400000007  0.1201501899999968   F   F   F
  0.8393408900000026  0.3292407699999984  0.1215803500000021   F   F   F
  0.5901924599999973  0.5773147600000001  0.1221725899999981   F   F   F
  0.0832248299999989  0.8332026300000024  0.1214728500000035   F   F   F
  0.5743362899999980  0.8428757699999991  0.1194628200000025   F   F   F
  0.0847698600000015  0.3327511099999967  0.1229317199999969   F   F   F
  0.8318529100000021  0.5821238400000013  0.1219111999999996   F   F   F
  0.0778449199999969  0.5981744199999994  0.1186460799999978   F   F   F
  0.8302746000000027  0.8313213300000015  0.1207902900000022   F   F   F
  0.1623740601891427  0.1708247740548486  0.1862731800434935   T   T   T
  0.1648508816013073  0.9149624893194278  0.1855170078185681   T   T   T
  0.4229485437296788  0.1658993727551822  0.1854876894272375   T   T   T
  0.4221507687456728  0.9112888165144821  0.1883348056971695   T   T   T
  0.4210741751045858  0.4099438187804516  0.1883696635721382   T   T   T
  0.4076649538444367  0.6676443444090792  0.1901229813921643   T   T   T
  0.9081315783877737  0.1605720801328533  0.1856764779953953   T   T   T
  0.6608985721134856  0.1717875020479198  0.1850437469596498   T   T   T
  0.6705646457527590  0.4049290207983062  0.1871582020078994   T   T   T
  0.1647799130414908  0.6620194106075821  0.1898158573588001   T   T   T
  0.9180728512209907  0.4194810770256050  0.1834341885129785   T   T   T
  0.6607019524450591  0.6660226331931342  0.1873896331756860   T   T   T
  0.9238342802551797  0.9122668682503580  0.1881443621005988   T   T   T
  0.6763054640955797  0.9027372970870089  0.1906897815937174   T   T   T
  0.1694990865761496  0.4076215277526004  0.1877812839412289   T   T   T
  0.9235261931399578  0.6640054774461908  0.1838299888137039   T   T   T
  0.2346956550654126  0.0197253465908003  0.2484576647763178   T   T   T
  0.4996195084919985  0.2521576442378714  0.2574895488788563   T   T   T
  0.4998017758079135  0.5063227623557892  0.2530883463260754   T   T   T
  0.2414451379040321  0.2546934590124194  0.2533840828326704   T   T   T
 -0.0123077840541123  0.2561936658847340  0.2470231135131051   T   T   T
  0.7484034332914264  0.2553988011406198  0.2579415199187913   T   T   T
  0.4964509891844712  0.7658232627547552  0.2518843240900663   T   T   T
  0.2493164080091481  0.7493504593653483  0.2534433505298482   T   T   T
  0.4928481763927864  0.0137844725241161  0.2552580251758865   T   T   T
 -0.0076137898975221  1.0040407685905011  0.2536095559140724   T   T   T
  0.2417842816517222  0.5075321936279044  0.2552788635723570   T   T   T
  0.7367495492561067  0.5120459633239586  0.2595876710042783   T   T   T
  0.7519023543315168 -0.0000361175480024  0.2511994993096278   T   T   T
  0.9993033361484558  0.7459964868440144  0.2554401547211932   T   T   T
  0.7465347995412918  0.7699485536446522  0.2645833964268334   T   T   T
  1.0049766965836349  0.4963210999810596  0.2511332819738759   T   T   T
  0.2488099899999980  0.0018900000000031  0.0530725899999993   F   F   F
  0.4986599900000002  0.2520299800000032  0.0530725899999993   F   F   F
  0.4987100700000013  0.5019500100000016  0.0530725899999993   F   F   F
  0.2486699900000033  0.2519600099999977  0.0530725899999993   F   F   F
  0.9988300199999998  0.2520000100000033  0.0530725899999993   F   F   F
  0.7487000499999965  0.2521199999999979  0.0530725899999993   F   F   F
  0.4986899700000009  0.7520999700000033  0.0530725899999993   F   F   F
  0.2487699599999971  0.7521200300000004  0.0530725899999993   F   F   F
  0.4985999800000016  0.0021100000000018  0.0530725899999993   F   F   F
  0.9987700300000029  0.0022099999999980  0.0530725899999993   F   F   F
  0.2487500100000020  0.5021200300000004  0.0530725899999993   F   F   F
  0.7486699900000033  0.5022699800000012  0.0530725899999993   F   F   F
  0.7485900000000001  0.0024500000000032  0.0530725899999993   F   F   F
  0.9987000499999965  0.7524499700000007  0.0530725899999993   F   F   F
  0.7486699299999984  0.7524300299999993  0.0530725899999993   F   F   F
  0.9986899600000001  0.5022000199999965  0.0530725899999993   F   F   F
  1.2733029705402741  0.8821483920093621  0.5892809840248946   T   T   T
  0.8698750558168006  0.9002062404171093  0.6313351825486254   T   T   T
  0.4537337798897877  0.8373915873667990  0.3591044897588949   T   T   T
  0.0112611804313519  0.2237028118798328  0.4108717177879719   T   T   T
  0.4821996714426773  0.1099975112586822  0.3552148060006021   T   T   T
  0.2948017132299093  0.5654660805892721  0.5973439461731636   T   T   T
  0.5103043771689645  0.7275456539111945  0.4386918013135123   T   T   T
  0.2002281662901047  0.5826583739101698  0.3840543572729911   T   T   T
  0.7428838117795007  0.6888594167458427  0.3287983100337606   T   T   T
  0.0691244131347140  0.8603876389355342  0.4661908806917832   T   T   T
  0.9950246213348267  0.0560344227081174  0.3470181695800753   T   T   T
  0.4886477670713040  0.3468064050353554  0.5404134290472633   T   T   T
  0.5189621100811683  0.1173411829232718  0.6057797117273037   T   T   T
  0.7094048808893144  0.4150761723683256  0.4515060941006451   T   T   T
  0.8371731935550469  0.5273808929039160  0.5770642318203167   T   T   T
  0.3210683423037051  0.5837367998631962  0.4705119190065603   T   T   T
  0.7505783014762404  0.9426374693328223  0.4467516677446031   T   T   T
  1.0950803182578692  0.5260308365056786  0.5395540562092703   T   T   T
  1.2960063379451585  0.3435992065182551  0.6542642072534489   T   T   T
  0.7995032236218335  0.2737094067405874  0.5624916401960116   T   T   T
  1.0270651169111848  0.3805125805079785  0.6457580059024386   T   T   T
  0.5739556102678880  0.8433660906425164  0.5775077412096651   T   T   T
  0.8928900528630960  0.8112267028338128  0.3752104791896473   T   T   T
  1.0238591688414049  0.0903011967837744  0.6340913661344140   T   T   T
  0.5139823649777553 -0.0609389455427236  0.4960047063880516   T   T   T
  1.0691072927653493  1.0976844428762214  0.5250450362131037   T   T   T
  0.5712330312056900  0.2338354120445144  0.4239951616065272   T   T   T
  1.2510228615950283  0.2185640193914611  0.4883313393168033   T   T   T
  0.2402265032702041  0.7664226571503212  0.3219391170711978   T   T   T
  0.1536005850549886  0.3366998045249453  0.3599422527440683   T   T   T
  0.3849705970537858  0.8641157976318296  0.5838367133182150   T   T   T
  0.2803866781645283  0.7800006265741667  0.5948703124474269   T   T   T
  0.8986029209567832  0.7979499670728297  0.6188272865378370   T   T   T
  0.7585698415621601 -0.0439488709423566  0.6329116449863635   T   T   T
  0.4233151919257027  0.9569325613433302  0.3577576682041595   T   T   T
  0.3915323155417237  0.8098244642422255  0.3400219992164465   T   T   T
  0.9052272989902278  0.2919431714126046  0.4222578279150617   T   T   T
  0.0469411690526617  0.2861958203337037  0.3929912610402379   T   T   T
  0.3674740219206135  0.1772139750300246  0.3520710021023068   T   T   T
  0.5262948395362725  1.1023451715252897  0.3265688912086081   T   T   T
  0.3007296541568408  0.5023273747430669  0.6247069491031265   T   T   T
  1.2204584522617381  0.5513205679319474  0.5796674741883067   T   T   T
  0.5033286344178101  0.8078452079016508  0.4600601195421860   T   T   T
  0.4966334356496994  0.7696937921287003  0.4077462685749476   T   T   T
  0.0935217700378678  0.6753596710642630  0.3847338761309827   T   T   T
  0.2614585949065199  0.5775793528527247  0.4103187791431693   T   T   T
  0.6328079663571160  0.7569676949423391  0.3391774073281987   T   T   T
  0.8090554028037477  0.7176322340045895  0.3471572392839617   T   T   T
  0.0908439961913910  0.9086801660840561  0.4407700280620430   T   T   T
  0.1599332737198180  0.7453417482493595  0.4675391203219489   T   T   T
  0.9270931784997697  0.1365672463731754  0.3238792987710971   T   T   T
  0.9855870496715018  0.1428793859314565  0.3694943159006974   T   T   T
  0.6022472090337881  0.3053887651632974  0.5445838915390270   T   T   T
  0.4300685624661148  0.4129680925921588  0.5666720743034749   T   T   T
  0.4215210473153880  0.1849345091519009  0.6246793313474933   T   T   T
  0.4994516129429661  0.1708292934533355  0.5785307754966911   T   T   T
  0.6623003288609385  0.5296835899914382  0.4425680551607071   T   T   T
  0.7297882284473332  0.4016950686936378  0.4829785740519955   T   T   T
  0.7294130933411527  0.6321941008465638  0.5819694516526036   T   T   T
  0.8263212686660653  0.4365750882223411  0.5680544911901990   T   T   T
  0.3941824124742422  0.6146629813530688  0.4602596089826547   T   T   T
  0.3810505985850454  0.5039054955913908  0.4942888276510277   T   T   T
  0.6906239411915132  1.0660441496672792  0.4395785531083700   T   T   T
  0.8541479772705862  0.9205877218602962  0.4610018627204717   T   T   T
  1.1341070429937556  0.4384499223345916  0.5181263746201181   T   T   T
  0.9993286721825820  0.5319489110655174  0.5494018218777165   T   T   T
  0.3046500459912697  0.3159356562514312  0.6845940272469210   T   T   T
  1.1764108820304144  0.3671353743683559  0.6454306201956536   T   T   T
  0.9155187826826537  0.1927569758983211  0.5518434514629473   T   T   T
  0.8088524050697318  0.2533428924397634  0.5941895152286935   T   T   T
  1.0270635488992248  0.2798779801731809  0.6509980298674244   T   T   T
  0.9409869230093579  0.4398845324119596  0.6243868103977436   T   T   T
  0.5616210487090989  0.9398771905140549  0.5939928688023043   T   T   T
  0.5470391741120766  0.8886602423226833  0.5463767717382764   T   T   T
  0.8935154095967299  0.8907975112628960  0.3572703991801945   T   T   T
  0.8333460672814195  0.8640710992015939  0.4017220884296109   T   T   T
  1.1247873604811729  1.0028727643374495  0.6245041895732560   T   T   T
  0.9658866745212049  0.0554280351970108  0.6536845747992168   T   T   T
  0.4118995673495908  0.0388460894042984  0.4872870265625253   T   T   T
  0.6013777994753408 -0.0562821855152147  0.4801050583104849   T   T   T
  1.0548484526061987  1.0305523503746465  0.5022432449593660   T   T   T
  1.1422983928977928  1.0185952169466916  0.5446088304310193   T   T   T
  0.6138456521378949  0.3009833630499735  0.4207489876626070   T   T   T
  0.5537792083462839  0.2086333541654503  0.3945509628792898   T   T   T
  0.2094338060115582  0.2326453543565837  0.4582782810405192   T   T   T
  1.1829603634551098  0.1934049693334169  0.5047042517435313   T   T   T
  0.2534234337068736  0.6588503262997988  0.3289746494586722   T   T   T
  0.1458871973484725  0.8643692894917682  0.3324649453747033   T   T   T
  0.1044871316366984  0.3679435221453414  0.3305486438373736   T   T   T
  0.1596740337258777  0.4270573940575642  0.3711818445225990   T   T   T
  0.6560768114501631  0.4051575159177125  0.2977251120280141   T   T   T
  0.5936284018715728  0.3850722182964302  0.3342092314907004   T   T   T
  0.5352807414640754  0.3135297044737696  0.3184340731679130   T   T   T
 
  0.00000000E+00  0.00000000E+00  0.00000000E+00
  0.00000000E+00  0.00000000E+00  0.00000000E+00
  0.00000000E+00  0.00000000E+00  0.00000000E+00
  0.00000000E+00  0.00000000E+00  0.00000000E+00
  0.00000000E+00  0.00000000E+00  0.00000000E+00
  0.00000000E+00  0.00000000E+00  0.00000000E+00
  0.00000000E+00  0.00000000E+00  0.00000000E+00
  0.00000000E+00  0.00000000E+00  0.00000000E+00
  0.00000000E+00  0.00000000E+00  0.00000000E+00
  0.00000000E+00  0.00000000E+00  0.00000000E+00
  0.00000000E+00  0.00000000E+00  0.00000000E+00
  0.00000000E+00  0.00000000E+00  0.00000000E+00
  0.00000000E+00  0.00000000E+00  0.00000000E+00
  0.00000000E+00  0.00000000E+00  0.00000000E+00
  0.00000000E+00  0.00000000E+00  0.00000000E+00
  0.00000000E+00  0.00000000E+00  0.00000000E+00
  0.34920808E-02  0.36267089E-02 -0.32738185E-02
  0.30448821E-03 -0.28795922E-02  0.45045528E-03
  0.49131486E-03 -0.55512138E-03  0.22471951E-02
 -0.28541373E-02 -0.33171121E-02  0.11387541E-02
 -0.38073580E-03 -0.14911365E-02  0.48126824E-03
  0.23974794E-02 -0.14818196E-02  0.16264257E-02
  0.37665382E-02 -0.10041288E-03  0.45662636E-03
  0.66948423E-03 -0.32818791E-03 -0.10687242E-02
  0.15709386E-02  0.19776777E-02 -0.13886334E-02
  0.24007001E-02 -0.11980528E-02 -0.50268844E-03
  0.49594062E-03 -0.82783866E-03  0.14383809E-03
 -0.12013072E-02  0.77537411E-03 -0.17827065E-02
  0.56320472E-02 -0.86020210E-03 -0.44698187E-03
  0.19002227E-02 -0.82169784E-03 -0.57278530E-03
 -0.28726440E-03  0.78017299E-03  0.22575986E-03
 -0.10623760E-02 -0.40505251E-02 -0.31430158E-02
  0.20975326E-02  0.18536875E-02  0.40198859E-02
 -0.17226694E-02  0.12821511E-02  0.57130655E-02
 -0.91573228E-03 -0.16568097E-02 -0.10900042E-02
 -0.11779375E-02 -0.25351491E-03  0.24967532E-03
 -0.47277851E-04  0.25800759E-03  0.22863224E-02
  0.22478263E-03 -0.83649200E-03 -0.10085507E-02
  0.63220158E-03  0.10615561E-02  0.27079457E-02
 -0.39975356E-02 -0.16153070E-02 -0.13679311E-02
 -0.26695564E-02 -0.48940085E-03  0.12153157E-02
 -0.22153675E-02 -0.22890647E-02  0.32791220E-02
 -0.28402473E-02 -0.65025722E-03  0.54427067E-03
  0.29285430E-03 -0.14374941E-02 -0.36011585E-03
  0.19065732E-04  0.34364195E-02 -0.31804711E-02
  0.13182653E-02  0.10473467E-02 -0.19918783E-02
 -0.76618171E-03 -0.46103840E-02 -0.45290204E-03
  0.10915697E-02 -0.16539389E-02  0.10307667E-02
  0.00000000E+00  0.00000000E+00  0.00000000E+00
  0.00000000E+00  0.00000000E+00  0.00000000E+00
  0.00000000E+00  0.00000000E+00  0.00000000E+00
  0.00000000E+00  0.00000000E+00  0.00000000E+00
  0.00000000E+00  0.00000000E+00  0.00000000E+00
  0.00000000E+00  0.00000000E+00  0.00000000E+00
  0.00000000E+00  0.00000000E+00  0.00000000E+00
  0.00000000E+00  0.00000000E+00  0.00000000E+00
  0.00000000E+00  0.00000000E+00  0.00000000E+00
  0.00000000E+00  0.00000000E+00  0.00000000E+00
  0.00000000E+00  0.00000000E+00  0.00000000E+00
  0.00000000E+00  0.00000000E+00  0.00000000E+00
  0.00000000E+00  0.00000000E+00  0.00000000E+00
  0.00000000E+00  0.00000000E+00  0.00000000E+00
  0.00000000E+00  0.00000000E+00  0.00000000E+00
  0.00000000E+00  0.00000000E+00  0.00000000E+00
  0.85743011E-03  0.59745043E-02  0.10293436E-02
  0.31812700E-02  0.26120169E-02  0.11690449E-02
  0.71697544E-04  0.17927160E-03 -0.32609949E-02
  0.99005849E-03 -0.36454418E-02  0.83227884E-03
  0.47618329E-03 -0.94611770E-03 -0.43400587E-02
  0.55119099E-02 -0.31808647E-02  0.65319929E-02
  0.34681173E-02  0.13301199E-03  0.32721346E-02
  0.39536718E-02 -0.36790383E-02  0.25718241E-02
  0.25795565E-02  0.34825727E-02  0.32421442E-02
 -0.17368542E-03  0.37477454E-02  0.22140839E-02
  0.99980823E-02 -0.24633410E-02  0.70257775E-03
  0.64840520E-02 -0.18907404E-02  0.14175276E-02
 -0.17330125E-02  0.31209868E-02  0.91783191E-02
 -0.48129785E-02  0.32388694E-02  0.10958791E-01
  0.76880830E-02 -0.24275846E-03 -0.18371068E-03
  0.13525511E-02 -0.27189674E-03  0.18685303E-02
 -0.15931093E-02  0.33578424E-02 -0.23429232E-02
  0.15494327E-02  0.20422273E-02  0.64674189E-04
  0.43686041E-02 -0.41832255E-02  0.28732518E-02
  0.41698953E-02  0.49920156E-02 -0.52355839E-02
 -0.87693229E-03  0.32282320E-02  0.14057560E-02
 -0.93201786E-03  0.36344735E-02 -0.87718118E-03
  0.48787907E-02  0.44647491E-02  0.72335520E-02
  0.14485157E-02 -0.23508113E-02  0.19873127E-02
  0.21640300E-02 -0.55991351E-02  0.34482071E-02
 -0.77985958E-02  0.24535695E-02 -0.16366737E-02
 -0.43412009E-02 -0.33010138E-02  0.47156401E-02
  0.28998471E-02  0.35581830E-02 -0.67861661E-02
 -0.35244099E-03 -0.20987507E-02  0.65384347E-02
 -0.56033854E-02  0.49119271E-02  0.11927560E-02
 -0.15676204E-02 -0.32258911E-02  0.12241843E-01
 -0.21756206E-02  0.13562829E-02  0.87763113E-02
  0.31885099E-01 -0.36929953E-03  0.19941433E-01
 -0.67566608E-02  0.14261435E-01  0.45792099E-02
 -0.72632349E-02 -0.13526228E-01 -0.37612380E-02
 -0.30177773E-01  0.68292622E-02 -0.62577956E-02
  0.14141979E-02  0.50260398E-02 -0.77166991E-02
 -0.48776961E-02 -0.52092153E-02 -0.15948422E-01
 -0.17410350E-01 -0.36102215E-02 -0.23830432E-01
 -0.10365960E-01 -0.49703071E-02  0.62390474E-02
  0.42168589E-01  0.12649080E-01  0.68793671E-03
 -0.32728646E-01  0.19175512E-01  0.93070385E-02
  0.59954266E-02 -0.20191654E-01  0.64588713E-02
  0.10809531E-01  0.47263558E-02  0.20430434E-01
  0.10389052E-01  0.15391671E-01  0.18931098E-01
 -0.15140342E-01  0.43836754E-02  0.20617547E-01
  0.16768675E-01  0.12452078E-01 -0.77240937E-03
 -0.14088194E-01 -0.70161021E-02  0.23581127E-02
 -0.30553668E-01  0.14861950E-01  0.88799507E-02
 -0.45061016E-01  0.20696280E-01  0.68132007E-02
 -0.17984512E-01  0.97605931E-02 -0.63017479E-02
  0.10331968E-01 -0.14499287E-01 -0.45417759E-02
 -0.77215645E-02  0.14223473E-01  0.43077983E-02
  0.14624915E-01 -0.69381668E-02  0.24703745E-01
  0.34197375E-01 -0.84435883E-03  0.43973724E-01
  0.99935565E-02 -0.10703825E-01 -0.18652865E-01
 -0.16953178E-01  0.81492397E-02  0.21978525E-01
  0.15096729E-01  0.19505953E-01 -0.51414650E-02
  0.14083385E-01 -0.33033852E-01  0.14496215E-02
  0.12059068E-01  0.57300997E-02 -0.36464908E-03
 -0.42015005E-02  0.30162746E-01  0.15406763E-01
 -0.25899530E-02  0.21748173E-01 -0.52726181E-02
 -0.12205629E-01 -0.28821194E-01 -0.16820005E-01
  0.12217971E-01 -0.95279727E-02 -0.14896412E-01
 -0.13890705E-01 -0.88634525E-02 -0.35068303E-02
 -0.18178832E-01  0.15075052E-01 -0.17156287E-01
 -0.97069467E-02 -0.99775971E-02  0.14955723E-01
  0.82241648E-02 -0.16116175E-02 -0.14607095E-01
 -0.17688300E-01  0.17205291E-01  0.57861009E-02
 -0.18691454E-01  0.13219739E-01  0.17229925E-01
  0.86033076E-02  0.24969591E-01  0.12619133E-02
 -0.22940352E-01  0.23099133E-02 -0.86013955E-02
 -0.25723344E-01 -0.15927379E-01 -0.18450993E-01
 -0.90668705E-02 -0.20954695E-01 -0.13611653E-01
  0.12794699E-01 -0.13752611E-01 -0.23120940E-02
 -0.14838682E-01  0.10264014E-01 -0.61441857E-02
 -0.15095226E-01  0.38766809E-02  0.11441713E-01
  0.36435364E-01  0.44513277E-02 -0.23235719E-01
  0.34516917E-01 -0.82307720E-02  0.47285047E-03
  0.23524108E-01  0.16891738E-01  0.67701932E-02
  0.15995400E-01 -0.99613512E-02 -0.33275110E-01
  0.34035099E-02 -0.65543569E-02  0.68461981E-02
  0.19609368E-01  0.31696814E-02  0.13019406E-01
 -0.18795539E-02  0.91956227E-02 -0.15144323E-01
  0.14814999E-01  0.99422476E-03  0.14617262E-01
  0.13343373E-01 -0.18731149E-01 -0.17608681E-02
 -0.17363162E-01  0.28515143E-01  0.32280216E-01
 -0.54298483E-02 -0.14144129E-01  0.91823302E-03
 -0.42972956E-02 -0.14765036E-01 -0.15062546E-01
 -0.41368863E-02 -0.60284487E-02  0.46233192E-02
  0.45016298E-02  0.22463756E-02  0.57534899E-02
  0.28582515E-03  0.85404729E-03  0.87205648E-02
  0.95552977E-02  0.53765002E-02 -0.12108985E-01
 
           1
   1.00000000000000     
  0.62778034E-01 -0.39257499E-03 -0.21254983E-03  0.63080596E-01
  0.79228320E-01  0.81763000E-01  0.11862696E+00
  0.32614582E+00  0.94505990E-01  0.12181803E+00
  0.33331350E+00  0.83407584E+00  0.12226339E+00
  0.58532923E+00  0.33752199E+00  0.12202200E+00
  0.33721375E+00  0.59031153E+00  0.11990679E+00
  0.33726162E+00  0.34054830E+00  0.12184159E+00
  0.83344402E+00  0.80030270E-01  0.12044512E+00
  0.57657097E+00  0.84264640E-01  0.12015019E+00
  0.83934089E+00  0.32924077E+00  0.12158035E+00
  0.59019246E+00  0.57731476E+00  0.12217259E+00
  0.83224830E-01  0.83320263E+00  0.12147285E+00
  0.57433629E+00  0.84287577E+00  0.11946282E+00
  0.84769860E-01  0.33275111E+00  0.12293172E+00
  0.83185291E+00  0.58212384E+00  0.12191120E+00
  0.77844920E-01  0.59817442E+00  0.11864608E+00
  0.83027460E+00  0.83132133E+00  0.12079029E+00
  0.16251631E+00  0.17125083E+00  0.18616659E+00
  0.16505100E+00  0.91462420E+00  0.18553167E+00
  0.42303114E+00  0.16583416E+00  0.18556085E+00
  0.42205524E+00  0.91089913E+00  0.18837188E+00
  0.42112303E+00  0.40976865E+00  0.18838533E+00
  0.40799591E+00  0.66747027E+00  0.19017593E+00
  0.90852068E+00  0.16056028E+00  0.18569134E+00
  0.66098596E+00  0.17174895E+00  0.18500895E+00
  0.67060830E+00  0.40516135E+00  0.18711299E+00
  0.16509453E+00  0.66187867E+00  0.18979949E+00
  0.91817193E+00  0.41938383E+00  0.18343887E+00
  0.66053419E+00  0.66611372E+00  0.18733159E+00
  0.92445780E+00  0.91216581E+00  0.18812981E+00
  0.67654705E+00  0.90264077E+00  0.19067113E+00
  0.16942403E+00  0.40771318E+00  0.18778863E+00
  0.92365603E+00  0.66352964E+00  0.18372766E+00
  0.23480017E+00  0.19943111E-01  0.24858854E+00
  0.49936894E+00  0.25230827E+00  0.25767555E+00
  0.49980593E+00  0.50612813E+00  0.25305286E+00
  0.24134019E+00  0.25466368E+00  0.25339221E+00
  0.98767225E+00  0.25622398E+00  0.24709755E+00
  0.74847544E+00  0.25530053E+00  0.25790868E+00
  0.49645295E+00  0.76594797E+00  0.25197249E+00
  0.24900459E+00  0.74916070E+00  0.25339881E+00
  0.49260533E+00  0.13726979E-01  0.25529759E+00
  0.99229528E+00  0.37718572E-02  0.25371632E+00
  0.24153352E+00  0.50745580E+00  0.25529658E+00
  0.73686378E+00  0.51187709E+00  0.25957595E+00
  0.75170244E+00  0.36758117E-03  0.25109595E+00
  0.99937593E+00  0.74611953E+00  0.25537530E+00
  0.74672766E+00  0.76940694E+00  0.26456865E+00
  0.51848999E-02  0.49612680E+00  0.25116684E+00
  0.24880999E+00  0.18900000E-02  0.53072590E-01
  0.49865999E+00  0.25202998E+00  0.53072590E-01
  0.49871007E+00  0.50195001E+00  0.53072590E-01
  0.24866999E+00  0.25196001E+00  0.53072590E-01
  0.99883002E+00  0.25200001E+00  0.53072590E-01
  0.74870005E+00  0.25212000E+00  0.53072590E-01
  0.49868997E+00  0.75209997E+00  0.53072590E-01
  0.24876996E+00  0.75212003E+00  0.53072590E-01
  0.49859998E+00  0.21100000E-02  0.53072590E-01
  0.99877003E+00  0.22100000E-02  0.53072590E-01
  0.24875001E+00  0.50212003E+00  0.53072590E-01
  0.74866999E+00  0.50226998E+00  0.53072590E-01
  0.74859000E+00  0.24500000E-02  0.53072590E-01
  0.99870005E+00  0.75244997E+00  0.53072590E-01
  0.74866993E+00  0.75243003E+00  0.53072590E-01
  0.99868996E+00  0.50220002E+00  0.53072590E-01
  0.27303927E+00  0.88285026E+00  0.58931450E+00
  0.87004529E+00  0.90051309E+00  0.63137324E+00
  0.45373054E+00  0.83741265E+00  0.35899832E+00
  0.11576034E-01  0.22327456E+00  0.41089881E+00
  0.48230369E+00  0.10988636E+00  0.35507350E+00
  0.29554932E+00  0.56509240E+00  0.59755661E+00
  0.51064940E+00  0.72756128E+00  0.43879833E+00
  0.20084650E+00  0.58222617E+00  0.38413809E+00
  0.74294169E+00  0.68926854E+00  0.32890387E+00
  0.68886607E-01  0.86082791E+00  0.46626297E+00
  0.99618650E+00  0.55745038E-01  0.34704104E+00
  0.48941850E+00  0.34658429E+00  0.54045958E+00
  0.51860248E+00  0.11770783E+00  0.60607854E+00
  0.70872497E+00  0.41545666E+00  0.45186289E+00
  0.83796962E+00  0.52735237E+00  0.57705825E+00
  0.32122192E+00  0.58370486E+00  0.47057275E+00
  0.75021899E+00  0.94303194E+00  0.44667539E+00
  0.95117997E-01  0.52627075E+00  0.53955616E+00
  0.29669651E+00  0.34310778E+00  0.65435775E+00
  0.79963424E+00  0.27429585E+00  0.56232118E+00
  0.26786279E-01  0.38089182E+00  0.64580377E+00
  0.57364731E+00  0.84379306E+00  0.57747918E+00
  0.89312416E+00  0.81175121E+00  0.37544599E+00
  0.24144620E-01  0.90025032E-01  0.63415607E+00
  0.51453141E+00  0.93840329E+00  0.49611697E+00
  0.68169763E-01  0.97972680E-01  0.52499175E+00
  0.57098526E+00  0.23344762E+00  0.42414869E+00
  0.25110888E+00  0.21898202E+00  0.48811040E+00
  0.24031392E+00  0.76617610E+00  0.32215199E+00
  0.15274199E+00  0.33727684E+00  0.35998109E+00
  0.38500059E+00  0.86373683E+00  0.58423528E+00
  0.28008567E+00  0.78015996E+00  0.59515605E+00
  0.90186853E+00  0.79790658E+00  0.61947653E+00
  0.75704474E+00  0.95772651E+00  0.63306073E+00
  0.42337075E+00  0.95534355E+00  0.35763521E+00
  0.38806096E+00  0.81062674E+00  0.33981826E+00
  0.90507596E+00  0.29253361E+00  0.42200659E+00
  0.46750904E-01  0.28558386E+00  0.39247202E+00
  0.36591479E+00  0.17678986E+00  0.35129514E+00
  0.52553218E+00  0.10176128E+00  0.32677202E+00
  0.30427680E+00  0.50381335E+00  0.62472935E+00
  0.21600238E+00  0.55357324E+00  0.57997049E+00
  0.50512462E+00  0.80547316E+00  0.46027040E+00
  0.49745555E+00  0.77024903E+00  0.40841143E+00
  0.93674648E-01  0.67716783E+00  0.38535023E+00
  0.25966076E+00  0.57809433E+00  0.41099004E+00
  0.63378256E+00  0.75843052E+00  0.33915226E+00
  0.80803422E+00  0.71680801E+00  0.34723401E+00
  0.86862572E-01  0.91042610E+00  0.44105914E+00
  0.15413321E+00  0.74777308E+00  0.46776094E+00
  0.92469016E+00  0.13771389E+00  0.32367413E+00
  0.98748986E+00  0.14117606E+00  0.36934645E+00
  0.60062617E+00  0.30705969E+00  0.54472414E+00
  0.43196400E+00  0.41215302E+00  0.56747637E+00
  0.42504981E+00  0.18483532E+00  0.62611101E+00
  0.50109706E+00  0.16957184E+00  0.57792348E+00
  0.66009688E+00  0.53064093E+00  0.44328362E+00
  0.73017839E+00  0.40398656E+00  0.48281118E+00
  0.73278626E+00  0.62831340E+00  0.58201665E+00
  0.82721155E+00  0.43724824E+00  0.56804262E+00
  0.39198325E+00  0.61820640E+00  0.46076122E+00
  0.37950965E+00  0.50646040E+00  0.49411716E+00
  0.69107508E+00  0.62658335E-01  0.43903093E+00
  0.85595066E+00  0.91946841E+00  0.46051687E+00
  0.13321446E+00  0.43740867E+00  0.51801220E+00
  0.99659372E+00  0.53371988E+00  0.54884325E+00
  0.30424855E+00  0.31476352E+00  0.68508095E+00
  0.17734225E+00  0.36694605E+00  0.64495505E+00
  0.91270861E+00  0.19477819E+00  0.55203183E+00
  0.80617428E+00  0.25489590E+00  0.59475048E+00
  0.26472159E-01  0.28281132E+00  0.65103911E+00
  0.93851734E+00  0.44015589E+00  0.62410677E+00
  0.55993956E+00  0.93800610E+00  0.59339215E+00
  0.54734757E+00  0.88619856E+00  0.54593361E+00
  0.89562492E+00  0.88918190E+00  0.35719512E+00
  0.83123352E+00  0.86527688E+00  0.40152205E+00
  0.12302390E+00  0.33281834E-02  0.62487670E+00
  0.96933206E+00  0.55950962E-01  0.65292808E+00
  0.41589470E+00  0.37879167E-01  0.48730242E+00
  0.60277890E+00  0.94570220E+00  0.48032548E+00
  0.57060900E-01  0.29382125E-01  0.50115989E+00
  0.14302965E+00  0.17825234E-01  0.54483173E+00
  0.61565448E+00  0.30135573E+00  0.42117287E+00
  0.55304785E+00  0.20971362E+00  0.39405790E+00
  0.21088265E+00  0.23276215E+00  0.45875418E+00
  0.18541812E+00  0.19120450E+00  0.50464692E+00
  0.24998202E+00  0.66220019E+00  0.33002562E+00
  0.14616558E+00  0.86270769E+00  0.33249484E+00
  0.10491721E+00  0.36620898E+00  0.33005824E+00
  0.15960726E+00  0.42634919E+00  0.37133237E+00
  0.65640285E+00  0.40542141E+00  0.29791243E+00
  0.59360732E+00  0.38517255E+00  0.33449315E+00
  0.53593707E+00  0.31416132E+00  0.31803983E+00
  0.00000000E+00  0.00000000E+00  0.00000000E+00
  0.00000000E+00  0.00000000E+00  0.00000000E+00
  0.00000000E+00  0.00000000E+00  0.00000000E+00
  0.00000000E+00  0.00000000E+00  0.00000000E+00
  0.00000000E+00  0.00000000E+00  0.00000000E+00
  0.00000000E+00  0.00000000E+00  0.00000000E+00
  0.00000000E+00  0.00000000E+00  0.00000000E+00
  0.00000000E+00  0.00000000E+00  0.00000000E+00
  0.00000000E+00  0.00000000E+00  0.00000000E+00
  0.00000000E+00  0.00000000E+00  0.00000000E+00
  0.00000000E+00  0.00000000E+00  0.00000000E+00
  0.00000000E+00  0.00000000E+00  0.00000000E+00
  0.00000000E+00  0.00000000E+00  0.00000000E+00
  0.00000000E+00  0.00000000E+00  0.00000000E+00
  0.00000000E+00  0.00000000E+00  0.00000000E+00
  0.00000000E+00  0.00000000E+00  0.00000000E+00
  0.00000000E+00  0.00000000E+00  0.00000000E+00
  0.00000000E+00  0.00000000E+00  0.00000000E+00
  0.00000000E+00  0.00000000E+00  0.00000000E+00
  0.00000000E+00  0.00000000E+00  0.00000000E+00
  0.00000000E+00  0.00000000E+00  0.00000000E+00
  0.00000000E+00  0.00000000E+00  0.00000000E+00
  0.00000000E+00  0.00000000E+00  0.00000000E+00
  0.00000000E+00  0.00000000E+00  0.00000000E+00
  0.00000000E+00  0.00000000E+00  0.00000000E+00
  0.00000000E+00  0.00000000E+00  0.00000000E+00
  0.00000000E+00  0.00000000E+00  0.00000000E+00
  0.00000000E+00  0.00000000E+00  0.00000000E+00
  0.00000000E+00  0.00000000E+00  0.00000000E+00
  0.00000000E+00  0.00000000E+00  0.00000000E+00
  0.00000000E+00  0.00000000E+00  0.00000000E+00
  0.00000000E+00  0.00000000E+00  0.00000000E+00
  0.00000000E+00  0.00000000E+00  0.00000000E+00
  0.00000000E+00  0.00000000E+00  0.00000000E+00
  0.00000000E+00  0.00000000E+00  0.00000000E+00
  0.00000000E+00  0.00000000E+00  0.00000000E+00
  0.00000000E+00  0.00000000E+00  0.00000000E+00
  0.00000000E+00  0.00000000E+00  0.00000000E+00
  0.00000000E+00  0.00000000E+00  0.00000000E+00
  0.00000000E+00  0.00000000E+00  0.00000000E+00
  0.00000000E+00  0.00000000E+00  0.00000000E+00
  0.00000000E+00  0.00000000E+00  0.00000000E+00
  0.00000000E+00  0.00000000E+00  0.00000000E+00
  0.00000000E+00  0.00000000E+00  0.00000000E+00
  0.00000000E+00  0.00000000E+00  0.00000000E+00
  0.00000000E+00  0.00000000E+00  0.00000000E+00
  0.00000000E+00  0.00000000E+00  0.00000000E+00
  0.00000000E+00  0.00000000E+00  0.00000000E+00
  0.00000000E+00  0.00000000E+00  0.00000000E+00
  0.00000000E+00  0.00000000E+00  0.00000000E+00
  0.00000000E+00  0.00000000E+00  0.00000000E+00
  0.00000000E+00  0.00000000E+00  0.00000000E+00
  0.00000000E+00  0.00000000E+00  0.00000000E+00
  0.00000000E+00  0.00000000E+00  0.00000000E+00