 Layer\(9)                              
   1.00000000000000     
     9.8291997910000006    0.0000000000000000    0.0000000000000000
     4.9145998955000003    8.5123367178000002    0.0000000000000000
     0.0000000000000000    0.0000000000000000   30.7147998810000011
   Ni   O    H    C    O 
    64    30    60     1     1
Direct
  0.0596064520026673  0.0930607334907903  0.1217375943296023
  0.3019606710644639  0.0978556134236310  0.1215273995703712
  0.3150115788115865  0.8333036858577256  0.1217082533589096
  0.5560563664288307  0.3457733238599706  0.1145919165992346
  0.3094981277674634  0.5872631567611107  0.1174619228938467
  0.2954736247968069  0.3550180517812717  0.1212590541679586
  0.8129344538150582  0.0966399658463397  0.1214798551967286
  0.5498892279532017  0.0934682118122171  0.1184541076660914
  0.8224539601710701  0.3405530764626323  0.1172877889037348
  0.5690259366567937  0.5897079932303451  0.1190524805976078
  0.0534208356704396  0.8494795568559728  0.1234449663394872
  0.5597872146071993  0.8360450342513905  0.1206859368979589
  0.0611740613414400  0.3441025201951962  0.1185396440649689
  0.8049819933986141  0.5940388322107873  0.1219652831647768
  0.0592998675067027  0.5983582324449922  0.1221821740783153
  0.8048230280290588  0.8567510800263316  0.1207270149776648
  0.1489826689718375  0.1706104677480294  0.1894372978192054
  0.1545242099665351  0.9229260260350649  0.1923927467620200
  0.3886196651716216  0.1903269735303411  0.1842067490209326
  0.4001456185014510  0.9331548928564996  0.1863939599690250
  0.4083511454001850  0.4175132965960878  0.1871588868398760
  0.3999973048515515  0.6733651141699534  0.1859724025604368
  0.8966524581072206  0.1734057285426084  0.1860908918338870
  0.6520231708354779  0.1624431815913756  0.1857649655290584
  0.6456978618825978  0.4337278627267903  0.1820779946686537
  0.1614738494032567  0.6641148842491229  0.1875795617210630
  0.8957884296232681  0.4269006693250051  0.1833599035089379
  0.6474253542729846  0.6758538497870903  0.1866793947990986
  0.9043070814129571  0.9195692412286989  0.1853907667742458
  0.6501505775573434  0.9261856238611468  0.1868293543657794
  0.1480413795015657  0.4196227924934180  0.1858530800245185
  0.9028498297086551  0.6717935346400907  0.1870865771686080
  0.2303119425562044  0.0277513893181898  0.2548463285592242
  0.4806230890769810  0.2570937545253312  0.2484826591840352
  0.4639037132495060  0.5073903292996438  0.2507001106771727
  0.2246790715920565  0.2682881875167378  0.2528102998693662
  0.9822891785294259  0.2629045705048144  0.2539550218827284
  0.7411308207490772  0.2524024132337671  0.2488331908789748
  0.4750271549840073  0.7657145791105718  0.2514103574949624
  0.2298662112124579  0.7548090862544035  0.2622110506522838
  0.4832489884500538  0.0114177891402443  0.2517347288381994
  0.9822237844136986  0.0142641752773179  0.2585096827907036
  0.2288428438327190  0.5019508814038938  0.2524661043106848
  0.7248670468553087  0.5152447228761301  0.2529347229061027
  0.7267597522938417  0.0141620776751557  0.2491132272518846
  0.9760045147861673  0.7561456079243170  0.2531834693447419
  0.7173702100393234  0.7658382716040298  0.2590352001686569
  0.9704237427698579  0.5202987018626487  0.2576756787404947
  0.2180894775533587  0.0018529558640097  0.0556246212987032
  0.4688658913821647  0.2581619853072357  0.0537897676986127
  0.4663346380599409  0.5129483643403776  0.0510540854310823
  0.2198811194079730  0.2578900149496842  0.0492884812383238
  0.9795614070396857  0.2491715460084608  0.0504692855168016
  0.7396621184645765  0.2459767031265649  0.0508047788628373
  0.4755931005176757  0.7508504102672621  0.0545393845078155
  0.2213768491580387  0.7599856448498770  0.0540146750679217
  0.4685209469964364  0.9945152807230263  0.0535403720165563
  0.9814714682919610  0.9981338346168240  0.0554831776448634
  0.2279475650840949  0.5063119522294478  0.0556118854068929
  0.7410730680612416  0.5033811800461082  0.0531753759688128
  0.7205331386872986  0.0139002650505526  0.0538668527698525
  0.9727920748821005  0.7494575422776671  0.0562051003445089
  0.7422139943234414  0.7416376595502404  0.0570638498034577
  0.9839523930297730  0.4919536016143328  0.0536037660989484
  0.2418924930111690  0.7617814984903668  0.5524601274648896
  0.8248548757459149  0.8484213280530145  0.5696755153499438
  0.4562593492150276  0.7781663500643398  0.3722291931950827
  0.9954920819286981  0.2011260812610976  0.3897187322292943
  0.4026749122400757  0.0758240225039691  0.3642072828911534
  0.2392540157262664  0.4733716017258929  0.5567608460755198
  0.8195249083969662  0.4182169888041265  0.4613677729910246
  0.1703357026668870  0.5416306759428499  0.3787394886688342
  0.7258546912873522  0.7263605296388939  0.3249128778230790
  0.5868500285459800  0.7296947191935896  0.4581176259636517
  0.9666454100351762  0.9913967152292632  0.3234062255776344
  0.5183250554820596  0.2084516115247240  0.5190740312218718
  0.4948935907471007  0.0175980584133463  0.5785671762104719
  0.6615600451544010  0.2392560466784861  0.4313014820566760
  0.7044435595607271  0.4596011200497632  0.5952294157603696
  0.3874196658637380  0.5046406266074563  0.4462239264724516
  0.8753834176660648  0.9040435827342710  0.4482020908263295
  0.0552912578194724  0.3703495003471769  0.5215282519918066
  0.2532542455344997  0.3024294465606104  0.6303723701483469
  0.7585033205947636  0.2755422366746824  0.5250141916757960
  0.0147791988550512  0.2596305327319591  0.6037146699801624
  0.4991141964225739  0.7677773163131290  0.5462115122714801
  0.8819874473561852  0.8081219689505228  0.3709575408408928
  0.9625711251058174  0.0224842120053742  0.5716840390720817
  0.4834903425368270  0.0422354591641759  0.4558440758080961
  0.1936584545883779  0.8192614230443553  0.4650462587946105
  0.6023062944183974  0.1853754389205367  0.3540899317744954
  0.1587038411592838  0.1126146309059767  0.4649384304459507
  0.2454586970264032  0.7533552218858289  0.3244230769631603
  0.1332798866249032  0.3272006723192988  0.3466878988231740
  0.3487353172710516  0.7458521270463397  0.5523401367816914
  0.2303628547623522  0.6731961299234205  0.5656561569951528
  0.8450224496688399  0.7834005335823099  0.5442865603102404
  0.7288511526346797  0.8607126585582963  0.5809876991934172
  0.4142809347495215  0.8860530906520847  0.3735991977628579
  0.3763914123267171  0.7571931233924707  0.3622358565972733
  0.9224542087708765  0.2951310125674477  0.4066908798825157
  0.0614904096784936  0.2444862836337612  0.3741591047261739
  0.4110089625679618  0.1068129250350901  0.3935670806136282
  0.3118320224248977  0.1677402848577142  0.3503461017959371
  0.2239455014207357  0.4478069894191234  0.5856685749353807
  0.1823192266510225  0.4415133496067165  0.5345622504708153
  0.8924288171216810  0.4374581201673916  0.4795716260242050
  0.7334594648386550  0.5249731747413741  0.4560650839687299
  0.0657793511578742  0.6405940706275207  0.3752664460939393
  0.2356854914837256  0.5396625162285628  0.4034593555810319
  0.6164667045931289  0.7609568226705955  0.3333136075583967
  0.7918260427106798  0.7531730742887855  0.3453496006097048
  0.5908003746454339  0.8287826362651918  0.4544815400449228
  0.5237194210994169  0.7374309121101508  0.4320364680024487
  0.7508564562214917  0.3505615748423429  0.3149057844007591
  0.9489259334090379  0.0788115193313749  0.3411063071897826
  0.6166657951132808  0.2140041800498551  0.5168119001540893
  0.4469960808884463  0.3045608438878762  0.5352991756568632
  0.4308875548785300  0.0889117160714358  0.6006044371350918
  0.5018319505163960  0.0952391782631442  0.5573239373763955
  0.7471300757656484  0.2639619128722556  0.4296556341502695
  0.6548296386800947  0.1938442498269592  0.4007434676219342
  0.6731680558618879  0.5617355708192214  0.5841318233903573
  0.6999159081119547  0.4047464666379187  0.5696202812871419
  0.4939809123345223  0.4052584036185383  0.4395382286226761
  0.3758055320228676  0.4862596512753486  0.4765655467773086
  0.8097506669750842  0.0220308919093655  0.4517663409453878
  0.9835451564197688  0.8715318933434655  0.4596188830538778
  0.0858172772040569  0.2809023647420253  0.5018941786722509
  0.0268404443232877  0.3380438909326641  0.5503194070247494
  0.2324073092037935  0.3306799716634368  0.6608479931983955
  0.1738003628799201  0.2720783549849181  0.6204612915195388
  0.7938738694699801  0.3102890270447021  0.5004788981745119
  0.8463040745283802  0.1831171070223370  0.5393465679332737
  0.9022774354933374  0.3453117716016854  0.6125497087937662
  0.9968115314489274  0.1701210651202491  0.5965972815480263
  0.4858600348439308  0.8726803659848077  0.5545653726222251
  0.5249436903947216  0.7527661343763259  0.5165202291460536
  0.8886523886315653  0.8866457158310714  0.3522158129791626
  0.8686289825381707  0.8494105366084346  0.4009807839848420
  0.0697723093562830  0.9234314036491319  0.5676439052738443
  0.8908164883630536  0.9762552728578197  0.5667347719418144
  0.3903523782766546  0.0351879857311004  0.4650973203419390
  0.4915863808677886  0.1146943794001722  0.4775891081273926
  0.2791483249124660  0.7463772260980996  0.4471690807789019
  0.2186093500268060  0.7889669902303313  0.4970079926542603
  0.5575557354074933  0.2874367275721382  0.3393485279555086
  0.5215292258052930  0.1521663250546705  0.3532936612429063
  0.1920392494533067  0.9981248520339082  0.4651302053814791
  0.1160154075257709  0.1421114611827821  0.4342599809163223
  0.2525307156678052  0.6485803406484929  0.3254219879308073
  0.0731269217649197  0.8928661037942902  0.3290855181486442
  0.0952685096930580  0.3457898493306567  0.3140923731619841
  0.1505208961164710  0.4249035258886869  0.3558221902609493
  0.7137086302230450  0.3733551473216937  0.3002286512621470
  0.5646033014017018  0.4508408617805760  0.3092111617847257
 
 -0.94071253E-03 -0.25409387E-02 -0.10873067E-02
  0.74746579E-03  0.13331763E-02  0.48561217E-03
 -0.67772324E-03  0.71452573E-03 -0.56400650E-03
 -0.11241327E-05  0.21207582E-03  0.19526182E-02
 -0.35201720E-03 -0.21321651E-02  0.31873524E-02
  0.25415175E-02 -0.12713357E-03  0.88512046E-03
 -0.41674167E-03 -0.11266446E-03 -0.34551194E-02
 -0.27972315E-02 -0.20627129E-02  0.53386172E-03
 -0.29422574E-02 -0.32211495E-02 -0.27037990E-02
 -0.85100689E-03  0.27559037E-02 -0.88878294E-03
  0.40999966E-03 -0.88933911E-04  0.67979719E-04
 -0.34002160E-02 -0.37051909E-03 -0.16922051E-02
  0.10978793E-03 -0.65580504E-03 -0.19646816E-02
 -0.11467934E-02  0.37722930E-02  0.29733187E-02
  0.12259759E-02  0.22528658E-02  0.24986123E-04
  0.23284987E-02  0.16789461E-02  0.16374668E-02
  0.31023069E-02  0.54957258E-03  0.11317192E-02
 -0.38956825E-02 -0.10073353E-02  0.43744892E-04
  0.14187014E-02  0.81724310E-04  0.58096564E-02
 -0.17222138E-02  0.19642637E-02 -0.42917298E-02
  0.69720464E-03 -0.13605948E-02 -0.18858859E-02
  0.17083223E-02 -0.27311225E-02 -0.15488590E-02
 -0.27616374E-04 -0.19893918E-02  0.10219197E-02
 -0.11094373E-03  0.33130978E-04  0.14052989E-02
 -0.17066902E-02 -0.14262698E-02  0.37914978E-03
 -0.26701675E-02  0.29930279E-03  0.10193006E-02
  0.90907854E-03  0.22330774E-02  0.17280477E-02
  0.28839404E-02  0.35454984E-02  0.52999899E-03
 -0.37994283E-03  0.15565095E-02 -0.14414604E-02
  0.14553326E-02 -0.45150348E-02 -0.21402908E-03
 -0.32020165E-03 -0.74679242E-03 -0.35251109E-02
 -0.21890163E-02 -0.94863196E-03 -0.16248606E-02
 -0.19242438E-02 -0.73903136E-03 -0.18128633E-03
  0.26225188E-03  0.12141814E-02 -0.42822569E-02
 -0.18407767E-02 -0.80367845E-03  0.12304941E-02
 -0.23332842E-02  0.15712119E-02  0.11286755E-03
 -0.75385645E-03  0.16751017E-02 -0.44721496E-04
 -0.19387767E-02 -0.24283209E-02 -0.30250110E-03
  0.92765851E-03  0.12536146E-02  0.23669892E-02
 -0.43295544E-03  0.23740824E-02  0.22956699E-03
 -0.89021478E-03  0.39262387E-02  0.17747220E-02
  0.58511314E-02 -0.29186711E-02 -0.12972997E-02
 -0.59227428E-03  0.34766262E-02 -0.21804659E-02
  0.31777227E-02  0.28891912E-02 -0.60099496E-02
  0.84148769E-03 -0.13400562E-02 -0.14623872E-02
 -0.69937909E-03 -0.53911068E-02 -0.65660933E-03
 -0.16436848E-02  0.23855691E-02  0.95389791E-03
  0.11228143E-02  0.23065237E-02  0.34321243E-02
  0.59264717E-04 -0.16595430E-03  0.89584398E-03
  0.17708433E-02  0.26617647E-02  0.18172371E-02
  0.47479678E-02  0.10397801E-02  0.50714428E-03
  0.22450903E-02  0.24471842E-02 -0.18591406E-02
 -0.14539442E-02  0.96306107E-03  0.49351669E-03
  0.67955859E-03 -0.16309616E-02 -0.19169868E-02
  0.11024251E-02 -0.27253250E-02  0.29701961E-02
  0.88385337E-03  0.13558239E-02 -0.35063384E-03
  0.72276906E-03 -0.27313934E-02  0.10444744E-02
  0.37542266E-02 -0.29918664E-02  0.12555255E-02
  0.77256844E-03  0.45967579E-02  0.17967265E-02
 -0.57726524E-03  0.44765283E-03  0.78084757E-03
  0.14158002E-03  0.10321386E-03  0.88067374E-03
 -0.84030796E-03 -0.27741857E-02 -0.11003394E-02
 -0.22335776E-02 -0.23856419E-02 -0.14007756E-02
  0.15084513E-02 -0.30578014E-02  0.10143300E-02
 -0.36445467E-02  0.24358053E-02  0.33828438E-02
  0.32687162E-03 -0.40979045E-02 -0.15631120E-02
 -0.62490144E-02  0.48372442E-02  0.12385795E-02
 -0.36181095E-02  0.29143099E-02  0.93021397E-02
 -0.21010608E-03 -0.22449461E-02  0.50858900E-02
  0.20926843E-02 -0.82845816E-03  0.66442570E-02
  0.12990311E-03 -0.50513492E-02 -0.20674184E-02
 -0.34335330E-03  0.51046983E-03  0.17144826E-02
  0.48370155E-02  0.63371675E-02  0.69296969E-02
 -0.64244705E-02  0.10090893E-02 -0.71055846E-02
  0.57288697E-03 -0.18915688E-02 -0.41372441E-02
  0.17165509E-03  0.48080213E-02  0.30116760E-02
 -0.69637592E-02  0.22581006E-02  0.31506913E-02
 -0.45223648E-02 -0.26540277E-02 -0.33831324E-03
  0.72548773E-03 -0.86660898E-02 -0.63072183E-02
  0.20428130E-03  0.22342159E-02 -0.32004475E-02
 -0.57060345E-02  0.93320399E-05 -0.52222024E-02
  0.36247894E-02  0.18651351E-02  0.31172427E-03
  0.26321036E-03 -0.58363763E-02  0.32139390E-02
  0.30494729E-02  0.75560275E-02 -0.21078044E-02
 -0.15680969E-02  0.29986468E-02  0.21255307E-02
 -0.93858370E-02  0.30305335E-02  0.53314766E-02
 -0.36443362E-02 -0.24695268E-02  0.27626668E-02
  0.11527054E-02 -0.12361493E-02 -0.64893650E-02
  0.93913410E-02 -0.53323102E-02 -0.20373442E-02
 -0.14521738E-02 -0.53366977E-02 -0.18425723E-02
  0.32746730E-02 -0.20926225E-03  0.43153008E-03
 -0.86130423E-03  0.11064203E-02 -0.24900588E-02
  0.20205105E-02 -0.45897951E-02 -0.19931760E-02
 -0.19767740E-03 -0.69411596E-02  0.32997792E-02
  0.11828353E-01 -0.14336932E-02  0.74857542E-04
 -0.48434242E-04  0.20094360E-03  0.25080604E-01
 -0.15201404E-01  0.64985999E-02 -0.22000914E-01
  0.97585966E-02 -0.15461840E-01  0.27851288E-01
 -0.18335861E-01 -0.22062114E-01  0.26627317E-02
  0.93156478E-02  0.23500654E-01 -0.18308833E-01
  0.22077442E-02 -0.67374815E-02 -0.77620299E-02
 -0.87305535E-02  0.24797223E-01  0.30217446E-01
 -0.20650381E-01  0.25209634E-02 -0.28967369E-02
  0.17041535E-01  0.72774450E-02 -0.16357974E-01
  0.37785022E-01  0.49937222E-02 -0.17902587E-01
 -0.10492161E-01 -0.23933937E-01  0.24407486E-02
  0.13128542E-01 -0.27812232E-02 -0.72767710E-02
  0.22944093E-01 -0.43780299E-02 -0.87983668E-03
 -0.74337278E-02 -0.32816253E-02 -0.15159147E-01
 -0.41522545E-01 -0.14208963E-01 -0.20668479E-01
  0.13685778E-01 -0.11319719E-01 -0.87928524E-02
  0.69527144E-04 -0.97759454E-02  0.39531165E-01
  0.24748691E-01  0.13361115E-01 -0.29020825E-01
 -0.10887005E-01  0.16900284E-01  0.94415360E-02
  0.94189856E-02  0.14014096E-02 -0.69035902E-02
  0.15522811E-01 -0.21295217E-02  0.20541291E-02
 -0.26714526E-02 -0.40379020E-02  0.20779894E-02
  0.35902201E-01  0.83795839E-02  0.17953521E-01
  0.17115726E-01 -0.63148579E-02 -0.14242984E-01
 -0.49343256E-01  0.39526428E-01  0.61476907E-02
 -0.85668864E-02 -0.89475806E-02 -0.24851741E-01
 -0.52265584E-02 -0.17131552E-01 -0.14095178E-01
 -0.38861575E-01 -0.98480893E-03  0.25186360E-01
  0.57439805E-02  0.17940756E-01 -0.22401810E-02
 -0.78463188E-02  0.28382993E-01 -0.25067261E-02
 -0.84293304E-02 -0.47874662E-02 -0.86600752E-02
 -0.26608931E-01  0.17937165E-01 -0.54585957E-02
  0.25575730E-02 -0.37620279E-01  0.12840377E-01
  0.36102045E-03  0.75494788E-02  0.48004390E-02
  0.41916701E-02 -0.54965549E-02 -0.29882094E-01
 -0.27428406E-01 -0.19827524E-01  0.51383065E-02
 -0.64075796E-02  0.58192833E-02  0.29888465E-02
  0.13223796E-01 -0.32143136E-01  0.16430995E-01
 -0.25970855E-02  0.11400033E-01  0.14401019E-01
 -0.37009673E-02  0.46927516E-02  0.15094255E-01
 -0.62566730E-02 -0.78009513E-04  0.14734586E-01
 -0.12985479E-01 -0.14011416E-01 -0.92515426E-02
  0.22422291E-01  0.71116790E-02  0.22417817E-01
  0.49107443E-02  0.98662743E-02 -0.20030577E-01
 -0.39317688E-02  0.64053776E-02 -0.13346232E-01
  0.12475028E-01 -0.18682583E-01  0.14579939E-01
 -0.16498900E-01  0.14712573E-01 -0.27854453E-02
 -0.59288699E-02  0.54917206E-02 -0.38650172E-02
 -0.84673034E-03  0.23923219E-01 -0.26378524E-01
  0.63665377E-01  0.62410067E-02 -0.76500683E-02
  0.98726562E-02  0.15422822E-02  0.97034505E-02
 -0.31947341E-02  0.17206056E-01  0.23972186E-01
 -0.38784254E-02  0.19004286E-01  0.10478840E-01
 -0.51371881E-02  0.52621814E-02  0.29905549E-01
  0.33007211E-02  0.15287416E-01 -0.27110044E-01
  0.16088563E-01 -0.26866703E-02 -0.98630316E-02
  0.68939693E-02  0.92850088E-02 -0.75079269E-02
 -0.14018584E-01 -0.14829033E-01 -0.11046249E-01
  0.41462062E-02 -0.57867879E-03  0.35048571E-02
 -0.19449025E-02 -0.71532002E-02 -0.34619195E-02
  0.35391230E-02  0.82396975E-02 -0.12811738E-02
 
           1
   1.00000000000000     
  0.62492566E-01  0.47197225E-02  0.39695855E-02  0.58147912E-01
  0.59606452E-01  0.93060733E-01  0.12173759E+00
  0.30196067E+00  0.97855613E-01  0.12152740E+00
  0.31501158E+00  0.83330369E+00  0.12170825E+00
  0.55605637E+00  0.34577332E+00  0.11459192E+00
  0.30949813E+00  0.58726316E+00  0.11746192E+00
  0.29547362E+00  0.35501805E+00  0.12125905E+00
  0.81293445E+00  0.96639966E-01  0.12147986E+00
  0.54988923E+00  0.93468212E-01  0.11845411E+00
  0.82245396E+00  0.34055308E+00  0.11728779E+00
  0.56902594E+00  0.58970799E+00  0.11905248E+00
  0.53420836E-01  0.84947956E+00  0.12344497E+00
  0.55978721E+00  0.83604503E+00  0.12068594E+00
  0.61174061E-01  0.34410252E+00  0.11853964E+00
  0.80498199E+00  0.59403883E+00  0.12196528E+00
  0.59299868E-01  0.59835823E+00  0.12218217E+00
  0.80482303E+00  0.85675108E+00  0.12072701E+00
  0.14898267E+00  0.17061047E+00  0.18943730E+00
  0.15452421E+00  0.92292603E+00  0.19239275E+00
  0.38861967E+00  0.19032697E+00  0.18420675E+00
  0.40014562E+00  0.93315489E+00  0.18639396E+00
  0.40835115E+00  0.41751330E+00  0.18715889E+00
  0.39999730E+00  0.67336511E+00  0.18597240E+00
  0.89665246E+00  0.17340573E+00  0.18609089E+00
  0.65202317E+00  0.16244318E+00  0.18576497E+00
  0.64569786E+00  0.43372786E+00  0.18207799E+00
  0.16147385E+00  0.66411488E+00  0.18757956E+00
  0.89578843E+00  0.42690067E+00  0.18335990E+00
  0.64742535E+00  0.67585385E+00  0.18667939E+00
  0.90430708E+00  0.91956924E+00  0.18539077E+00
  0.65015058E+00  0.92618562E+00  0.18682935E+00
  0.14804138E+00  0.41962279E+00  0.18585308E+00
  0.90284983E+00  0.67179353E+00  0.18708658E+00
  0.23031194E+00  0.27751389E-01  0.25484633E+00
  0.48062309E+00  0.25709375E+00  0.24848266E+00
  0.46390371E+00  0.50739033E+00  0.25070011E+00
  0.22467907E+00  0.26828819E+00  0.25281030E+00
  0.98228918E+00  0.26290457E+00  0.25395502E+00
  0.74113082E+00  0.25240241E+00  0.24883319E+00
  0.47502715E+00  0.76571458E+00  0.25141036E+00
  0.22986621E+00  0.75480909E+00  0.26221105E+00
  0.48324899E+00  0.11417789E-01  0.25173473E+00
  0.98222378E+00  0.14264175E-01  0.25850968E+00
  0.22884284E+00  0.50195088E+00  0.25246610E+00
  0.72486705E+00  0.51524472E+00  0.25293472E+00
  0.72675975E+00  0.14162078E-01  0.24911323E+00
  0.97600451E+00  0.75614561E+00  0.25318347E+00
  0.71737021E+00  0.76583827E+00  0.25903520E+00
  0.97042374E+00  0.52029870E+00  0.25767568E+00
  0.21808948E+00  0.18529559E-02  0.55624621E-01
  0.46886589E+00  0.25816199E+00  0.53789768E-01
  0.46633464E+00  0.51294836E+00  0.51054085E-01
  0.21988112E+00  0.25789001E+00  0.49288481E-01
  0.97956141E+00  0.24917155E+00  0.50469286E-01
  0.73966212E+00  0.24597670E+00  0.50804779E-01
  0.47559310E+00  0.75085041E+00  0.54539385E-01
  0.22137685E+00  0.75998564E+00  0.54014675E-01
  0.46852095E+00  0.99451528E+00  0.53540372E-01
  0.98147147E+00  0.99813383E+00  0.55483178E-01
  0.22794757E+00  0.50631195E+00  0.55611885E-01
  0.74107307E+00  0.50338118E+00  0.53175376E-01
  0.72053314E+00  0.13900265E-01  0.53866853E-01
  0.97279207E+00  0.74945754E+00  0.56205100E-01
  0.74221399E+00  0.74163766E+00  0.57063850E-01
  0.98395239E+00  0.49195360E+00  0.53603766E-01
  0.24189249E+00  0.76178150E+00  0.55246013E+00
  0.82485488E+00  0.84842133E+00  0.56967552E+00
  0.45625935E+00  0.77816635E+00  0.37222919E+00
  0.99549208E+00  0.20112608E+00  0.38971873E+00
  0.40267491E+00  0.75824023E-01  0.36420728E+00
  0.23925402E+00  0.47337160E+00  0.55676085E+00
  0.81952491E+00  0.41821699E+00  0.46136777E+00
  0.17033570E+00  0.54163068E+00  0.37873949E+00
  0.72585469E+00  0.72636053E+00  0.32491288E+00
  0.58685003E+00  0.72969472E+00  0.45811763E+00
  0.96664541E+00  0.99139672E+00  0.32340623E+00
  0.51832506E+00  0.20845161E+00  0.51907403E+00
  0.49489359E+00  0.17598058E-01  0.57856718E+00
  0.66156005E+00  0.23925605E+00  0.43130148E+00
  0.70444356E+00  0.45960112E+00  0.59522942E+00
  0.38741967E+00  0.50464063E+00  0.44622393E+00
  0.87538342E+00  0.90404358E+00  0.44820209E+00
  0.55291258E-01  0.37034950E+00  0.52152825E+00
  0.25325425E+00  0.30242945E+00  0.63037237E+00
  0.75850332E+00  0.27554224E+00  0.52501419E+00
  0.14779199E-01  0.25963053E+00  0.60371467E+00
  0.49911420E+00  0.76777732E+00  0.54621151E+00
  0.88198745E+00  0.80812197E+00  0.37095754E+00
  0.96257113E+00  0.22484212E-01  0.57168404E+00
  0.48349034E+00  0.42235459E-01  0.45584408E+00
  0.19365845E+00  0.81926142E+00  0.46504626E+00
  0.60230629E+00  0.18537544E+00  0.35408993E+00
  0.15870384E+00  0.11261463E+00  0.46493843E+00
  0.24545870E+00  0.75335522E+00  0.32442308E+00
  0.13327989E+00  0.32720067E+00  0.34668790E+00
  0.34873532E+00  0.74585213E+00  0.55234014E+00
  0.23036285E+00  0.67319613E+00  0.56565616E+00
  0.84502245E+00  0.78340053E+00  0.54428656E+00
  0.72885115E+00  0.86071266E+00  0.58098770E+00
  0.41428093E+00  0.88605309E+00  0.37359920E+00
  0.37639141E+00  0.75719312E+00  0.36223586E+00
  0.92245421E+00  0.29513101E+00  0.40669088E+00
  0.61490410E-01  0.24448628E+00  0.37415910E+00
  0.41100896E+00  0.10681293E+00  0.39356708E+00
  0.31183202E+00  0.16774028E+00  0.35034610E+00
  0.22394550E+00  0.44780699E+00  0.58566857E+00
  0.18231923E+00  0.44151335E+00  0.53456225E+00
  0.89242882E+00  0.43745812E+00  0.47957163E+00
  0.73345946E+00  0.52497317E+00  0.45606508E+00
  0.65779351E-01  0.64059407E+00  0.37526645E+00
  0.23568549E+00  0.53966252E+00  0.40345936E+00
  0.61646670E+00  0.76095682E+00  0.33331361E+00
  0.79182604E+00  0.75317307E+00  0.34534960E+00
  0.59080037E+00  0.82878264E+00  0.45448154E+00
  0.52371942E+00  0.73743091E+00  0.43203647E+00
  0.75085646E+00  0.35056157E+00  0.31490578E+00
  0.94892593E+00  0.78811519E-01  0.34110631E+00
  0.61666580E+00  0.21400418E+00  0.51681190E+00
  0.44699608E+00  0.30456084E+00  0.53529918E+00
  0.43088755E+00  0.88911716E-01  0.60060444E+00
  0.50183195E+00  0.95239178E-01  0.55732394E+00
  0.74713008E+00  0.26396191E+00  0.42965563E+00
  0.65482964E+00  0.19384425E+00  0.40074347E+00
  0.67316806E+00  0.56173557E+00  0.58413182E+00
  0.69991591E+00  0.40474647E+00  0.56962028E+00
  0.49398091E+00  0.40525840E+00  0.43953823E+00
  0.37580553E+00  0.48625965E+00  0.47656555E+00
  0.80975067E+00  0.22030892E-01  0.45176634E+00
  0.98354516E+00  0.87153189E+00  0.45961888E+00
  0.85817277E-01  0.28090236E+00  0.50189418E+00
  0.26840444E-01  0.33804389E+00  0.55031941E+00
  0.23240731E+00  0.33067997E+00  0.66084799E+00
  0.17380036E+00  0.27207835E+00  0.62046129E+00
  0.79387387E+00  0.31028903E+00  0.50047890E+00
  0.84630407E+00  0.18311711E+00  0.53934657E+00
  0.90227744E+00  0.34531177E+00  0.61254971E+00
  0.99681153E+00  0.17012107E+00  0.59659728E+00
  0.48586003E+00  0.87268037E+00  0.55456537E+00
  0.52494369E+00  0.75276613E+00  0.51652023E+00
  0.88865239E+00  0.88664572E+00  0.35221581E+00
  0.86862898E+00  0.84941054E+00  0.40098078E+00
  0.69772309E-01  0.92343140E+00  0.56764391E+00
  0.89081649E+00  0.97625527E+00  0.56673477E+00
  0.39035238E+00  0.35187986E-01  0.46509732E+00
  0.49158638E+00  0.11469438E+00  0.47758911E+00
  0.27914832E+00  0.74637723E+00  0.44716908E+00
  0.21860935E+00  0.78896699E+00  0.49700799E+00
  0.55755574E+00  0.28743673E+00  0.33934853E+00
  0.52152923E+00  0.15216633E+00  0.35329366E+00
  0.19203925E+00  0.99812485E+00  0.46513021E+00
  0.11601541E+00  0.14211146E+00  0.43425998E+00
  0.25253072E+00  0.64858034E+00  0.32542199E+00
  0.73126922E-01  0.89286610E+00  0.32908552E+00
  0.95268510E-01  0.34578985E+00  0.31409237E+00
  0.15052090E+00  0.42490353E+00  0.35582219E+00
  0.71370863E+00  0.37335515E+00  0.30022865E+00
  0.56460330E+00  0.45084086E+00  0.30921116E+00
  0.00000000E+00  0.00000000E+00  0.00000000E+00
  0.00000000E+00  0.00000000E+00  0.00000000E+00
  0.00000000E+00  0.00000000E+00  0.00000000E+00
  0.00000000E+00  0.00000000E+00  0.00000000E+00
  0.00000000E+00  0.00000000E+00  0.00000000E+00
  0.00000000E+00  0.00000000E+00  0.00000000E+00
  0.00000000E+00  0.00000000E+00  0.00000000E+00
  0.00000000E+00  0.00000000E+00  0.00000000E+00
  0.00000000E+00  0.00000000E+00  0.00000000E+00
  0.00000000E+00  0.00000000E+00  0.00000000E+00
  0.00000000E+00  0.00000000E+00  0.00000000E+00
  0.00000000E+00  0.00000000E+00  0.00000000E+00
  0.00000000E+00  0.00000000E+00  0.00000000E+00
  0.00000000E+00  0.00000000E+00  0.00000000E+00
  0.00000000E+00  0.00000000E+00  0.00000000E+00
  0.00000000E+00  0.00000000E+00  0.00000000E+00
  0.00000000E+00  0.00000000E+00  0.00000000E+00
  0.00000000E+00  0.00000000E+00  0.00000000E+00
  0.00000000E+00  0.00000000E+00  0.00000000E+00
  0.00000000E+00  0.00000000E+00  0.00000000E+00
  0.00000000E+00  0.00000000E+00  0.00000000E+00
  0.00000000E+00  0.00000000E+00  0.00000000E+00
  0.00000000E+00  0.00000000E+00  0.00000000E+00
  0.00000000E+00  0.00000000E+00  0.00000000E+00
  0.00000000E+00  0.00000000E+00  0.00000000E+00
  0.00000000E+00  0.00000000E+00  0.00000000E+00
  0.00000000E+00  0.00000000E+00  0.00000000E+00
  0.00000000E+00  0.00000000E+00  0.00000000E+00
  0.00000000E+00  0.00000000E+00  0.00000000E+00
  0.00000000E+00  0.00000000E+00  0.00000000E+00
  0.00000000E+00  0.00000000E+00  0.00000000E+00
  0.00000000E+00  0.00000000E+00  0.00000000E+00
  0.00000000E+00  0.00000000E+00  0.00000000E+00
  0.00000000E+00  0.00000000E+00  0.00000000E+00
  0.00000000E+00  0.00000000E+00  0.00000000E+00
  0.00000000E+00  0.00000000E+00  0.00000000E+00
  0.00000000E+00  0.00000000E+00  0.00000000E+00
  0.00000000E+00  0.00000000E+00  0.00000000E+00
  0.00000000E+00  0.00000000E+00  0.00000000E+00
  0.00000000E+00  0.00000000E+00  0.00000000E+00
  0.00000000E+00  0.00000000E+00  0.00000000E+00
  0.00000000E+00  0.00000000E+00  0.00000000E+00
  0.00000000E+00  0.00000000E+00  0.00000000E+00
  0.00000000E+00  0.00000000E+00  0.00000000E+00
  0.00000000E+00  0.00000000E+00  0.00000000E+00
  0.00000000E+00  0.00000000E+00  0.00000000E+00
  0.00000000E+00  0.00000000E+00  0.00000000E+00
  0.00000000E+00  0.00000000E+00  0.00000000E+00
  0.00000000E+00  0.00000000E+00  0.00000000E+00
  0.00000000E+00  0.00000000E+00  0.00000000E+00
  0.00000000E+00  0.00000000E+00  0.00000000E+00
  0.00000000E+00  0.00000000E+00  0.00000000E+00
  0.00000000E+00  0.00000000E+00  0.00000000E+00
  0.00000000E+00  0.00000000E+00  0.00000000E+00
  0.00000000E+00  0.00000000E+00  0.00000000E+00
  0.00000000E+00  0.00000000E+00  0.00000000E+00
  0.00000000E+00  0.00000000E+00  0.00000000E+00
  0.00000000E+00  0.00000000E+00  0.00000000E+00
  0.00000000E+00  0.00000000E+00  0.00000000E+00
  0.00000000E+00  0.00000000E+00  0.00000000E+00
  0.00000000E+00  0.00000000E+00  0.00000000E+00
  0.00000000E+00  0.00000000E+00  0.00000000E+00
  0.00000000E+00  0.00000000E+00  0.00000000E+00
  0.00000000E+00  0.00000000E+00  0.00000000E+00
  0.00000000E+00  0.00000000E+00  0.00000000E+00
  0.00000000E+00  0.00000000E+00  0.00000000E+00
  0.00000000E+00  0.00000000E+00  0.00000000E+00
  0.00000000E+00  0.00000000E+00  0.00000000E+00
  0.00000000E+00  0.00000000E+00  0.00000000E+00
  0.00000000E+00  0.00000000E+00  0.00000000E+00
  0.00000000E+00  0.00000000E+00  0.00000000E+00
  0.00000000E+00  0.00000000E+00  0.00000000E+00
  0.00000000E+00  0.00000000E+00  0.00000000E+00
  0.00000000E+00  0.00000000E+00  0.00000000E+00
  0.00000000E+00  0.00000000E+00  0.00000000E+00
  0.00000000E+00  0.00000000E+00  0.00000000E+00
  0.00000000E+00  0.00000000E+00  0.00000000E+00
  0.00000000E+00  0.00000000E+00  0.00000000E+00
  0.00000000E+00  0.00000000E+00  0.00000000E+00
  0.00000000E+00  0.00000000E+00  0.00000000E+00
  0.00000000E+00  0.00000000E+00  0.00000000E+00
  0.00000000E+00  0.00000000E+00  0.00000000E+00
  0.00000000E+00  0.00000000E+00  0.00000000E+00
  0.00000000E+00  0.00000000E+00  0.00000000E+00
  0.00000000E+00  0.00000000E+00  0.00000000E+00
  0.00000000E+00  0.00000000E+00  0.00000000E+00
  0.00000000E+00  0.00000000E+00  0.00000000E+00
  0.00000000E+00  0.00000000E+00  0.00000000E+00
  0.00000000E+00  0.00000000E+00  0.00000000E+00
  0.00000000E+00  0.00000000E+00  0.00000000E+00
  0.00000000E+00  0.00000000E+00  0.00000000E+00
  0.00000000E+00  0.00000000E+00  0.00000000E+00
  0.00000000E+00  0.00000000E+00  0.00000000E+00
  0.00000000E+00  0.00000000E+00  0.00000000E+00
  0.00000000E+00  0.00000000E+00  0.00000000E+00
  0.00000000E+00  0.00000000E+00  0.00000000E+00
  0.00000000E+00  0.00000000E+00  0.00000000E+00