 Ni\(1\1\1)                             
   1.00000000000000     
     9.8291997910000006    0.0000000000000000    0.0000000000000000
     4.9145998955000003    8.5123367178000002    0.0000000000000000
     0.0000000000000000    0.0000000000000000   19.0128002167000005
   Ni   O    C    O    H    C    H 
    64     3     1     2     1     1     1
Selective dynamics
Direct
  0.8318196633473588  0.5847291851466736  0.2717114886710416   T   T   T
  0.3326519197995703  0.0844244550538353  0.2702360709386550   T   T   T
  0.8320553146945785  0.0848657348338920  0.2708804958916052   T   T   T
  0.3324559867564653  0.5848935939230318  0.2711115719281805   T   T   T
  0.5826608406726409  0.8350214806070543  0.2711090103883859   T   T   T
  0.8317364931250051  0.8347057943655828  0.2709481057876249   T   T   T
  0.0826729163939569  0.3348270706622175  0.2704593911772145   T   T   T
  0.8321620520831481  0.3345130132510744  0.2707785476197169   T   T   T
  0.5822708629335671  0.5848666842439307  0.2717867403931405   T   T   T
  0.0817774186214932  0.5847834031735906  0.2710515524136055   T   T   T
  0.0818680087520885  0.0854350796079460  0.2702084132991019   T   T   T
  0.5825542099790940  0.0840105088570389  0.2716498749194159   T   T   T
  0.3328671200532414  0.8344240625702429  0.2708079256193964   T   T   T
  0.0819015469414063  0.8348530767229688  0.2704724711952473   T   T   T
  0.3327808158895828  0.3343926146737910  0.2710893076081889   T   T   T
  0.5819452483160835  0.3343446421450507  0.2719278453111834   T   T   T
  0.9146174951800700  0.6676900143605808  0.3762159823894041   T   T   T
  0.9163371571090639  0.4177240450110197  0.3752757755963954   T   T   T
  0.6657121879793508  0.6689351374754429  0.3766939749788152   T   T   T
  0.1659061895875292  0.1681470045882867  0.3752970819114047   T   T   T
  0.9150785612237956  0.1681334060644018  0.3762971900180778   T   T   T
  0.9151939509194004  0.9185009467980049  0.3755159293725766   T   T   T
  0.4155142266549250  0.9187555081095746  0.3759750745910994   T   T   T
  0.4155169594532963  0.1683106586659556  0.3758992410558848   T   T   T
  0.6662935669609652  0.1683063014132898  0.3770758052000860   T   T   T
  0.1655369983823438  0.6685682993526953  0.3755210708797312   T   T   T
  0.4155790935176098  0.6681606950438140  0.3770237073748155   T   T   T
  0.4151955510775103  0.4193601560188558  0.3770040792604262   T   T   T
  0.6656807671725140  0.9173932699972224  0.3794142847635034   T   T   T
  0.1652708994089813  0.4184896187782406  0.3778351683809636   T   T   T
  0.6652458569841647  0.4175502935754294  0.3780618305784398   T   T   T
  0.1656355709564418  0.9187155603402907  0.3779717122188508   T   T   T
 -0.0003358607962986  0.2529411206088263  0.4787296241898771   T   T   T
  0.4979494478901768  0.2517904713768074  0.4797072558178466   T   T   T
 -0.0023850499173897  0.7501579229593724  0.4785252326727662   T   T   T
  0.5008145562676429  0.7522334772882588  0.4796897253473324   T   T   T
  0.7470622398268750  0.7541601131369535  0.4873058524036146   T   T   T
  0.9980459029897353  0.5010569335109485  0.4849559647403557   T   T   T
  0.7526129215615137  0.5012902118842215  0.4822240960075324   T   T   T
  0.2471075167643572  0.0006604693753264  0.4854353040730760   T   T   T
  0.0030349983713498 -0.0014359564144120  0.4846883695767482   T   T   T
  0.5002465221428100  0.0014970381706196  0.4862056603221066   T   T   T
  0.2461825413117619  0.7558836181649905  0.4849005221366415   T   T   T
  0.7466777249110821 -0.0000164865274262  0.4849082263628796   T   T   T
  0.2473900537681745  0.2550320750681556  0.4846127158070384   T   T   T
  0.7495135216080890  0.2521773610174891  0.4937153326076855   T   T   T
  0.2454824150503542  0.5002303870551922  0.4846978207432350   T   T   T
  0.5001322721289786  0.5026612118702199  0.4937151337444470   T   T   T
  0.9970724670000024  0.2558556729999992  0.1637003960000030   F   F   F
  0.4999617989999976  0.2500875830000027  0.1643123180000003   F   F   F
  0.9968841629999972  0.7476992069999966  0.1643590660000029   F   F   F
  0.5054474789999972  0.7476858750000019  0.1651548480000002   F   F   F
  0.7507219769999978  0.7486395119999969  0.1651830500000031   F   F   F
  0.9979410790000003  0.5014025589999989  0.1651978470000017   F   F   F
  0.7507272960000009  0.5014379059999996  0.1654730480000026   F   F   F
  0.2484077359999972  0.9989653640000000  0.1655050250000016   F   F   F
  0.0026835399999996  0.9989392600000002  0.1655775309999967   F   F   F
  0.5037179199999997  0.9979203070000011  0.1655856309999990   F   F   F
  0.2483221529999966  0.7533767729999994  0.1658259459999982   F   F   F
  0.7484137009999969  0.9978805350000002  0.1658943890000018   F   F   F
  0.2473094730000014  0.2543786680000011  0.1660089160000027   F   F   F
  0.7483561820000020  0.2543461500000035  0.1660180820000008   F   F   F
  0.2472921950000000  0.4989472700000022  0.1662971330000005   F   F   F
  0.5037960519999984  0.4989156760000029  0.1664085250000014   F   F   F
  0.3295282265485343  0.0873819961493508  0.5459946677272245   T   T   T
  0.8396968744954373  0.0707070955560166  0.5468968098841265   T   T   T
  0.3181692692798517  0.5914961698494982  0.5466857980551330   T   T   T
  0.9286636686679136  0.5572171835322829  0.5771347965351082   T   T   T
  0.8114417190402653  0.6901035958140955  0.5898590773268881   T   T   T
  0.0018691304924575  0.4639193299680570  0.6321466246493598   T   T   T
  0.0914135324893102  0.3663021032727449  0.6139455650945432   T   T   T
  0.6753801142359432  0.4275312534431112  0.5493353046949571   T   T   T
  0.6802441461990322  0.4315996288123998  0.6071087964931781   T   T   T
 
  0.00000000E+00  0.00000000E+00  0.00000000E+00
  0.00000000E+00  0.00000000E+00  0.00000000E+00
  0.00000000E+00  0.00000000E+00  0.00000000E+00
  0.00000000E+00  0.00000000E+00  0.00000000E+00
  0.00000000E+00  0.00000000E+00  0.00000000E+00
  0.00000000E+00  0.00000000E+00  0.00000000E+00
  0.00000000E+00  0.00000000E+00  0.00000000E+00
  0.00000000E+00  0.00000000E+00  0.00000000E+00
  0.00000000E+00  0.00000000E+00  0.00000000E+00
  0.00000000E+00  0.00000000E+00  0.00000000E+00
  0.00000000E+00  0.00000000E+00  0.00000000E+00
  0.00000000E+00  0.00000000E+00  0.00000000E+00
  0.00000000E+00  0.00000000E+00  0.00000000E+00
  0.00000000E+00  0.00000000E+00  0.00000000E+00
  0.00000000E+00  0.00000000E+00  0.00000000E+00
  0.00000000E+00  0.00000000E+00  0.00000000E+00
  0.00000000E+00  0.00000000E+00  0.00000000E+00
  0.00000000E+00  0.00000000E+00  0.00000000E+00
  0.00000000E+00  0.00000000E+00  0.00000000E+00
  0.00000000E+00  0.00000000E+00  0.00000000E+00
  0.00000000E+00  0.00000000E+00  0.00000000E+00
  0.00000000E+00  0.00000000E+00  0.00000000E+00
  0.00000000E+00  0.00000000E+00  0.00000000E+00
  0.00000000E+00  0.00000000E+00  0.00000000E+00
  0.00000000E+00  0.00000000E+00  0.00000000E+00
  0.00000000E+00  0.00000000E+00  0.00000000E+00
  0.00000000E+00  0.00000000E+00  0.00000000E+00
  0.00000000E+00  0.00000000E+00  0.00000000E+00
  0.00000000E+00  0.00000000E+00  0.00000000E+00
  0.00000000E+00  0.00000000E+00  0.00000000E+00
  0.00000000E+00  0.00000000E+00  0.00000000E+00
  0.00000000E+00  0.00000000E+00  0.00000000E+00
  0.00000000E+00  0.00000000E+00  0.00000000E+00
  0.00000000E+00  0.00000000E+00  0.00000000E+00
  0.00000000E+00  0.00000000E+00  0.00000000E+00
  0.00000000E+00  0.00000000E+00  0.00000000E+00
  0.00000000E+00  0.00000000E+00  0.00000000E+00
  0.00000000E+00  0.00000000E+00  0.00000000E+00
  0.00000000E+00  0.00000000E+00  0.00000000E+00
  0.00000000E+00  0.00000000E+00  0.00000000E+00
  0.00000000E+00  0.00000000E+00  0.00000000E+00
  0.00000000E+00  0.00000000E+00  0.00000000E+00
  0.00000000E+00  0.00000000E+00  0.00000000E+00
  0.00000000E+00  0.00000000E+00  0.00000000E+00
  0.00000000E+00  0.00000000E+00  0.00000000E+00
  0.00000000E+00  0.00000000E+00  0.00000000E+00
  0.00000000E+00  0.00000000E+00  0.00000000E+00
  0.00000000E+00  0.00000000E+00  0.00000000E+00
  0.00000000E+00  0.00000000E+00  0.00000000E+00
  0.00000000E+00  0.00000000E+00  0.00000000E+00
  0.00000000E+00  0.00000000E+00  0.00000000E+00
  0.00000000E+00  0.00000000E+00  0.00000000E+00
  0.00000000E+00  0.00000000E+00  0.00000000E+00
  0.00000000E+00  0.00000000E+00  0.00000000E+00
  0.00000000E+00  0.00000000E+00  0.00000000E+00
  0.00000000E+00  0.00000000E+00  0.00000000E+00
  0.00000000E+00  0.00000000E+00  0.00000000E+00
  0.00000000E+00  0.00000000E+00  0.00000000E+00
  0.00000000E+00  0.00000000E+00  0.00000000E+00
  0.00000000E+00  0.00000000E+00  0.00000000E+00
  0.00000000E+00  0.00000000E+00  0.00000000E+00
  0.00000000E+00  0.00000000E+00  0.00000000E+00
  0.00000000E+00  0.00000000E+00  0.00000000E+00
  0.00000000E+00  0.00000000E+00  0.00000000E+00
  0.00000000E+00  0.00000000E+00  0.00000000E+00
  0.00000000E+00  0.00000000E+00  0.00000000E+00
  0.00000000E+00  0.00000000E+00  0.00000000E+00
  0.00000000E+00  0.00000000E+00  0.00000000E+00
  0.00000000E+00  0.00000000E+00  0.00000000E+00
  0.00000000E+00  0.00000000E+00  0.00000000E+00
  0.00000000E+00  0.00000000E+00  0.00000000E+00
  0.00000000E+00  0.00000000E+00  0.00000000E+00
  0.00000000E+00  0.00000000E+00  0.00000000E+00
