Ni_Pol_COOHC
   1.00000000000000     
     9.8291997910000006    0.0000000000000000    0.0000000000000000
     4.9145998955000003    8.5123367178000002    0.0000000000000000
     0.0000000000000000    0.0000000000000000   19.0128002167000005
   Ni   O    C    O    H    C 
    64     3     1     2     1     1
Selective dynamics
Direct
  0.8340067758937734  0.5843988293926886  0.2711333013366207   T   T   T
  0.3352857951471780  0.0834000589134679  0.2696441604330596   T   T   T
  0.8342007967226601  0.0828859381676478  0.2705201444704180   T   T   T
  0.3343242399718000  0.5838250741347479  0.2707089291177237   T   T   T
  0.5838552721253019  0.8346793115156691  0.2700374644438474   T   T   T
  0.8346351555081674  0.8328589810830752  0.2711781790070361   T   T   T
  0.0844206679594850  0.3338275779098985  0.2708348402989689   T   T   T
  0.8345985090735140  0.3329578297512339  0.2710787190204200   T   T   T
  0.5848057065119013  0.5825290435322045  0.2715377943013665   T   T   T
  0.0838646248062898  0.5838181845560098  0.2717049373427759   T   T   T
  0.0845340564819815  0.0838081048292157  0.2705720235858720   T   T   T
  0.5845519863613921  0.0838703409118830  0.2715814249892141   T   T   T
  0.3348642344316272  0.8335732741327864  0.2709485092280643   T   T   T
  0.0845572667386177  0.8333868604194071  0.2708321585203643   T   T   T
  0.3329507277218312  0.3346225499767057  0.2717759629477800   T   T   T
  0.5841296968923364  0.3324394421072591  0.2716257935247465   T   T   T
  0.9183435247868030  0.6649325608375692  0.3774978702585771   T   T   T
  0.9170901825464780  0.4175472382495461  0.3748152546697143   T   T   T
  0.6666703005293126  0.6689264873619567  0.3742559431454506   T   T   T
  0.1695735666153798  0.1659325978271483  0.3750030393377984   T   T   T
  0.9172285653388965  0.1652152721728802  0.3758935602131453   T   T   T
  0.9179487332830614  0.9169191498369472  0.3758519380246833   T   T   T
  0.4175078834117451  0.9183152890512999  0.3755615726897769   T   T   T
  0.4178901726762376  0.1676612042993878  0.3760331636101571   T   T   T
  0.6696694637309119  0.1672711284609042  0.3778711155147889   T   T   T
  0.1681581000344918  0.6670518952822365  0.3762123353499683   T   T   T
  0.4175232825993060  0.6668815498858406  0.3762279890478372   T   T   T
  0.4170626545493664  0.4176238884140983  0.3763661438211492   T   T   T
  0.6673724362860662  0.9188417893343400  0.3773948372455243   T   T   T
  0.1657924321026977  0.4173295943181898  0.3795771000725351   T   T   T
  0.6674177316718820  0.4142676029613152  0.3778975954470319   T   T   T
  0.1677771983248692  0.9174514470212767  0.3784442722917958   T   T   T
  0.0032402300889632  0.2482474714475730  0.4779241474333345   T   T   T
  0.5039704438296192  0.2507460493693675  0.4803112962347164   T   T   T
  0.9979790504993814  0.7476556402581637  0.4800287309727671   T   T   T
  0.5042057207063826  0.7501782020638781  0.4792826323704709   T   T   T
  0.7483242800891327  0.7519019900357407  0.4800054882751310   T   T   T
  0.0003215971548092  0.5013711742628948  0.4904279254183379   T   T   T
  0.7433894168947897  0.5083910987641205  0.4789654811033572   T   T   T
  0.2506849696182423  0.9975433186402184  0.4853003822979924   T   T   T
  0.0053575466925997  0.9948847204197772  0.4856357035554906   T   T   T
  0.5043828982372452  0.9991926696747135  0.4860422305915566   T   T   T
  0.2496992716442537  0.7532070113186569  0.4857503935436950   T   T   T
  0.7484047284510701  0.9986457476460430  0.4851141517425661   T   T   T
  0.2518203777404606  0.2512058844810788  0.4844701140089156   T   T   T
  0.7551541837598260  0.2558150478036635  0.5033014667797533   T   T   T
  0.2487652286603226  0.4984587975161766  0.4857553474705704   T   T   T
  0.5008103323169193  0.5002259787960720  0.4864876183093834   T   T   T
  0.9970724670000024  0.2558556729999992  0.1637003960000030   F   F   F
  0.4999617989999976  0.2500875830000027  0.1643123180000003   F   F   F
  0.9968841629999972  0.7476992069999966  0.1643590660000029   F   F   F
  0.5054474789999972  0.7476858750000019  0.1651548480000002   F   F   F
  0.7507219769999978  0.7486395119999969  0.1651830500000031   F   F   F
  0.9979410790000003  0.5014025589999989  0.1651978470000017   F   F   F
  0.7507272960000009  0.5014379059999996  0.1654730480000026   F   F   F
  0.2484077359999972  0.9989653640000000  0.1655050250000016   F   F   F
  0.0026835399999996  0.9989392600000002  0.1655775309999967   F   F   F
  0.5037179199999997  0.9979203070000011  0.1655856309999990   F   F   F
  0.2483221529999966  0.7533767729999994  0.1658259459999982   F   F   F
  0.7484137009999969  0.9978805350000002  0.1658943890000018   F   F   F
  0.2473094730000014  0.2543786680000011  0.1660089160000027   F   F   F
  0.7483561820000020  0.2543461500000035  0.1660180820000008   F   F   F
  0.2472921950000000  0.4989472700000022  0.1662971330000005   F   F   F
  0.5037960519999984  0.4989156760000029  0.1664085250000014   F   F   F
  0.3340461484319598  0.0829682531666474  0.5454169228907664   T   T   T
  0.8417403808620628  0.0635384366207456  0.5482781882084582   T   T   T
  0.3306737683526912  0.5847603770347981  0.5458471278378608   T   T   T
  0.9212813271882634  0.3875961972577405  0.6062389995428126   T   T   T
 -0.0125254183871011  0.4689366779933543  0.6001113241798582   T   T   T
 -0.0840407310094033  0.3249337618418886  0.6677708450659351   T   T   T
 -0.0255613703806259  0.3500665157102765  0.7023084595046509   T   T   T
  0.8513113148208229  0.3596114585748301  0.5447314129220042   T   T   T
 
  0.00000000E+00  0.00000000E+00  0.00000000E+00
  0.00000000E+00  0.00000000E+00  0.00000000E+00
  0.00000000E+00  0.00000000E+00  0.00000000E+00
  0.00000000E+00  0.00000000E+00  0.00000000E+00
  0.00000000E+00  0.00000000E+00  0.00000000E+00
  0.00000000E+00  0.00000000E+00  0.00000000E+00
  0.00000000E+00  0.00000000E+00  0.00000000E+00
  0.00000000E+00  0.00000000E+00  0.00000000E+00
  0.00000000E+00  0.00000000E+00  0.00000000E+00
  0.00000000E+00  0.00000000E+00  0.00000000E+00
  0.00000000E+00  0.00000000E+00  0.00000000E+00
  0.00000000E+00  0.00000000E+00  0.00000000E+00
  0.00000000E+00  0.00000000E+00  0.00000000E+00
  0.00000000E+00  0.00000000E+00  0.00000000E+00
  0.00000000E+00  0.00000000E+00  0.00000000E+00
  0.00000000E+00  0.00000000E+00  0.00000000E+00
  0.00000000E+00  0.00000000E+00  0.00000000E+00
  0.00000000E+00  0.00000000E+00  0.00000000E+00
  0.00000000E+00  0.00000000E+00  0.00000000E+00
  0.00000000E+00  0.00000000E+00  0.00000000E+00
  0.00000000E+00  0.00000000E+00  0.00000000E+00
  0.00000000E+00  0.00000000E+00  0.00000000E+00
  0.00000000E+00  0.00000000E+00  0.00000000E+00
  0.00000000E+00  0.00000000E+00  0.00000000E+00
  0.00000000E+00  0.00000000E+00  0.00000000E+00
  0.00000000E+00  0.00000000E+00  0.00000000E+00
  0.00000000E+00  0.00000000E+00  0.00000000E+00
  0.00000000E+00  0.00000000E+00  0.00000000E+00
  0.00000000E+00  0.00000000E+00  0.00000000E+00
  0.00000000E+00  0.00000000E+00  0.00000000E+00
  0.00000000E+00  0.00000000E+00  0.00000000E+00
  0.00000000E+00  0.00000000E+00  0.00000000E+00
  0.00000000E+00  0.00000000E+00  0.00000000E+00
  0.00000000E+00  0.00000000E+00  0.00000000E+00
  0.00000000E+00  0.00000000E+00  0.00000000E+00
  0.00000000E+00  0.00000000E+00  0.00000000E+00
  0.00000000E+00  0.00000000E+00  0.00000000E+00
  0.00000000E+00  0.00000000E+00  0.00000000E+00
  0.00000000E+00  0.00000000E+00  0.00000000E+00
  0.00000000E+00  0.00000000E+00  0.00000000E+00
  0.00000000E+00  0.00000000E+00  0.00000000E+00
  0.00000000E+00  0.00000000E+00  0.00000000E+00
  0.00000000E+00  0.00000000E+00  0.00000000E+00
  0.00000000E+00  0.00000000E+00  0.00000000E+00
  0.00000000E+00  0.00000000E+00  0.00000000E+00
  0.00000000E+00  0.00000000E+00  0.00000000E+00
  0.00000000E+00  0.00000000E+00  0.00000000E+00
  0.00000000E+00  0.00000000E+00  0.00000000E+00
  0.00000000E+00  0.00000000E+00  0.00000000E+00
  0.00000000E+00  0.00000000E+00  0.00000000E+00
  0.00000000E+00  0.00000000E+00  0.00000000E+00
  0.00000000E+00  0.00000000E+00  0.00000000E+00
  0.00000000E+00  0.00000000E+00  0.00000000E+00
  0.00000000E+00  0.00000000E+00  0.00000000E+00
  0.00000000E+00  0.00000000E+00  0.00000000E+00
  0.00000000E+00  0.00000000E+00  0.00000000E+00
  0.00000000E+00  0.00000000E+00  0.00000000E+00
  0.00000000E+00  0.00000000E+00  0.00000000E+00
  0.00000000E+00  0.00000000E+00  0.00000000E+00
  0.00000000E+00  0.00000000E+00  0.00000000E+00
  0.00000000E+00  0.00000000E+00  0.00000000E+00
  0.00000000E+00  0.00000000E+00  0.00000000E+00
  0.00000000E+00  0.00000000E+00  0.00000000E+00
  0.00000000E+00  0.00000000E+00  0.00000000E+00
  0.00000000E+00  0.00000000E+00  0.00000000E+00
  0.00000000E+00  0.00000000E+00  0.00000000E+00
  0.00000000E+00  0.00000000E+00  0.00000000E+00
  0.00000000E+00  0.00000000E+00  0.00000000E+00
  0.00000000E+00  0.00000000E+00  0.00000000E+00
  0.00000000E+00  0.00000000E+00  0.00000000E+00
  0.00000000E+00  0.00000000E+00  0.00000000E+00
  0.00000000E+00  0.00000000E+00  0.00000000E+00
