 Ni_Pol_CO_vacuum
   1.000
    9.8291997910000006    0.0000000000000000    0.0000000000000000
    4.9145998955000003    8.5123367178000002    0.0000000000000000
    0.0000000000000000    0.0000000000000000   33.0127983093000026
   Ni   O    C 
   64    4    1
Selective Dynamics
Direct
    0.8339163046141406    0.5903158518705223    0.1230527375582702    T  T  T
    0.3336369372753259    0.0906523302463217    0.1236639859402701    T  T  T
    0.8340323574886042    0.0904851544884636    0.1233314315634636    T  T  T
    0.3336582827480306    0.5903182345860950    0.1235555883960397    T  T  T
    0.5837992564923188    0.8405538527625184    0.1229207249964037    T  T  T
    0.8340152458058644    0.8401834835312052    0.1231903871794068    T  T  T
    0.0845323094617980    0.3404452820333270    0.1237843467259983    T  T  T
    0.8340308964320493    0.3405559857432900    0.1232414451776233    T  T  T
    0.5837120804869732    0.5903902716213484    0.1229020235218911    T  T  T
    0.0844130450051066    0.5897247281294329    0.1237919429650554    T  T  T
    0.0835940759675206    0.0909709045679102    0.1230981731388896    T  T  T
    0.5840701194597114    0.0902011871715671    0.1238847431424405    T  T  T
    0.3334155458560902    0.8405927879817231    0.1229978298234400    T  T  T
    0.0837222673271901    0.8400620855844418    0.1230408497023785    T  T  T
    0.3335286958098334    0.3403909375976618    0.1245685479353467    T  T  T
    0.5839643071843384    0.3406438546961491    0.1238714907168133    T  T  T
    0.9177779627965088    0.6727143344916842    0.1834943855328133    T  T  T
    0.9179511455119441    0.4233887592703520    0.1835505364396022    T  T  T
    0.6670692050056806    0.6732658488644818    0.1832378312792669    T  T  T
    0.1678600091658880    0.1736093869111843    0.1843204102139209    T  T  T
    0.9170524861866758    0.1734114280155391    0.1838997674482911    T  T  T
    0.9169500169944629    0.9234440364265629    0.1837899786145907    T  T  T
    0.4167590467159938    0.9232810723490312    0.1834422891305495    T  T  T
    0.4172965591385797    0.1728211481206778    0.1847351502375130    T  T  T
    0.6669412432781862    0.1737719401835057    0.1845071599122131    T  T  T
    0.1678554354180282    0.6727816200990057    0.1842215000667757    T  T  T
    0.4167007459344416    0.6733980939375606    0.1834207829130229    T  T  T
    0.4171691176044111    0.4241459589015871    0.1847458173102352    T  T  T
    0.6667670257755183    0.9243182707625186    0.1846191635725364    T  T  T
    0.1702300948773971    0.4219246593321530    0.1865443601889350    T  T  T
    0.6669792654852652    0.4229569726198035    0.1847057144026832    T  T  T
    0.1657614492153048    0.9241731901367424    0.1841759930414478    T  T  T
   -0.0020797670853290    0.2626307083375600    0.2438764216426421    T  T  T
    0.4983558878099569    0.2572286800725312    0.2461836739666714    T  T  T
   -0.0021278491977055    0.7523376335355416    0.2438158169246009    T  T  T
    0.5066927898083124    0.7528592801305621    0.2434603701328771    T  T  T
    0.7521846190632121    0.7540043835710640    0.2441347776366267    T  T  T
   -0.0024083361288512    0.5076654940093998    0.2448193484091938    T  T  T
    0.7526541801907779    0.5062996229171983    0.2442380809884011    T  T  T
    0.2455892620529123    0.0037684090338310    0.2452533939573578    T  T  T
    0.0007921857806729    0.0061239934207664    0.2464372606483646    T  T  T
    0.5056842210270335   -0.0006350485346391    0.2468214174553010    T  T  T
    0.2455789665005458    0.7633078153833021    0.2452552157328799    T  T  T
    0.7479391346338174    0.0040872572062670    0.2470368797285100    T  T  T
    0.2498202252470680    0.2556600446717646    0.2514208376692338    T  T  T
    0.7481048782401564    0.2610739992000310    0.2472209358180623    T  T  T
    0.2499313092308026    0.5070337529683341    0.2515521235576270    T  T  T
    0.5061890855466146    0.5074194155101122    0.2468836234841418    T  T  T
    0.0005646818800164    0.2576624655209805    0.0624078280628861    F  F  F
    0.5004027385217099    0.2568964518902602    0.0630458530871173    F  F  F
    0.0007542097812545    0.7561266692511434    0.0623832350103580    F  F  F
    0.5005421807775532    0.7569918389234475    0.0620082475519699    F  F  F
    0.7503604427301830    0.7572772817840389    0.0623502322724066    F  F  F
    0.0010872334709886    0.5065905469855967    0.0627261156211565    F  F  F
    0.7503897367329962    0.5069949388609084    0.0623635258310750    F  F  F
    0.2506376497608002    0.0072908625900008    0.0626611488112257    F  F  F
    0.0003104829237185    0.0070365876825388    0.0626853583656246    F  F  F
    0.5003483187622229    0.0075113466534441    0.0627194581523175    F  F  F
    0.2506566552217756    0.7564096214353143    0.0626195403628527    F  F  F
    0.7501154301350629    0.0070185549524115    0.0628309706036069    F  F  F
    0.2510048470300471    0.2571179321072449    0.0631134934595999    F  F  F
    0.7500721985111690    0.2571641250312596    0.0628280376197669    F  F  F
    0.2508947065337101    0.5059078772210885    0.0631188800153173    F  F  F
    0.5003180420960529    0.5066035464071922    0.0627125939316622    F  F  F
    0.3387291479785887    0.0669676250673653    0.2814305726155628    T  T  T
    0.8322570097036295    0.0901318941538609    0.2810504576590042    T  T  T
    0.3388498717946489    0.6069305725146082    0.2814282437979012    T  T  T
    0.3597760959559013    0.3263374084151617    0.3256454376663945    T  T  T
    0.3469676404587936    0.3328217450841325    0.2899051049615936    T  T  T

  0.00000000E+00  0.00000000E+00  0.00000000E+00
  0.00000000E+00  0.00000000E+00  0.00000000E+00
  0.00000000E+00  0.00000000E+00  0.00000000E+00
  0.00000000E+00  0.00000000E+00  0.00000000E+00
  0.00000000E+00  0.00000000E+00  0.00000000E+00
  0.00000000E+00  0.00000000E+00  0.00000000E+00
  0.00000000E+00  0.00000000E+00  0.00000000E+00
  0.00000000E+00  0.00000000E+00  0.00000000E+00
  0.00000000E+00  0.00000000E+00  0.00000000E+00
  0.00000000E+00  0.00000000E+00  0.00000000E+00
  0.00000000E+00  0.00000000E+00  0.00000000E+00
  0.00000000E+00  0.00000000E+00  0.00000000E+00
  0.00000000E+00  0.00000000E+00  0.00000000E+00
  0.00000000E+00  0.00000000E+00  0.00000000E+00
  0.00000000E+00  0.00000000E+00  0.00000000E+00
  0.00000000E+00  0.00000000E+00  0.00000000E+00
  0.00000000E+00  0.00000000E+00  0.00000000E+00
  0.00000000E+00  0.00000000E+00  0.00000000E+00
  0.00000000E+00  0.00000000E+00  0.00000000E+00
  0.00000000E+00  0.00000000E+00  0.00000000E+00
  0.00000000E+00  0.00000000E+00  0.00000000E+00
  0.00000000E+00  0.00000000E+00  0.00000000E+00
  0.00000000E+00  0.00000000E+00  0.00000000E+00
  0.00000000E+00  0.00000000E+00  0.00000000E+00
  0.00000000E+00  0.00000000E+00  0.00000000E+00
  0.00000000E+00  0.00000000E+00  0.00000000E+00
  0.00000000E+00  0.00000000E+00  0.00000000E+00
  0.00000000E+00  0.00000000E+00  0.00000000E+00
  0.00000000E+00  0.00000000E+00  0.00000000E+00
  0.00000000E+00  0.00000000E+00  0.00000000E+00
  0.00000000E+00  0.00000000E+00  0.00000000E+00
  0.00000000E+00  0.00000000E+00  0.00000000E+00
  0.00000000E+00  0.00000000E+00  0.00000000E+00
  0.00000000E+00  0.00000000E+00  0.00000000E+00
  0.00000000E+00  0.00000000E+00  0.00000000E+00
  0.00000000E+00  0.00000000E+00  0.00000000E+00
  0.00000000E+00  0.00000000E+00  0.00000000E+00
  0.00000000E+00  0.00000000E+00  0.00000000E+00
  0.00000000E+00  0.00000000E+00  0.00000000E+00
  0.00000000E+00  0.00000000E+00  0.00000000E+00
  0.00000000E+00  0.00000000E+00  0.00000000E+00
  0.00000000E+00  0.00000000E+00  0.00000000E+00
  0.00000000E+00  0.00000000E+00  0.00000000E+00
  0.00000000E+00  0.00000000E+00  0.00000000E+00
  0.00000000E+00  0.00000000E+00  0.00000000E+00
  0.00000000E+00  0.00000000E+00  0.00000000E+00
  0.00000000E+00  0.00000000E+00  0.00000000E+00
  0.00000000E+00  0.00000000E+00  0.00000000E+00
  0.00000000E+00  0.00000000E+00  0.00000000E+00
  0.00000000E+00  0.00000000E+00  0.00000000E+00
  0.00000000E+00  0.00000000E+00  0.00000000E+00
  0.00000000E+00  0.00000000E+00  0.00000000E+00
  0.00000000E+00  0.00000000E+00  0.00000000E+00
  0.00000000E+00  0.00000000E+00  0.00000000E+00
  0.00000000E+00  0.00000000E+00  0.00000000E+00
  0.00000000E+00  0.00000000E+00  0.00000000E+00
  0.00000000E+00  0.00000000E+00  0.00000000E+00
  0.00000000E+00  0.00000000E+00  0.00000000E+00
  0.00000000E+00  0.00000000E+00  0.00000000E+00
  0.00000000E+00  0.00000000E+00  0.00000000E+00
  0.00000000E+00  0.00000000E+00  0.00000000E+00
  0.00000000E+00  0.00000000E+00  0.00000000E+00
  0.00000000E+00  0.00000000E+00  0.00000000E+00
  0.00000000E+00  0.00000000E+00  0.00000000E+00
  0.00000000E+00  0.00000000E+00  0.00000000E+00
  0.00000000E+00  0.00000000E+00  0.00000000E+00
  0.00000000E+00  0.00000000E+00  0.00000000E+00
  0.00000000E+00  0.00000000E+00  0.00000000E+00
  0.00000000E+00  0.00000000E+00  0.00000000E+00
