 Ni_Pol_CO2_COOH                           
   1.00000000000000     
     9.8291997910000006    0.0000000000000000    0.0000000000000000
     4.9145998955000003    8.5123367178000002    0.0000000000000000
     0.0000000000000000    0.0000000000000000   33.0128002167000005
   Ni   O    O    H    C    O 
    64     3    30    60     1     2
Selective dynamics
Direct
  0.8287003744910414  0.5801605726942862  0.1195922099606909   T   T   T
  0.3466335621259428  0.0789275450954282  0.1216081653618440   T   T   T
  0.8325114590838566  0.0823628727859618  0.1242218704746904   T   T   T
  0.3469704718444479  0.5809001519876847  0.1197884275282148   T   T   T
  0.5851772510884424  0.8267019722584065  0.1213127083625793   T   T   T
  0.8343334165627642  0.8382349592823970  0.1219946351467942   T   T   T
  0.0929847561679846  0.3221307917283315  0.1257909918760328   T   T   T
  0.8392514856941855  0.3284628024735018  0.1202672339573370   T   T   T
  0.5937103142651649  0.5778434176086833  0.1203218372323127   T   T   T
  0.0867062000969639  0.5743623429923461  0.1219012666689233   T   T   T
  0.0784915269479015  0.0889179777687913  0.1211531667481103   T   T   T
  0.5826225162392178  0.0844971621478646  0.1196861255613159   T   T   T
  0.3351120353665920  0.8308661713199705  0.1187931178294368   T   T   T
  0.0910278549110312  0.8329111448958236  0.1215795196632779   T   T   T
  0.3325578180088019  0.3304658441028879  0.1225846771231419   T   T   T
  0.5834325011227812  0.3335428350324633  0.1225580880269211   T   T   T
  0.9142094759932656  0.6800020549783659  0.1788415216196183   T   T   T
  0.9244677215956569  0.4114681553697344  0.1829515686038985   T   T   T
  0.6743804412299005  0.6666481585979926  0.1822141414588853   T   T   T
  0.1842537348302524  0.1587178615258657  0.1847052870642444   T   T   T
  0.9287587827590049  0.1638289211832977  0.1845881302389611   T   T   T
  0.9337631021554053  0.9142123669182667  0.1823960784412764   T   T   T
  0.4338848021968199  0.9111400136220847  0.1845709816563601   T   T   T
  0.4263676323483279  0.1659473152500289  0.1813524916198653   T   T   T
  0.6772424241478917  0.1707784872870357  0.1815749410101959   T   T   T
  0.1751416576516681  0.6598232640966140  0.1828818256368479   T   T   T
  0.4288272803081896  0.6618297395278600  0.1807854610911429   T   T   T
  0.4149991286902634  0.4193454141416816  0.1821408250271977   T   T   T
  0.6732705916638688  0.9342822261765534  0.1797481190232569   T   T   T
  0.1685634079876517  0.4225589806935460  0.1823017839615155   T   T   T
  0.6760985276682597  0.4024699217186644  0.1833283610035179   T   T   T
  0.1766600246294478  0.9176090376803703  0.1799158064807983   T   T   T
  0.9961442911573191  0.2778023164436240  0.2534099932682286   T   T   T
  0.5025780430643914  0.2619661169779533  0.2490719227009638   T   T   T
  0.9941979892500430  0.7708024271128661  0.2443977089931379   T   T   T
  0.5124887554051872  0.7526042203871679  0.2446647160210364   T   T   T
  0.7517274466972146  0.7586431426298001  0.2420209066202230   T   T   T
 -0.0093317948538905  0.5241214101748817  0.2406547981892897   T   T   T
  0.7464989867610000  0.5025629259372920  0.2390376918092925   T   T   T
  0.2504988376965755 -0.0003235281667593  0.2492671732475671   T   T   T
  0.0107021306681679  1.0185110096003800  0.2521419387997338   T   T   T
  0.5190613527215315 -0.0036496620181599  0.2434689303813860   T   T   T
  0.2510190606414245  0.7631710958816073  0.2415781852906068   T   T   T
  0.7417128811226561  1.0136159433649676  0.2443629215886653   T   T   T
  0.2508314881385261  0.2600886105934485  0.2460299988089032   T   T   T
  0.7482284416892456  0.2643111355853161  0.2476036400719065   T   T   T
  0.2426526039035498  0.5059121711383218  0.2436909018833952   T   T   T
  0.4940232582420584  0.5006680564499485  0.2491406451232307   T   T   T
  0.9970724699999991  0.2558556700000025  0.0591330299999981   F   F   F
  0.4999618000000012  0.2500875799999989  0.0594854499999968   F   F   F
  0.9968841600000005  0.7476992100000004  0.0595123729999969   F   F   F
  0.5054474800000008  0.7476858799999988  0.0599706819999994   F   F   F
  0.7507219800000016  0.7486395099999967  0.0599869240000004   F   F   F
  0.9979410799999968  0.5014025600000025  0.0599954460000021   F   F   F
  0.7507273000000012  0.5014379099999999  0.0601539399999993   F   F   F
  0.2484077399999975  0.9989653599999997  0.0601723560000025   F   F   F
  0.0026835402000032  0.9989392600000002  0.0602141139999972   F   F   F
  0.5037179199999997  0.9979203099999978  0.0602187790000031   F   F   F
  0.2483221499999999  0.7533767700000027  0.0603571819999971   F   F   F
  0.7484137000000004  0.9978805399999970  0.0603965990000006   F   F   F
  0.2473094699999976  0.2543786700000013  0.0604625579999976   F   F   F
  0.7483561800000018  0.2543461500000035  0.0604678369999974   F   F   F
  0.2472921999999969  0.4989472700000022  0.0606285479999968   F   F   F
  0.5037960499999983  0.4989156800000032  0.0606927010000007   F   F   F
  0.3569596568056827  0.0859309791191178  0.2793522506124723   T   T   T
  0.8272553518626580  0.0896505611827472  0.2853057791881835   T   T   T
  0.3212060507568850  0.6021383562642316  0.2822962778144195   T   T   T
  0.6621321798173878  0.1125297795624847  0.5555707347196115   T   T   T
  0.5611857494723299 -0.0157219553638661  0.4539855730199952   T   T   T
  0.4821093056401359  0.7609768668384295  0.4515294178265634   T   T   T
  0.1048750434220513  0.9938127792027226  0.4647231995206654   T   T   T
  1.0005447453928293  0.3004398331709427  0.3152821045389987   T   T   T
  0.4041452353776300  0.1270098109721303  0.5284411596897667   T   T   T
  0.9298544647067150  0.6799897159288220  0.2833082533911976   T   T   T
  0.1603827553381184  0.7908146040275740  0.3498468866760031   T   T   T
  0.6356113030819150  0.8294183044963053  0.3620208881717512   T   T   T
  0.9064616882798093  0.3045845108160342  0.4546114523019847   T   T   T
  0.3922095089652302  0.5083924450824627  0.4980521478278490   T   T   T
  0.9652539470271502  0.8138663960904621  0.5762388781370390   T   T   T
  0.6736317621625897  0.5969480320891748  0.5123927598163003   T   T   T
  0.8404192972685767  0.9356523282303967  0.3570777833867298   T   T   T
  0.8499551508488091 -0.0607379863703078  0.4364211570391592   T   T   T
  0.3243874208360145  0.5847471712691574  0.4211844996563867   T   T   T
  0.0403775424375103  0.5365441422473762  0.3516530047450713   T   T   T
  0.5502051464496801  0.6992433283796254  0.3059389307611134   T   T   T
  0.1377537553657354  0.3360349834058963  0.4869476329627112   T   T   T
  1.0253075480722713  0.6214546096807925  0.4249431263175846   T   T   T
  0.7234258807324184  0.7579800076428529  0.6227619389544823   T   T   T
  0.2024682084012328  0.8137316780232311  0.5403721126398673   T   T   T
  0.3282741053770035  0.3112079610082973  0.4144496770541883   T   T   T
  1.0158091241871217  0.1071981968762904  0.3732264703160436   T   T   T
  0.6948681159345158  0.4322604480119678  0.3456495637291370   T   T   T
  0.6876312645608210  0.3125383299201901  0.4979214685452377   T   T   T
 -0.0738516966454783  0.6121618764567759  0.5316535575313539   T   T   T
  0.4797888329150101  0.8506437102715237  0.5668357837926306   T   T   T
  0.7317632029499871  0.5626462651583831  0.4117474506259233   T   T   T
  0.3415671162998492  0.0837349207582078  0.3692771917007193   T   T   T
  0.6496954860364970  0.1865660419388437  0.5771290366221956   T   T   T
  0.5489910070846631  0.1410581173887587  0.5508563678575195   T   T   T
  0.5156532345237673  0.0214432932046635  0.4815127948687076   T   T   T
  0.6604045699995414 -0.0201701323906186  0.4531253766262247   T   T   T
  0.3680087105063895  0.8339425990925221  0.4543668058448899   T   T   T
  0.5297883858001222  0.8296575539823964  0.4465215131926646   T   T   T
  0.0547925989213168  0.1091950331949470  0.4689610520138261   T   T   T
  0.1194902406622611  0.9432925912624907  0.4911753048328873   T   T   T
  1.0097705403283850  0.2152569143621212  0.3359127861851140   T   T   T
  1.0375910388169318  0.3706425936706041  0.3266536617767400   T   T   T
  0.2999577508817736  0.1893295651099617  0.5195866554297126   T   T   T
  0.4152067018977212  0.0249103932775918  0.5369510927345805   T   T   T
  0.9482180493684653  0.6640187426441635  0.3138755873912000   T   T   T
  0.8706109032075605  0.9635127207940933  0.3331752208811777   T   T   T
  0.0659771182545467  0.7845588532450234  0.3544946328924395   T   T   T
  0.1970903354743246  0.7534832509589889  0.3224642859207346   T   T   T
  0.5317544212961148  0.9273692395890274  0.3724134411308351   T   T   T
  0.6719990067843504  0.7396450696411324  0.3813678644860652   T   T   T
  0.8536473311882138  0.3993501311173616  0.4374523802157352   T   T   T
  0.8168219981401117  0.2808415976869159  0.4640599466011059   T   T   T
  0.3354702282940825  0.5947330336791441  0.5179927132350718   T   T   T
  0.3587544300625337  0.5731702411202666  0.4722385745447484   T   T   T
  0.8810534675567179  0.9112306320558753  0.5646735533508501   T   T   T
  0.9667026303751647  0.7321561184589319  0.5582975867054687   T   T   T
  0.5954919164832582  0.6567559403460068  0.4915292248590409   T   T   T
  0.7003134414207023  0.4833497256215393  0.5109580380032870   T   T   T
  0.7702510634178598  0.8882364587043365  0.3524004040287261   T   T   T
  0.6753970352971362  0.1512821940143946  0.3241900125105710   T   T   T
  0.8464125683207896 -0.0456093462479658  0.4061249151244086   T   T   T
  0.9115916858469977 -0.0187573884997838  0.4485859144321145   T   T   T
  0.3145388856455608  0.6624094803090319  0.3992029394626306   T   T   T
  0.2136826850586880  0.6080180518936036  0.4210421510847969   T   T   T
  0.1591908773903209  0.4777753438194080  0.3485990870147726   T   T   T
  0.0157814801616289  0.5762784800941511  0.3812120200324277   T   T   T
  0.5700773226734039  0.7603225184864381  0.3262825965434896   T   T   T
  0.5971613457106107  0.5908815881703265  0.3185391131185673   T   T   T
  0.0482697751727651  0.3169555413467106  0.4784425791346696   T   T   T
  0.2132741309032654  0.3052590771216777  0.4646525726212548   T   T   T
  0.9432484284740971  0.7339341648847808  0.4324887539756682   T   T   T
  0.0496647008236605  0.5447946989915805  0.4461848208183455   T   T   T
  0.7954311288500303  0.7895394376923791  0.6144797754703090   T   T   T
  0.7679966330270454  0.6534625508937283  0.6114550756034872   T   T   T
  0.2607427409863640  0.8565014385251754  0.5543283733833145   T   T   T
  0.1173644669587417  0.8172872105905572  0.5586680613911206   T   T   T
  0.4298783193618934  0.2133135126306165  0.4259296125355582   T   T   T
  0.3459946810684865  0.3986115295928430  0.4091480875233891   T   T   T
  0.0873855303696908  1.1165598228133344  0.3938716716373197   T   T   T
  1.0728087962222301 -0.0096867867861292  0.3676055624311858   T   T   T
  0.6526344406825328  0.3612904517462315  0.3405361695075750   T   T   T
  0.7887903842328131  0.3920374432628477  0.3277967142551391   T   T   T
  0.5736826794837731  0.3761299816670206  0.4906575874596211   T   T   T
  0.6967610134072441  0.2238880079719666  0.5141961709251760   T   T   T
 -0.1742409789794116  0.6183404334267162  0.5214104881212913   T   T   T
  0.0063312023710771  0.5364815345917028  0.5121207412433905   T   T   T
  0.5582748321426689  0.8484975183247808  0.5885166824412729   T   T   T
  0.5465600194225749  0.7703659901598559  0.5500480441550489   T   T   T
  0.6207227640128085  0.6185094428391635  0.4235749063988838   T   T   T
  0.7150316934654929  0.5091790042280248  0.3869754815779671   T   T   T
  0.3439162685268167  0.1637885300689981  0.3856929782203249   T   T   T
  0.3686407232648917  0.1063399950945035  0.3432461699391626   T   T   T
  0.4569115656825103  0.2889243026990023  0.3049691281557438   T   T   T
  0.3181955013015855  0.3473328368457912  0.3171314357015269   T   T   T
  0.5672253571721949  0.2317622135074182  0.3335384178521797   T   T   T
 
 -0.39039082E-02  0.18678335E-02 -0.23364507E-02
 -0.45677779E-03  0.15206374E-03 -0.16682441E-02
 -0.14141595E-02  0.30636291E-03 -0.19753757E-03
  0.32735105E-02  0.41079105E-03  0.10930318E-02
  0.26870943E-03  0.55000672E-03  0.33200064E-02
  0.20471265E-02 -0.25071172E-02 -0.16115722E-02
  0.19689775E-02 -0.16745447E-02 -0.51019932E-03
 -0.48888062E-02 -0.14078720E-03  0.29857768E-02
  0.32589202E-03 -0.16684109E-02  0.22564758E-02
 -0.10838815E-02 -0.26219897E-02 -0.19048206E-02
 -0.28695297E-03  0.97922236E-03  0.51890614E-03
 -0.69007359E-03 -0.25743533E-02  0.76750933E-03
 -0.10157090E-02  0.85899940E-03 -0.30574848E-02
  0.82532424E-03 -0.41087429E-02 -0.30154686E-02
 -0.12119860E-02 -0.60304029E-03 -0.73928023E-03
 -0.12526900E-02  0.22088459E-03 -0.11304582E-02
  0.27230865E-02  0.11708925E-02  0.19586995E-02
 -0.12745814E-02 -0.39264243E-02 -0.89979698E-03
 -0.18838735E-02  0.21110163E-04 -0.61469093E-03
  0.54590680E-03  0.14256204E-02 -0.46022425E-05
  0.21157378E-02 -0.31204536E-04  0.15960491E-02
  0.17563308E-02 -0.33096038E-03 -0.19769317E-02
 -0.33811746E-02  0.21235673E-03 -0.27633151E-02
  0.51802808E-02  0.17743918E-02  0.14249580E-02
  0.22374586E-02  0.10322866E-03 -0.49572529E-03
  0.19656499E-02 -0.17766613E-02 -0.15993113E-02
 -0.17685525E-03  0.25689172E-02  0.59611474E-04
 -0.50736834E-04  0.17388668E-02 -0.16225754E-02
 -0.12139118E-02 -0.17126412E-02  0.25314594E-02
 -0.59218223E-03 -0.12392272E-02 -0.14442623E-02
 -0.79616919E-03 -0.10234036E-02  0.40996887E-02
  0.24951578E-02  0.18595175E-03 -0.15622630E-02
 -0.24175248E-02  0.10504718E-02  0.48226023E-03
 -0.51813471E-02  0.33747770E-02  0.38119448E-02
  0.19689163E-02 -0.54925964E-03  0.19287635E-02
 -0.21432743E-03 -0.17980384E-02  0.10634545E-02
 -0.71361038E-03 -0.10883305E-02 -0.97134635E-03
  0.19846809E-02 -0.15312619E-02 -0.34159734E-03
  0.68054366E-03 -0.40506714E-02  0.17903227E-02
 -0.20658603E-02  0.29880857E-02 -0.19068129E-02
 -0.69414234E-03 -0.16925005E-02 -0.30741620E-03
  0.13199376E-03  0.37767082E-03 -0.19460830E-02
  0.14869703E-02 -0.10706254E-02 -0.13338244E-03
  0.14259828E-02  0.35893017E-02  0.82539618E-03
 -0.30003510E-02  0.40586539E-02  0.13706453E-03
  0.32496583E-02 -0.61539092E-03 -0.26352407E-02
 -0.34443859E-03  0.14733424E-02 -0.24043480E-02
  0.34396268E-02 -0.83661802E-03  0.11248109E-02
  0.00000000E+00  0.00000000E+00  0.00000000E+00
  0.00000000E+00  0.00000000E+00  0.00000000E+00
  0.00000000E+00  0.00000000E+00  0.00000000E+00
  0.00000000E+00  0.00000000E+00  0.00000000E+00
  0.00000000E+00  0.00000000E+00  0.00000000E+00
  0.00000000E+00  0.00000000E+00  0.00000000E+00
  0.00000000E+00  0.00000000E+00  0.00000000E+00
  0.00000000E+00  0.00000000E+00  0.00000000E+00
  0.00000000E+00  0.00000000E+00  0.00000000E+00
  0.00000000E+00  0.00000000E+00  0.00000000E+00
  0.00000000E+00  0.00000000E+00  0.00000000E+00
  0.00000000E+00  0.00000000E+00  0.00000000E+00
  0.00000000E+00  0.00000000E+00  0.00000000E+00
  0.00000000E+00  0.00000000E+00  0.00000000E+00
  0.00000000E+00  0.00000000E+00  0.00000000E+00
  0.00000000E+00  0.00000000E+00  0.00000000E+00
 -0.10186278E-03 -0.35340911E-02  0.28946514E-02
 -0.59274381E-02  0.22283671E-02 -0.60152382E-02
  0.72933207E-03  0.83977801E-02 -0.28060723E-02
 -0.42453474E-02 -0.19621634E-02 -0.36931773E-02
  0.23981675E-02  0.57339521E-02  0.22815599E-03
  0.66417989E-02 -0.28426419E-02 -0.24758543E-02
  0.66048962E-03  0.53494299E-02  0.26169768E-02
  0.29801365E-02  0.36453207E-02  0.12222869E-02
  0.12528772E-02  0.88265215E-03  0.12703871E-02
  0.10506062E-01 -0.87687357E-03  0.84488804E-02
 -0.23432393E-02  0.18441874E-03  0.46478997E-03
  0.26408089E-02  0.62448531E-03  0.53157989E-02
 -0.21894837E-02  0.83512457E-02  0.51173714E-03
  0.17672892E-03  0.56478476E-02  0.31827876E-02
  0.76745993E-02  0.12169156E-02  0.12196178E-03
 -0.17262535E-02 -0.33618778E-02 -0.11266191E-01
 -0.32569601E-03  0.47219412E-03 -0.79094139E-03
 -0.54177674E-02 -0.19034969E-03 -0.22029468E-02
  0.15237237E-02  0.57570090E-02  0.72463088E-02
 -0.35307800E-02 -0.62681591E-02  0.66126938E-02
 -0.44555617E-02 -0.69822895E-02 -0.97602102E-02
  0.43296017E-03 -0.17998374E-02  0.91135676E-03
  0.98767046E-03  0.13366156E-02  0.25981361E-03
 -0.27373711E-02  0.53074718E-02 -0.39776824E-02
  0.31286981E-02 -0.86241888E-03  0.54065145E-02
  0.53740030E-02 -0.69460702E-02 -0.39785888E-02
 -0.21549718E-02 -0.37591660E-02 -0.25867758E-02
  0.10702576E-02  0.51682843E-04 -0.98564988E-03
  0.80139189E-03  0.80418416E-02 -0.10007841E-02
 -0.22588379E-02  0.40161820E-02  0.37400354E-02
  0.28513636E-03  0.41749522E-02  0.19186939E-02
  0.53468611E-02 -0.19777960E-02 -0.74212818E-02
 -0.51827350E-02  0.40725079E-02 -0.63367593E-02
  0.94884081E-02 -0.42363420E-01 -0.11212696E-01
 -0.51883592E-03 -0.26939664E-01  0.13591024E-01
  0.38036976E-02 -0.15007439E-01 -0.12578430E-01
  0.26773112E-01  0.16248647E-01  0.16527983E-01
 -0.23021465E-03 -0.47056885E-02 -0.22037916E-01
  0.58961175E-02 -0.16673623E-01  0.30925528E-02
 -0.51852663E-02  0.13337759E-01 -0.61294519E-02
  0.69351210E-02 -0.32464565E-02 -0.12726939E-01
  0.16296893E-02  0.90237971E-02  0.29168004E-02
 -0.10069578E-01  0.28788592E-02  0.10084177E-01
  0.21807181E-02 -0.22404190E-01 -0.45698845E-02
  0.49883421E-02 -0.97448036E-02 -0.10270604E-01
 -0.66717379E-02 -0.84255732E-02  0.96411183E-03
 -0.11677045E-01  0.19693926E-01 -0.11126782E-01
 -0.54672414E-02 -0.66089699E-02  0.63304592E-02
 -0.20437522E-02 -0.18298313E-02 -0.35871196E-02
  0.22782099E-01  0.21017353E-02 -0.38938720E-01
 -0.18154368E-01  0.10713015E-01 -0.17788711E-01
  0.67152322E-03  0.12875707E-01 -0.12604081E-01
  0.10482126E-01  0.11896678E-01  0.17145372E-03
  0.20781932E-01 -0.13961627E-01 -0.15880127E-02
 -0.77895259E-02  0.10033166E-01 -0.17271037E-01
 -0.91213735E-02 -0.91548583E-02 -0.19987908E-01
  0.61891997E-02 -0.11301904E-01 -0.90445535E-02
 -0.20335063E-01 -0.13903185E-01 -0.25058844E-01
 -0.32540385E-02 -0.13504208E-01 -0.13316958E-01
 -0.10620174E-01  0.10490386E-01  0.12103593E-01
 -0.28839242E-01 -0.16642758E-01 -0.65283037E-02
 -0.42988209E-02 -0.25365010E-01 -0.15142180E-02
 -0.68259185E-02  0.32470296E-01 -0.16310237E-01
 -0.94308650E-02 -0.11317191E-01  0.16831089E-02
 -0.13216655E-01 -0.95697631E-02  0.33290025E-01
  0.22313596E-02 -0.11601714E-01  0.18076769E-02
  0.81891958E-02 -0.11227957E-01  0.80256684E-02
 -0.25291223E-01  0.19576570E-02  0.17359820E-02
  0.36991108E-02  0.12029876E-01  0.54062963E-02
  0.25007450E-01 -0.35307123E-02 -0.18270896E-01
  0.12019267E-01 -0.16240051E-01 -0.12910622E-01
  0.28365520E-01 -0.36504845E-01  0.56313652E-04
 -0.68360027E-03  0.14888063E-01 -0.65227200E-02
  0.17018945E-02  0.11235668E-01 -0.39735404E-01
  0.55692725E-02  0.82133335E-02  0.18228200E-01
  0.10083893E-01 -0.88566259E-03 -0.62128196E-02
 -0.59721894E-02  0.27825927E-02  0.12575616E-01
  0.14434967E-01 -0.76867364E-02 -0.13385709E-01
  0.56386620E-04  0.20513284E-01 -0.14286938E-02
 -0.24683690E-02 -0.19127101E-01 -0.13639646E-01
  0.58224017E-02 -0.33556976E-02  0.10587120E-01
  0.27107893E-02  0.11595314E-01 -0.28199073E-01
  0.25791587E-02  0.49035316E-02 -0.95330388E-02
 -0.59321050E-02  0.56133950E-02 -0.20912144E-02
  0.12463806E-01 -0.58363656E-02 -0.49543067E-02
  0.17785319E-01 -0.12243427E-01  0.84010772E-03
  0.12184936E-02  0.15432465E-01  0.65345272E-02
 -0.11860513E-01 -0.41091713E-01 -0.67772918E-01
  0.24316004E-02  0.69185515E-02 -0.18481924E-01
  0.26839718E-01  0.20828397E-02 -0.11358347E-01
  0.30921393E-02  0.31490899E-02  0.18974126E-01
 -0.59829035E-02 -0.14411015E-01 -0.19792347E-01
  0.12320017E-01  0.29416838E-01 -0.44577395E-02
 -0.36849765E-02  0.56450926E-03 -0.31150560E-03
  0.59381441E-02  0.71784791E-02  0.59727095E-02
  0.23861057E-02  0.25645852E-02  0.86555749E-03
 
           1
   1.00000000000000     
  0.97881401E-01 -0.15534632E-02 -0.12637191E-02  0.99289993E-01
  0.82819349E+00  0.58038000E+00  0.11952144E+00
  0.34657816E+00  0.78945409E-01  0.12155763E+00
  0.83234959E+00  0.82398863E-01  0.12421589E+00
  0.34727938E+00  0.58094841E+00  0.11982154E+00
  0.58517228E+00  0.82676659E+00  0.12141328E+00
  0.83468895E+00  0.83794043E+00  0.12194582E+00
  0.93283435E-01  0.32193407E+00  0.12577554E+00
  0.83876238E+00  0.32844626E+00  0.12035768E+00
  0.59384147E+00  0.57764742E+00  0.12039019E+00
  0.86749940E-01  0.57405432E+00  0.12184357E+00
  0.78404815E-01  0.89033013E-01  0.12116889E+00
  0.58270352E+00  0.84194736E-01  0.11970937E+00
  0.33495824E+00  0.83096708E+00  0.11870050E+00
  0.91353162E-01  0.83242846E+00  0.12148818E+00
  0.33246993E+00  0.33039500E+00  0.12256228E+00
  0.58329208E+00  0.33356878E+00  0.12252384E+00
  0.91441774E+00  0.68013961E+00  0.17890085E+00
  0.92456868E+00  0.41100689E+00  0.18292431E+00
  0.67418754E+00  0.66665064E+00  0.18219552E+00
  0.18422554E+00  0.15888534E+00  0.18470515E+00
  0.92897587E+00  0.16382526E+00  0.18463648E+00
  0.93396123E+00  0.91417349E+00  0.18233619E+00
  0.43352834E+00  0.91116496E+00  0.18448728E+00
  0.42679044E+00  0.16615576E+00  0.18139566E+00
  0.67746399E+00  0.17079061E+00  0.18155992E+00
  0.17544600E+00  0.65961455E+00  0.18283338E+00
  0.42865839E+00  0.66213153E+00  0.18078727E+00
  0.41489183E+00  0.41954969E+00  0.18209168E+00
  0.67324769E+00  0.93408103E+00  0.17982480E+00
  0.16857595E+00  0.42241340E+00  0.18225804E+00
  0.67607764E+00  0.40234970E+00  0.18345255E+00
  0.17690295E+00  0.91763088E+00  0.17986848E+00
  0.99583663E+00  0.27792572E+00  0.25342460E+00
  0.50185268E+00  0.26236257E+00  0.24918739E+00
  0.99443056E+00  0.77073790E+00  0.24445613E+00
  0.51257256E+00  0.75239299E+00  0.24469693E+00
  0.75171877E+00  0.75851529E+00  0.24199148E+00
  0.99096007E+00  0.52394152E+00  0.24064445E+00
  0.74680615E+00  0.50208707E+00  0.23909192E+00
  0.25011315E+00  0.27501847E-04  0.24920941E+00
  0.10730925E-01  0.18312180E-01  0.25213263E+00
  0.51905260E+00  0.99639471E+00  0.24340998E+00
  0.25123323E+00  0.76304532E+00  0.24157414E+00
  0.74164713E+00  0.14037602E-01  0.24438792E+00
  0.25028784E+00  0.26056541E+00  0.24603415E+00
  0.74859520E+00  0.26423884E+00  0.24752382E+00
  0.24253102E+00  0.50608525E+00  0.24361807E+00
  0.49442234E+00  0.50056977E+00  0.24917472E+00
  0.99707247E+00  0.25585567E+00  0.59133030E-01
  0.49996180E+00  0.25008758E+00  0.59485450E-01
  0.99688416E+00  0.74769921E+00  0.59512373E-01
  0.50544748E+00  0.74768588E+00  0.59970682E-01
  0.75072198E+00  0.74863951E+00  0.59986924E-01
  0.99794108E+00  0.50140256E+00  0.59995446E-01
  0.75072730E+00  0.50143791E+00  0.60153940E-01
  0.24840774E+00  0.99896536E+00  0.60172356E-01
  0.26835402E-02  0.99893926E+00  0.60214114E-01
  0.50371792E+00  0.99792031E+00  0.60218779E-01
  0.24832215E+00  0.75337677E+00  0.60357182E-01
  0.74841370E+00  0.99788054E+00  0.60396599E-01
  0.24730947E+00  0.25437867E+00  0.60462558E-01
  0.74835618E+00  0.25434615E+00  0.60467837E-01
  0.24729220E+00  0.49894727E+00  0.60628548E-01
  0.50379605E+00  0.49891568E+00  0.60692701E-01
  0.35715688E+00  0.85515806E-01  0.27943993E+00
  0.82652142E+00  0.89912342E-01  0.28512357E+00
  0.32078698E+00  0.60312490E+00  0.28221128E+00
  0.66181552E+00  0.11229927E+00  0.55545886E+00
  0.56109293E+00  0.98495165E+00  0.45399248E+00
  0.48295200E+00  0.76064292E+00  0.45145442E+00
  0.10462802E+00  0.99444121E+00  0.46480247E+00
  0.63381771E-03  0.30086807E+00  0.31531913E+00
  0.40422085E+00  0.12711350E+00  0.52847964E+00
  0.93097483E+00  0.67988670E+00  0.28356418E+00
  0.16013353E+00  0.79083627E+00  0.34986097E+00
  0.63584329E+00  0.82949167E+00  0.36218191E+00
  0.90574840E+00  0.30556559E+00  0.45462695E+00
  0.39189574E+00  0.50905593E+00  0.49814856E+00
  0.96596326E+00  0.81400936E+00  0.57624257E+00
  0.67365361E+00  0.59655309E+00  0.51205149E+00
  0.84035843E+00  0.93570780E+00  0.35705382E+00
  0.84941514E+00  0.93923965E+00  0.43635443E+00
  0.32420428E+00  0.58542348E+00  0.42140400E+00
  0.40386510E-01  0.53580778E+00  0.35185331E+00
  0.55016198E+00  0.69842307E+00  0.30564328E+00
  0.13790352E+00  0.33582354E+00  0.48697524E+00
  0.25329521E-01  0.62161163E+00  0.42495100E+00
  0.72283564E+00  0.75860351E+00  0.62264145E+00
  0.20283717E+00  0.81363036E+00  0.54053588E+00
  0.32922884E+00  0.31039196E+00  0.41432916E+00
  0.15810689E-01  0.10675658E+00  0.37314811E+00
  0.69497397E+00  0.43226652E+00  0.34561971E+00
  0.68724043E+00  0.31348306E+00  0.49789115E+00
  0.92568259E+00  0.61263368E+00  0.53176685E+00
  0.47957261E+00  0.85113417E+00  0.56689390E+00
  0.73242335E+00  0.56241392E+00  0.41152265E+00
  0.34080062E+00  0.84213345E-01  0.36908524E+00
  0.65314917E+00  0.18158933E+00  0.57678939E+00
  0.55052061E+00  0.13789334E+00  0.55126806E+00
  0.51692173E+00  0.19680271E-01  0.48113178E+00
  0.66217399E+00  0.98173870E+00  0.45362603E+00
  0.36826169E+00  0.83338979E+00  0.45369925E+00
  0.53136762E+00  0.82769879E+00  0.44661519E+00
  0.53481625E-01  0.11076191E+00  0.46877538E+00
  0.12038650E+00  0.94291121E+00  0.49078979E+00
  0.94062988E-02  0.21631700E+00  0.33600114E+00
  0.36397484E-01  0.37098079E+00  0.32695912E+00
  0.30149560E+00  0.18669760E+00  0.51944823E+00
  0.41628660E+00  0.23765607E-01  0.53663998E+00
  0.94803419E+00  0.66302894E+00  0.31390479E+00
  0.86826612E+00  0.96582630E+00  0.33283818E+00
  0.65809093E-01  0.78378245E+00  0.35468639E+00
  0.19698989E+00  0.75326829E+00  0.32235563E+00
  0.53394877E+00  0.92761614E+00  0.37123394E+00
  0.66952276E+00  0.74090360E+00  0.38082902E+00
  0.85295935E+00  0.40086272E+00  0.43707059E+00
  0.81718964E+00  0.28223918E+00  0.46406514E+00
  0.33840462E+00  0.59309287E+00  0.51794461E+00
  0.35737261E+00  0.57434890E+00  0.47171541E+00
  0.88066322E+00  0.91015515E+00  0.56406809E+00
  0.96799616E+00  0.73082841E+00  0.55802362E+00
  0.59423972E+00  0.65512264E+00  0.49077016E+00
  0.70077560E+00  0.48176330E+00  0.51055465E+00
  0.76855440E+00  0.88946883E+00  0.35276704E+00
  0.67344056E+00  0.14932706E+00  0.32399226E+00
  0.84746511E+00  0.95141086E+00  0.40607905E+00
  0.90898998E+00  0.98505711E+00  0.44809186E+00
  0.31424416E+00  0.66107998E+00  0.39925392E+00
  0.21290016E+00  0.60689383E+00  0.42205055E+00
  0.16009936E+00  0.47641241E+00  0.34865384E+00
  0.17274141E-01  0.57495946E+00  0.38145513E+00
  0.56738926E+00  0.76055250E+00  0.32633518E+00
  0.59683107E+00  0.59229482E+00  0.31870288E+00
  0.51021363E-01  0.31654077E+00  0.47788913E+00
  0.21545086E+00  0.30335125E+00  0.46426149E+00
  0.94827850E+00  0.72964570E+00  0.43249046E+00
  0.48720654E-01  0.54654370E+00  0.44598724E+00
  0.79494431E+00  0.79085937E+00  0.61327614E+00
  0.76808080E+00  0.65442743E+00  0.61200723E+00
  0.26182068E+00  0.85639739E+00  0.55414018E+00
  0.11659343E+00  0.81761410E+00  0.55904899E+00
  0.43179841E+00  0.21241050E+00  0.42552414E+00
  0.34479550E+00  0.40102136E+00  0.40910481E+00
  0.88257897E-01  0.11431284E+00  0.39345851E+00
  0.73598262E-01  0.98991900E+00  0.36792626E+00
  0.65222914E+00  0.36265263E+00  0.33968198E+00
  0.78876476E+00  0.39261349E+00  0.32750795E+00
  0.57274944E+00  0.37678942E+00  0.49059424E+00
  0.69837187E+00  0.22320237E+00  0.51404610E+00
  0.82828762E+00  0.61690212E+00  0.52143594E+00
  0.55486927E-02  0.53829449E+00  0.51231868E+00
  0.55948183E+00  0.84367021E+00  0.58646375E+00
  0.54640102E+00  0.77117876E+00  0.54948820E+00
  0.62333103E+00  0.61875413E+00  0.42323085E+00
  0.71516131E+00  0.50954895E+00  0.38755023E+00
  0.34415406E+00  0.16209557E+00  0.38509344E+00
  0.36816624E+00  0.10979578E+00  0.34311114E+00
  0.45650351E+00  0.28899062E+00  0.30495969E+00
  0.31837798E+00  0.34817614E+00  0.31731236E+00
  0.56731747E+00  0.23206349E+00  0.33356464E+00
  0.00000000E+00  0.00000000E+00  0.00000000E+00
  0.00000000E+00  0.00000000E+00  0.00000000E+00
  0.00000000E+00  0.00000000E+00  0.00000000E+00
  0.00000000E+00  0.00000000E+00  0.00000000E+00
  0.00000000E+00  0.00000000E+00  0.00000000E+00
  0.00000000E+00  0.00000000E+00  0.00000000E+00
  0.00000000E+00  0.00000000E+00  0.00000000E+00
  0.00000000E+00  0.00000000E+00  0.00000000E+00
  0.00000000E+00  0.00000000E+00  0.00000000E+00
  0.00000000E+00  0.00000000E+00  0.00000000E+00
  0.00000000E+00  0.00000000E+00  0.00000000E+00
  0.00000000E+00  0.00000000E+00  0.00000000E+00
  0.00000000E+00  0.00000000E+00  0.00000000E+00
  0.00000000E+00  0.00000000E+00  0.00000000E+00
  0.00000000E+00  0.00000000E+00  0.00000000E+00
  0.00000000E+00  0.00000000E+00  0.00000000E+00
  0.00000000E+00  0.00000000E+00  0.00000000E+00
  0.00000000E+00  0.00000000E+00  0.00000000E+00
  0.00000000E+00  0.00000000E+00  0.00000000E+00
  0.00000000E+00  0.00000000E+00  0.00000000E+00
  0.00000000E+00  0.00000000E+00  0.00000000E+00
  0.00000000E+00  0.00000000E+00  0.00000000E+00
  0.00000000E+00  0.00000000E+00  0.00000000E+00
  0.00000000E+00  0.00000000E+00  0.00000000E+00
  0.00000000E+00  0.00000000E+00  0.00000000E+00
  0.00000000E+00  0.00000000E+00  0.00000000E+00
  0.00000000E+00  0.00000000E+00  0.00000000E+00
  0.00000000E+00  0.00000000E+00  0.00000000E+00
  0.00000000E+00  0.00000000E+00  0.00000000E+00
  0.00000000E+00  0.00000000E+00  0.00000000E+00
  0.00000000E+00  0.00000000E+00  0.00000000E+00
  0.00000000E+00  0.00000000E+00  0.00000000E+00
  0.00000000E+00  0.00000000E+00  0.00000000E+00
  0.00000000E+00  0.00000000E+00  0.00000000E+00
  0.00000000E+00  0.00000000E+00  0.00000000E+00
  0.00000000E+00  0.00000000E+00  0.00000000E+00
  0.00000000E+00  0.00000000E+00  0.00000000E+00
  0.00000000E+00  0.00000000E+00  0.00000000E+00
  0.00000000E+00  0.00000000E+00  0.00000000E+00
  0.00000000E+00  0.00000000E+00  0.00000000E+00
  0.00000000E+00  0.00000000E+00  0.00000000E+00
  0.00000000E+00  0.00000000E+00  0.00000000E+00
  0.00000000E+00  0.00000000E+00  0.00000000E+00
  0.00000000E+00  0.00000000E+00  0.00000000E+00