Ag                                      
   1.00000000000000     
    11.6089000000000002    0.0000000000000000    0.0000000000000007
    -5.8044499999999992   10.0536023099931704    0.0000000000000007
     0.0000000000000000    0.0000000000000000   17.1090000000000018
   Ag   H 
    64     1
Selective dynamics
Direct
  0.0000000000000000  0.0000000000000000  0.0000000000000000   F   F   F
  0.1666700000000034  0.0833299999999966  0.1385000000000005   F   F   F
  0.0829969971878693  0.1658204159342989  0.2734128684745517   T   T   T
 -0.0001580289113252 -0.0006195228826849  0.4118227721260601   T   T   T
  0.2500000000000000  0.0000000000000000  0.0000000000000000   F   F   F
  0.4166700000000034  0.0833299999999966  0.1385000000000005   F   F   F
  0.3334126380579650  0.1664040078999491  0.2731048946774888   T   T   T
  0.2496198253887638 -0.0009973324396728  0.4114517526202566   T   T   T
  0.5000000000000000  0.0000000000000000  0.0000000000000000   F   F   F
  0.6666667000000004  0.0833299999999966  0.1385000000000005   F   F   F
  0.5831163138449013  0.1661607974551406  0.2730460868710672   T   T   T
  0.5011165257037918  0.0019833900230483  0.4117050884513492   T   T   T
  0.7500000000000000  0.0000000000000000  0.0000000000000000   F   F   F
  0.9166700000000034  0.0833299999999966  0.1385000000000005   F   F   F
  0.8330819188532641  0.1664028258343343  0.2730637494091583   T   T   T
  0.7495802025031689 -0.0010079441696113  0.4114220821065775   T   T   T
  0.0000000000000000  0.2500000000000000  0.0000000000000000   F   F   F
  0.1666700000000034  0.3333332999999996  0.1385000000000005   F   F   F
  0.0842124922893843  0.4169125113774170  0.2738526483081032   T   T   T
  0.0001453076431129  0.2495735090530659  0.4114460204897702   T   T   T
  0.2500000000000000  0.2500000000000000  0.0000000000000000   F   F   F
  0.4166700000000034  0.3333332999999996  0.1385000000000005   F   F   F
  0.3328418094045867  0.4169090927159245  0.2738117278051371   T   T   T
  0.2496228085589725  0.2496203109842991  0.4114621533226752   T   T   T
  0.5000000000000000  0.2500000000000000  0.0000000000000000   F   F   F
  0.6666667000000004  0.3333332999999996  0.1385000000000005   F   F   F
  0.5831113107814869  0.4163894339594483  0.2730364937439715   T   T   T
  0.4992502412892725  0.2490810330464336  0.4119512847148772   T   T   T
  0.7500000000000000  0.2500000000000000  0.0000000000000000   F   F   F
  0.9166700000000034  0.3333332999999996  0.1385000000000005   F   F   F
  0.8334141010765442  0.4164170096124093  0.2730407897338430   T   T   T
  0.7500517967861436  0.2490593198544681  0.4119767339611511   T   T   T
  0.0000000000000000  0.5000000000000000  0.0000000000000000   F   F   F
  0.1666700000000034  0.5833299999999966  0.1385000000000005   F   F   F
  0.0843101954993757  0.6664452806101793  0.2738207238843858   T   T   T
 -0.0029016045330925  0.4980299204118159  0.4117252575860073   T   T   T
  0.2500000000000000  0.5000000000000000  0.0000000000000000   F   F   F
  0.4166700000000034  0.5833299999999966  0.1385000000000005   F   F   F
  0.3331860381067078  0.6661087136203352  0.2718512302971915   T   T   T
  0.2491097871186181  0.4979085920204877  0.4143959777566308   T   T   T
  0.5000000000000000  0.5000000000000000  0.0000000000000000   F   F   F
  0.6666667000000004  0.5833299999999966  0.1385000000000005   F   F   F
  0.5823442859184397  0.6664783266168862  0.2737989805272870   T   T   T
  0.5011960814891689  0.4980209374821908  0.4117901051226908   T   T   T
  0.7500000000000000  0.5000000000000000  0.0000000000000000   F   F   F
  0.9166700000000034  0.5833299999999966  0.1385000000000005   F   F   F
  0.8331344548438243  0.6661373094202661  0.2731018738300499   T   T   T
  0.7500499758981506  0.4998859149914598  0.4118784527915840   T   T   T
  0.0000000000000000  0.7500000000000000  0.0000000000000000   F   F   F
  0.1666700000000034  0.8333299999999966  0.1385000000000005   F   F   F
  0.0830866859810381  0.9163786269712108  0.2732967996733525   T   T   T
  0.0002201353120218  0.7496036857066585  0.4114253938438266   T   T   T
  0.2500000000000000  0.7500000000000000  0.0000000000000000   F   F   F
  0.4166700000000034  0.8333299999999966  0.1385000000000005   F   F   F
  0.3328820257445516  0.9151175923567235  0.2738706308958515   T   T   T
  0.2491466925759534  0.7497411533160918  0.4142572582652903   T   T   T
  0.5000000000000000  0.7500000000000000  0.0000000000000000   F   F   F
  0.6666667000000004  0.8333299999999966  0.1385000000000005   F   F   F
  0.5824437215397334  0.9151258811341996  0.2738830757378485   T   T   T
  0.5009667378942586  0.7497598792823605  0.4143221927951754   T   T   T
  0.7500000000000000  0.7500000000000000  0.0000000000000000   F   F   F
  0.9166700000000034  0.8333299999999966  0.1385000000000005   F   F   F
  0.8335472900627189  0.9164398629693948  0.2733096797291777   T   T   T
  0.7495306714391451  0.7495909307280804  0.4113771036695160   T   T   T
  0.3329391599248241  0.6652781683683685  0.4671475820496199   T   T   T
 
  0.00000000E+00  0.00000000E+00  0.00000000E+00
  0.00000000E+00  0.00000000E+00  0.00000000E+00
  0.00000000E+00  0.00000000E+00  0.00000000E+00
  0.00000000E+00  0.00000000E+00  0.00000000E+00
  0.00000000E+00  0.00000000E+00  0.00000000E+00
  0.00000000E+00  0.00000000E+00  0.00000000E+00
  0.00000000E+00  0.00000000E+00  0.00000000E+00
  0.00000000E+00  0.00000000E+00  0.00000000E+00
  0.00000000E+00  0.00000000E+00  0.00000000E+00
  0.00000000E+00  0.00000000E+00  0.00000000E+00
  0.00000000E+00  0.00000000E+00  0.00000000E+00
  0.00000000E+00  0.00000000E+00  0.00000000E+00
  0.00000000E+00  0.00000000E+00  0.00000000E+00
  0.00000000E+00  0.00000000E+00  0.00000000E+00
  0.00000000E+00  0.00000000E+00  0.00000000E+00
  0.00000000E+00  0.00000000E+00  0.00000000E+00
  0.00000000E+00  0.00000000E+00  0.00000000E+00
  0.00000000E+00  0.00000000E+00  0.00000000E+00
  0.00000000E+00  0.00000000E+00  0.00000000E+00
  0.00000000E+00  0.00000000E+00  0.00000000E+00
  0.00000000E+00  0.00000000E+00  0.00000000E+00
  0.00000000E+00  0.00000000E+00  0.00000000E+00
  0.00000000E+00  0.00000000E+00  0.00000000E+00
  0.00000000E+00  0.00000000E+00  0.00000000E+00
  0.00000000E+00  0.00000000E+00  0.00000000E+00
  0.00000000E+00  0.00000000E+00  0.00000000E+00
  0.00000000E+00  0.00000000E+00  0.00000000E+00
  0.00000000E+00  0.00000000E+00  0.00000000E+00
  0.00000000E+00  0.00000000E+00  0.00000000E+00
  0.00000000E+00  0.00000000E+00  0.00000000E+00
  0.00000000E+00  0.00000000E+00  0.00000000E+00
  0.00000000E+00  0.00000000E+00  0.00000000E+00
  0.00000000E+00  0.00000000E+00  0.00000000E+00
  0.00000000E+00  0.00000000E+00  0.00000000E+00
  0.00000000E+00  0.00000000E+00  0.00000000E+00
  0.00000000E+00  0.00000000E+00  0.00000000E+00
  0.00000000E+00  0.00000000E+00  0.00000000E+00
  0.00000000E+00  0.00000000E+00  0.00000000E+00
  0.00000000E+00  0.00000000E+00  0.00000000E+00
  0.00000000E+00  0.00000000E+00  0.00000000E+00
  0.00000000E+00  0.00000000E+00  0.00000000E+00
  0.00000000E+00  0.00000000E+00  0.00000000E+00
  0.00000000E+00  0.00000000E+00  0.00000000E+00
  0.00000000E+00  0.00000000E+00  0.00000000E+00
  0.00000000E+00  0.00000000E+00  0.00000000E+00
  0.00000000E+00  0.00000000E+00  0.00000000E+00
  0.00000000E+00  0.00000000E+00  0.00000000E+00
  0.00000000E+00  0.00000000E+00  0.00000000E+00
  0.00000000E+00  0.00000000E+00  0.00000000E+00
  0.00000000E+00  0.00000000E+00  0.00000000E+00
  0.00000000E+00  0.00000000E+00  0.00000000E+00
  0.00000000E+00  0.00000000E+00  0.00000000E+00
  0.00000000E+00  0.00000000E+00  0.00000000E+00
  0.00000000E+00  0.00000000E+00  0.00000000E+00
  0.00000000E+00  0.00000000E+00  0.00000000E+00
  0.00000000E+00  0.00000000E+00  0.00000000E+00
  0.00000000E+00  0.00000000E+00  0.00000000E+00
  0.00000000E+00  0.00000000E+00  0.00000000E+00
  0.00000000E+00  0.00000000E+00  0.00000000E+00
  0.00000000E+00  0.00000000E+00  0.00000000E+00
  0.00000000E+00  0.00000000E+00  0.00000000E+00
  0.00000000E+00  0.00000000E+00  0.00000000E+00
  0.00000000E+00  0.00000000E+00  0.00000000E+00
  0.00000000E+00  0.00000000E+00  0.00000000E+00
  0.00000000E+00  0.00000000E+00  0.00000000E+00
