 Ni_CO_COH(ER)
   1.000
    9.8291997910000006    0.0000000000000000    0.0000000000000000
    4.9145998955000003    8.5123367178000002    0.0000000000000000
    0.0000000000000000    0.0000000000000000   30.7147998810000011
   Ni   O    H    C    O 
   64   30   60    1    1
Selective Dynamics
Direct
    0.0683271210591715    0.0787981370736904    0.1179751181229313    T  T  T
    0.3216157396167494    0.0764554009144421    0.1176896346499455    T  T  T
    0.3140487688807223    0.8367176361408696    0.1166298348572429    T  T  T
    0.5809975492911280    0.3133039909839722    0.1176769432370738    T  T  T
    0.3187386999708428    0.5790180363705416    0.1194158187060949    T  T  T
    0.3150772081236363    0.3397133276810492    0.1217248294913375    T  T  T
    0.8323786418894437    0.0658748552585075    0.1207776266112262    T  T  T
    0.5655295333709160    0.0870220941055477    0.1166133995210250    T  T  T
    0.8293452681198359    0.3248992205031481    0.1221090224085117    T  T  T
    0.5792197218882014    0.5724132343434531    0.1262064857416674    T  T  T
    0.0700074941987144    0.8222100633910039    0.1173000849350189    T  T  T
    0.5674142517469422    0.8372969868945445    0.1172494847739386    T  T  T
    0.0829094115852814    0.3208432971729559    0.1205114853215959    T  T  T
    0.8226836838741032    0.5743576555206734    0.1176808270659811    T  T  T
    0.0684455502624851    0.5809198672014488    0.1210714702456602    T  T  T
    0.8251708163109973    0.8196831437825929    0.1194584207257378    T  T  T
    0.1553058202826033    0.1593580977410901    0.1858725204559439    T  T  T
    0.1582915361748333    0.9064834709507479    0.1816275852602475    T  T  T
    0.4119373758836045    0.1506726661489586    0.1828206790249499    T  T  T
    0.4002195605920859    0.9070921006244789    0.1816585551485514    T  T  T
    0.4044213614240533    0.4086100162600088    0.1857565129662041    T  T  T
    0.4004058799680538    0.6667595733079985    0.1839741828835071    T  T  T
    0.8991906754924951    0.1539475335866922    0.1869783900368822    T  T  T
    0.6452537941966904    0.1699684605279877    0.1880430654670071    T  T  T
    0.6627091829872923    0.4098351269622029    0.1881284361498412    T  T  T
    0.1600534013499490    0.6545518752646310    0.1922934416171163    T  T  T
    0.9098477431315960    0.4143951195666822    0.1856248048927030    T  T  T
    0.6532137602994289    0.6672090356903803    0.1857291790437612    T  T  T
    0.9121948096082414    0.8957027089521136    0.1843574960349980    T  T  T
    0.6576545107396791    0.9118889647635479    0.1826224052792294    T  T  T
    0.1622934759258334    0.4056891798602893    0.1905220060644881    T  T  T
    0.9158850346675240    0.6448502728864342    0.1894236031125115    T  T  T
    0.2325140080920402    0.9916401309325020    0.2502470255683228    T  T  T
    0.5034835962665686    0.2349222189184957    0.2521109599125707    T  T  T
    0.5012332106919026    0.4772209714839846    0.2497304940372688    T  T  T
    0.2484490625567210    0.2326546183141285    0.2524598138406540    T  T  T
    0.9862453926926790    0.2437819692645241    0.2536260693249201    T  T  T
    0.7532011340253782    0.2209628229628887    0.2563743252166157    T  T  T
    0.4894785059125343    0.7332278177389093    0.2503769996208532    T  T  T
    0.2643073660004417    0.7293088654870762    0.2640926979059200    T  T  T
    0.4853511710036048    0.9893283362699876    0.2494776756125913    T  T  T
    0.9998749300875874    0.9796825368698872    0.2551822794914951    T  T  T
    0.2422179095829549    0.4965407869578540    0.2568451264608694    T  T  T
    0.7411057774230086    0.4893216240936524    0.2542229135390405    T  T  T
    0.7576048016588958    0.9754242027776086    0.2495843352802670    T  T  T
    0.0014906850432314    0.7382484304900717    0.2544125355914359    T  T  T
    0.7407631281583633    0.7410495539716306    0.2602636537690405    T  T  T
    0.9966211891471812    0.4840208046350928    0.2530374787318732    T  T  T
    0.2361667233175406    0.9877072312803906    0.0522892674104098    F  F  F
    0.4802395027625732    0.2524398979955790    0.0506391691200585    F  F  F
    0.4907382444929735    0.4956443310171841    0.0541789216540588    F  F  F
    0.2401076574540565    0.2458121386563163    0.0493290011563716    F  F  F
    0.9934708383661299    0.2453821967629877    0.0564661577924080    F  F  F
    0.7317016797967639    0.2438956988871072    0.0518799038760106    F  F  F
    0.4853813996772203    0.7537064658345903    0.0543314259571838    F  F  F
    0.2356271429367791    0.7415193612531260    0.0519830490367423    F  F  F
    0.4902007617177628    0.0025063983267331    0.0508367850764829    F  F  F
    0.9814376837560733    0.9892124611041742    0.0517735421330182    F  F  F
    0.2235508364489730    0.5028873135558993    0.0526244390204929    F  F  F
    0.7323375824278997    0.4970394707250247    0.0558819279621708    F  F  F
    0.7462494387972802    0.9829122711630170    0.0558731160388049    F  F  F
    0.9925517548435713    0.7454775340951950    0.0503632625919424    F  F  F
    0.7308646487822463    0.7491979881111533    0.0489553083021053    F  F  F
    0.9880279817557921    0.4904417742472280    0.0551976059780562    F  F  F
    0.0893656698718557    0.9120676211572762    0.5581398616981684    T  T  T
    0.6746197373614053    0.0593526540755205    0.6328952275626584    T  T  T
    0.4781942984227694    0.7996189793067446    0.3547485068610174    T  T  T
    0.9600424209982321    0.3471064770665721    0.4214674867177396    T  T  T
    0.4302586399315889    0.0850826436250784    0.3512371072393409    T  T  T
    0.1230765244163225    0.6218317536098534    0.5620738978205669    T  T  T
    0.6636563141341053    0.6379914616960263    0.4202231546180323    T  T  T
    0.1608762807295352    0.6276215051206966    0.3764477960932125    T  T  T
    0.7726258588222653    0.7143313648046292    0.3247393972498753    T  T  T
    0.1683088947381879    0.9665407149712577    0.4534098502702248    T  T  T
    0.0225608607493089    0.0447194149496667    0.3703954045675342    T  T  T
    0.3594619980494922    0.2627719473003713    0.5253164958493330    T  T  T
    0.3473059994484207    0.1781389395390613    0.6143768874749963    T  T  T
    0.5375212433815706    0.4772996958588366    0.4401489700300178    T  T  T
    0.6236353386767459    0.6372565945414238    0.5527213673976862    T  T  T
    0.2376782148474954    0.6336350316508871    0.4590827139711922    T  T  T
    0.6904575634312450    0.8968322760318007    0.4596334474199127    T  T  T
    0.8726856906340585    0.6498477894771675    0.5198072671459143    T  T  T
    0.0911552713925577    0.4402456957255632    0.6414141048418489    T  T  T
    0.5491303393493169    0.4062413823386658    0.5297525514916370    T  T  T
    0.8514827300808190    0.4555630348385317    0.6110143576662728    T  T  T
    0.3586736728442944    0.9401843752981287    0.5700956434480272    T  T  T
    0.8523684408608684    0.8583126674466848    0.3772931889989478    T  T  T
    0.8257611905545348    0.1879975881258671    0.5891347966514402    T  T  T
    0.3841024742041986    0.0091818878007247    0.4868479873156316    T  T  T
    0.8674087688975387    0.0632838565856426    0.4897191478502563    T  T  T
    0.6046506383096927    0.2528781161732782    0.3739221976501238    T  T  T
    0.0589051622371377    0.3179910931000507    0.4989423498366151    T  T  T
    0.2631418246932401    0.7710632655568574    0.3240438417820653    T  T  T
    0.1435255484361435    0.3435850214197898    0.3553693507050197    T  T  T
    0.1816664632583485    0.9254979520795478    0.5655304606464856    T  T  T
    0.1256380013965195    0.7967743828046323    0.5581824332657757    T  T  T
    0.6938166198286999    0.0367097259990259    0.6645632450727497    T  T  T
    0.5621606216545417    0.1044492352916606    0.6297418795923734    T  T  T
    0.4550294723886052    0.9139459588482849    0.3529892032630186    T  T  T
    0.3871102688297328    0.7897849525368918    0.3423060076730835    T  T  T
    0.8541508848014029    0.4455087382912854    0.4207457956108887    T  T  T
    0.0206971569470599    0.3487037464046605    0.3958490347125248    T  T  T
    0.3221152147938091    0.1622516984303748    0.3595550523977113    T  T  T
    0.4348416454611582    0.1265349476640156    0.3215244861800217    T  T  T
    0.1189008582911350    0.5777299331882370    0.5915551017923605    T  T  T
    0.0141582752167755    0.6530663670542103    0.5509786447045447    T  T  T
    0.6771763152888756    0.7101600213043651    0.4385690487940624    T  T  T
    0.5907814601339334    0.7125928840633347    0.3977127155226368    T  T  T
    0.0603602966878508    0.7272675383578826    0.3813060557115966    T  T  T
    0.2029194170511905    0.6087671351489149    0.4059751387399906    T  T  T
    0.6634718055236238    0.7363168592827640    0.3316333789224349    T  T  T
    0.8014526388358821    0.7828767350454992    0.3454126713946465    T  T  T
    0.0630364800246081    0.0021446052161365    0.4670732394052272    T  T  T
    0.2098211729505265    0.8551520244200728    0.4560703517792028    T  T  T
    0.8867121714627874    0.2845243691345702    0.3528257459479827    T  T  T
    0.0939437056209258    0.0200731500934278    0.3948180686813278    T  T  T
    0.4085658437143684    0.3285274375626330    0.5279090266177918    T  T  T
    0.2474661826481353    0.3329522926054565    0.5214725543866798    T  T  T
    0.2476290390127210    0.2659121785685374    0.6282386451982065    T  T  T
    0.3494730519933613    0.2137668209870716    0.5849663696253646    T  T  T
    0.5879294290514476    0.5453331203306917    0.4333948008171501    T  T  T
    0.5708490133344506    0.3983705157471916    0.4163017584691998    T  T  T
    0.5367533168967720    0.7442562549375499    0.5607933120112925    T  T  T
    0.5806139978882481    0.5653982426650974    0.5472620451748911    T  T  T
    0.3572406069196605    0.5564794309350315    0.4556138180170266    T  T  T
    0.2122968408922113    0.5976107606711121    0.4860936242150063    T  T  T
    0.5767377119372620    0.9540753184192894    0.4691517247825929    T  T  T
    0.7566645614973171    0.8148408601169600    0.4823405897670745    T  T  T
    0.9405218387077710    0.5421651402941413    0.5082777289775111    T  T  T
    0.7830364955159583    0.6334976346662932    0.5356346573287043    T  T  T
    0.1010531580835225    0.4275233893360047    0.6731070186426932    T  T  T
    0.9876724412220841    0.4498700364685003    0.6323486355753725    T  T  T
    0.5560694829440833    0.4237194238743390    0.4963510653817431    T  T  T
    0.6526608879335808    0.3067239800860719    0.5351303282546345    T  T  T
    0.8414368803412572    0.3632135332315664    0.6077911953722774    T  T  T
    0.7622639499252917    0.5288630879683490    0.5925769498147279    T  T  T
    0.3820753120504011    0.9975674948121345    0.5927895707409875    T  T  T
    0.3818858378368712    0.9815084195523861    0.5434116334186664    T  T  T
    0.8688148993693224    0.9529027065027368    0.3719679345940879    T  T  T
    0.7645358629538423    0.9011654754782558    0.4014610985105573    T  T  T
    0.9109796609734352    0.0857114222004201    0.5823963440364425    T  T  T
    0.7523527911507754    0.1623081619325564    0.6076241265241170    T  T  T
    0.3444811559670140    0.1216295917791885    0.4965399018028887    T  T  T
    0.2949620788054748    0.0042164290677081    0.4750955456261128    T  T  T
    0.9089199186377330    0.9826718481189551    0.5108229683273962    T  T  T
    0.8116281870370406    0.0380071693017023    0.4682376017583511    T  T  T
    0.6078218493768575    0.2923136478270969    0.3461998275642412    T  T  T
    0.5341177766484979    0.2104142097575429    0.3723127522113688    T  T  T
    0.0368796726143913    0.3180474116054089    0.4671793131648507    T  T  T
    0.0471643165742548    0.2423409741295294    0.5163551045957847    T  T  T
    0.2410580324207112    0.6995582638211461    0.3463000812399439    T  T  T
    0.0975979187386412    0.9704433919473946    0.3480610073980617    T  T  T
    0.1131625478425936    0.3516543786093164    0.3243391101469682    T  T  T
    0.1427364014653035    0.4470928398504223    0.3579616586065106    T  T  T
    0.8188517016125090    0.3307711134848609    0.2925129151255392    T  T  T
    0.7937272932008567    0.3579459206714948    0.3350964693984111    T  T  T

 -0.14876692E-02  0.50942193E-03 -0.11206388E-02
 -0.22293032E-02  0.12977006E-02 -0.82252676E-03
 -0.13111004E-02  0.72097921E-03  0.31749689E-03
 -0.20872578E-02  0.18948895E-02  0.11410706E-02
 -0.70214584E-03  0.12252721E-02 -0.39036053E-03
 -0.24810721E-03  0.29970047E-02 -0.25033506E-02
  0.17897854E-02 -0.10230727E-02 -0.25128775E-02
  0.34346529E-02  0.21739937E-03  0.23044964E-02
 -0.62061533E-03 -0.85683499E-03  0.48935018E-03
  0.14736961E-02  0.92067587E-03  0.47927436E-02
  0.20605416E-02 -0.33974672E-02  0.13008705E-02
 -0.23838756E-02  0.40152215E-02  0.10213605E-02
 -0.22604257E-02  0.25709128E-02  0.18633362E-02
 -0.25368641E-02  0.17101874E-02 -0.96838781E-03
  0.40820482E-02 -0.24533867E-02 -0.73681657E-03
 -0.68278540E-03 -0.22686901E-02  0.19794340E-03
 -0.43848649E-03  0.73213022E-03 -0.70450446E-03
  0.36648892E-02 -0.18657670E-02  0.57684152E-02
 -0.31554166E-02 -0.15133043E-02 -0.28269721E-03
 -0.86206269E-04 -0.21575156E-02 -0.22553938E-03
  0.19581703E-02 -0.19947500E-02 -0.21642962E-02
 -0.21144567E-02  0.17510187E-03 -0.34358851E-02
  0.15919054E-02  0.18035792E-02  0.30763250E-03
  0.31850153E-02 -0.40432953E-04  0.18765804E-02
 -0.33766725E-02 -0.92595736E-03 -0.28396851E-02
 -0.13922359E-02  0.15163484E-02 -0.38523291E-02
 -0.61306766E-03  0.25615756E-02 -0.14490131E-02
  0.43073515E-02 -0.21709010E-02 -0.20452810E-04
  0.15019733E-02  0.33693373E-02  0.14987709E-02
 -0.30293752E-02  0.23512533E-04  0.15372988E-02
 -0.24342199E-02 -0.14037123E-02 -0.27420987E-02
 -0.36385659E-02 -0.45110249E-03 -0.32286702E-02
 -0.21912577E-03 -0.11849712E-02  0.47154792E-03
 -0.43186968E-02 -0.19031160E-02 -0.32568930E-03
  0.15773740E-02 -0.37004939E-02 -0.27347694E-02
  0.30902603E-02 -0.28646563E-02 -0.10457397E-02
 -0.66139829E-03  0.22939945E-02  0.70152186E-03
  0.37569458E-02 -0.68346354E-03  0.21356158E-02
  0.20662528E-03 -0.23457810E-02  0.30131736E-02
  0.25049422E-02  0.84441234E-03 -0.32483978E-03
  0.20161382E-02  0.30246043E-02  0.24383210E-02
 -0.18144785E-02  0.25504787E-02 -0.24636373E-03
 -0.26519969E-02 -0.11235742E-02  0.11325184E-02
  0.40095997E-03 -0.34548873E-02  0.91284569E-04
  0.45196154E-03 -0.34784183E-02  0.19686041E-02
  0.26720285E-03 -0.17582397E-02 -0.16827769E-02
  0.17979067E-02 -0.22557303E-02  0.10887143E-02
 -0.22257684E-02  0.11330063E-03 -0.17668616E-02
  0.14819466E-02 -0.24366220E-03 -0.18660051E-02
  0.29841360E-03  0.17042105E-02  0.14426873E-02
  0.27476001E-02 -0.25493427E-02 -0.18019859E-02
 -0.26976541E-02  0.25035306E-03 -0.17655681E-02
 -0.63772026E-03 -0.14556159E-02 -0.67624866E-03
 -0.27059507E-03  0.10052573E-02 -0.64087626E-03
 -0.25722646E-02  0.16526023E-03  0.28573705E-02
  0.62014099E-03 -0.12077999E-02 -0.15296449E-03
  0.16926231E-02  0.23247305E-02  0.34756646E-02
 -0.17742173E-02  0.12129273E-02  0.32482602E-02
  0.35363188E-02 -0.21642580E-02 -0.23618050E-02
 -0.60617538E-03 -0.68844303E-03 -0.35245093E-02
  0.74590875E-03  0.12043545E-02 -0.19461626E-02
  0.30588913E-02  0.38859595E-02  0.77594806E-04
  0.63645294E-04  0.15092625E-02 -0.49610018E-02
 -0.39753542E-02  0.46132798E-03  0.24806442E-02
 -0.16433863E-02  0.26803654E-02 -0.86313825E-03
  0.20172494E-02 -0.71907395E-02  0.22275980E-03
  0.25626107E-02  0.72681470E-02 -0.36423817E-02
 -0.64533618E-02  0.10641335E-02 -0.14507017E-02
 -0.15112025E-02 -0.14776117E-02  0.18016790E-02
 -0.31893303E-02  0.65483447E-02  0.45470727E-02
 -0.30823205E-02 -0.47138736E-03  0.19902592E-02
  0.11380533E-02  0.40171004E-02  0.28262238E-02
  0.10733259E-02 -0.36661618E-02 -0.64265010E-02
  0.13646513E-02  0.28420966E-02  0.74438455E-02
  0.45695008E-02  0.70616593E-02 -0.23188396E-02
  0.49232578E-02  0.18486380E-02  0.47068477E-02
  0.18205522E-02  0.12082482E-02 -0.36514900E-02
  0.38764100E-02 -0.70921627E-03  0.10798635E-02
  0.72925113E-03 -0.11045997E-02  0.25036837E-02
 -0.79115907E-02  0.51436717E-02 -0.62685075E-03
  0.20721632E-02  0.79019538E-03 -0.13335861E-02
  0.70749916E-02 -0.25637367E-02  0.30836962E-02
  0.59976215E-03 -0.36795434E-02  0.43300119E-02
  0.71591588E-03 -0.88929522E-04 -0.34693983E-02
 -0.18454384E-03 -0.13628833E-02 -0.11665744E-02
 -0.10371898E-01  0.57894574E-03 -0.63192327E-03
  0.29036848E-03  0.36565150E-02  0.17409027E-02
 -0.42837392E-03 -0.37984208E-02 -0.39245701E-03
 -0.18687256E-02 -0.65463583E-03 -0.20191888E-02
  0.25685587E-02 -0.72845531E-03  0.54402601E-02
 -0.29437329E-04 -0.18965142E-02  0.57945177E-02
 -0.97019542E-03  0.17372244E-03 -0.42252147E-02
 -0.63544541E-02  0.14181788E-02 -0.36232908E-03
 -0.13232243E-03 -0.32578715E-02 -0.18792816E-03
 -0.10995035E-01  0.11425344E-01 -0.72458030E-02
 -0.31098570E-01 -0.27508805E-02  0.17406659E-02
  0.19854700E-01 -0.14733633E-01  0.11168376E-01
  0.13983068E-01  0.99874099E-03 -0.26267919E-01
 -0.39919660E-02  0.38421190E-02 -0.93131768E-02
 -0.24630219E-01  0.30463498E-01  0.20400787E-01
 -0.37369935E-02  0.32941092E-01 -0.11028394E-01
  0.89106689E-02 -0.23427985E-01 -0.63390486E-02
  0.94031927E-02  0.11521982E-01  0.24725666E-01
  0.24392434E-01  0.22105860E-01  0.21209270E-01
  0.26769456E-02  0.16837366E-01  0.48816928E-02
  0.11905673E-01 -0.12983971E-02  0.13444244E-02
  0.95998875E-02  0.17592941E-01 -0.54764871E-02
  0.51434492E-02  0.84743009E-02 -0.30275207E-02
  0.18070807E-01 -0.84661496E-02  0.13342116E-01
  0.72787613E-02  0.15931634E-01 -0.34055164E-02
 -0.71110405E-02 -0.65554443E-02  0.49030256E-03
 -0.54526477E-02  0.24196580E-01  0.10020869E-01
  0.12922600E-02 -0.74670023E-02  0.11197303E-01
 -0.29565072E-02  0.21527592E-01 -0.24889324E-01
  0.11667909E-01  0.75006499E-02 -0.41869472E-02
  0.24376794E-02 -0.18998803E-01 -0.25889892E-02
 -0.70078770E-02 -0.97980335E-02  0.49320575E-03
  0.22311332E-03  0.29750153E-02  0.14482817E-01
 -0.26552124E-01  0.10341333E-01 -0.21454807E-01
 -0.11037950E-01 -0.25669439E-01  0.34437225E-01
  0.18343672E-01 -0.12305136E-01  0.18780659E-02
  0.32104722E-01  0.48614588E-03 -0.33144337E-02
  0.40701779E-01 -0.11896861E-01 -0.92356113E-02
  0.74391097E-02  0.67542196E-02  0.17903483E-01
  0.50478698E-02 -0.16701393E-01  0.24280928E-01
 -0.10550690E-01  0.12522936E-01  0.30925611E-02
 -0.36241428E-02  0.15706787E-01  0.17234084E-01
  0.12017323E-01  0.25445489E-02  0.18543682E-01
  0.22307013E-01  0.17588664E-01 -0.15251684E-01
 -0.14004101E-01  0.13694413E-01  0.13524878E-01
 -0.28296141E-02 -0.35563246E-02  0.14314843E-01
  0.10367137E-01  0.12145162E-01 -0.40134384E-02
  0.44051203E-02 -0.61423609E-02 -0.15142199E-01
 -0.16546728E-01 -0.16034697E-01 -0.10032462E-02
 -0.14462592E-01  0.25034918E-01  0.93041237E-02
  0.53817471E-02  0.97540420E-02 -0.14330562E-01
 -0.16232998E-01 -0.77663978E-02 -0.15795067E-01
 -0.17124999E-02  0.20844734E-01  0.30635412E-01
  0.21240771E-01  0.98016134E-02  0.82878554E-02
 -0.18509803E-01  0.47012708E-02  0.19138375E-01
 -0.25239271E-01  0.19512206E-01  0.25065985E-02
 -0.37354794E-03 -0.40291036E-02  0.64447171E-02
  0.21897615E-01  0.12565707E-01  0.82739305E-02
  0.35467899E-01  0.14087171E-01 -0.59376135E-02
 -0.58419271E-02  0.50916473E-02 -0.85754496E-02
 -0.45777138E-02 -0.56556807E-02  0.41631079E-01
 -0.68222514E-03 -0.72103979E-02  0.12011801E-02
  0.20337286E-02 -0.31430822E-01 -0.59133528E-02
  0.54352140E-01  0.22896464E-01  0.31343314E-01
  0.98131966E-02 -0.95052298E-02  0.10058234E-01
  0.11258938E-01 -0.11855830E-01 -0.16673499E-02
 -0.71445537E-02  0.50771720E-02 -0.13805659E-01
 -0.15692338E-01 -0.56121440E-02  0.38885566E-02
  0.90798689E-02 -0.22895764E-01  0.27627719E-01
  0.27154357E-02 -0.57312570E-02 -0.93847263E-03
  0.52916388E-03 -0.29440977E-02 -0.42711525E-02
 
           1
   1.00000000000000     
  0.16985105E-01  0.28441246E-02  0.31228265E-02  0.14001630E-01
  0.68327121E-01  0.78798137E-01  0.11797512E+00
  0.32161574E+00  0.76455401E-01  0.11768963E+00
  0.31404877E+00  0.83671764E+00  0.11662983E+00
  0.58099755E+00  0.31330399E+00  0.11767694E+00
  0.31873870E+00  0.57901804E+00  0.11941582E+00
  0.31507721E+00  0.33971333E+00  0.12172483E+00
  0.83237864E+00  0.65874855E-01  0.12077763E+00
  0.56552953E+00  0.87022094E-01  0.11661340E+00
  0.82934527E+00  0.32489922E+00  0.12210902E+00
  0.57921972E+00  0.57241323E+00  0.12620649E+00
  0.70007494E-01  0.82221006E+00  0.11730008E+00
  0.56741425E+00  0.83729699E+00  0.11724948E+00
  0.82909412E-01  0.32084330E+00  0.12051149E+00
  0.82268368E+00  0.57435766E+00  0.11768083E+00
  0.68445550E-01  0.58091987E+00  0.12107147E+00
  0.82517082E+00  0.81968314E+00  0.11945842E+00
  0.15530582E+00  0.15935810E+00  0.18587252E+00
  0.15829154E+00  0.90648347E+00  0.18162759E+00
  0.41193738E+00  0.15067267E+00  0.18282068E+00
  0.40021956E+00  0.90709210E+00  0.18165856E+00
  0.40442136E+00  0.40861002E+00  0.18575651E+00
  0.40040588E+00  0.66675957E+00  0.18397418E+00
  0.89919068E+00  0.15394753E+00  0.18697839E+00
  0.64525379E+00  0.16996846E+00  0.18804307E+00
  0.66270918E+00  0.40983513E+00  0.18812844E+00
  0.16005340E+00  0.65455188E+00  0.19229344E+00
  0.90984774E+00  0.41439512E+00  0.18562480E+00
  0.65321376E+00  0.66720904E+00  0.18572918E+00
  0.91219481E+00  0.89570271E+00  0.18435750E+00
  0.65765451E+00  0.91188896E+00  0.18262241E+00
  0.16229348E+00  0.40568918E+00  0.19052201E+00
  0.91588503E+00  0.64485027E+00  0.18942360E+00
  0.23251401E+00  0.99164013E+00  0.25024703E+00
  0.50348360E+00  0.23492222E+00  0.25211096E+00
  0.50123321E+00  0.47722097E+00  0.24973049E+00
  0.24844906E+00  0.23265462E+00  0.25245981E+00
  0.98624539E+00  0.24378197E+00  0.25362607E+00
  0.75320113E+00  0.22096282E+00  0.25637433E+00
  0.48947851E+00  0.73322782E+00  0.25037700E+00
  0.26430737E+00  0.72930887E+00  0.26409270E+00
  0.48535117E+00  0.98932834E+00  0.24947768E+00
  0.99987493E+00  0.97968254E+00  0.25518228E+00
  0.24221791E+00  0.49654079E+00  0.25684513E+00
  0.74110578E+00  0.48932162E+00  0.25422291E+00
  0.75760480E+00  0.97542420E+00  0.24958434E+00
  0.14906850E-02  0.73824843E+00  0.25441254E+00
  0.74076313E+00  0.74104955E+00  0.26026365E+00
  0.99662119E+00  0.48402080E+00  0.25303748E+00
  0.23616672E+00  0.98770723E+00  0.52289267E-01
  0.48023950E+00  0.25243990E+00  0.50639169E-01
  0.49073824E+00  0.49564433E+00  0.54178922E-01
  0.24010766E+00  0.24581214E+00  0.49329001E-01
  0.99347084E+00  0.24538220E+00  0.56466158E-01
  0.73170168E+00  0.24389570E+00  0.51879904E-01
  0.48538140E+00  0.75370647E+00  0.54331426E-01
  0.23562714E+00  0.74151936E+00  0.51983049E-01
  0.49020076E+00  0.25063983E-02  0.50836785E-01
  0.98143768E+00  0.98921246E+00  0.51773542E-01
  0.22355084E+00  0.50288731E+00  0.52624439E-01
  0.73233758E+00  0.49703947E+00  0.55881928E-01
  0.74624944E+00  0.98291227E+00  0.55873116E-01
  0.99255175E+00  0.74547753E+00  0.50363263E-01
  0.73086465E+00  0.74919799E+00  0.48955308E-01
  0.98802798E+00  0.49044177E+00  0.55197606E-01
  0.89365670E-01  0.91206762E+00  0.55813986E+00
  0.67461974E+00  0.59352654E-01  0.63289523E+00
  0.47819430E+00  0.79961898E+00  0.35474851E+00
  0.96004242E+00  0.34710648E+00  0.42146749E+00
  0.43025864E+00  0.85082644E-01  0.35123711E+00
  0.12307652E+00  0.62183175E+00  0.56207390E+00
  0.66365631E+00  0.63799146E+00  0.42022315E+00
  0.16087628E+00  0.62762151E+00  0.37644780E+00
  0.77262586E+00  0.71433136E+00  0.32473940E+00
  0.16830889E+00  0.96654071E+00  0.45340985E+00
  0.22560861E-01  0.44719415E-01  0.37039540E+00
  0.35946200E+00  0.26277195E+00  0.52531650E+00
  0.34730600E+00  0.17813894E+00  0.61437689E+00
  0.53752124E+00  0.47729970E+00  0.44014897E+00
  0.62363534E+00  0.63725659E+00  0.55272137E+00
  0.23767821E+00  0.63363503E+00  0.45908271E+00
  0.69045756E+00  0.89683228E+00  0.45963345E+00
  0.87268569E+00  0.64984779E+00  0.51980727E+00
  0.91155271E-01  0.44024570E+00  0.64141410E+00
  0.54913034E+00  0.40624138E+00  0.52975255E+00
  0.85148273E+00  0.45556303E+00  0.61101436E+00
  0.35867367E+00  0.94018438E+00  0.57009564E+00
  0.85236844E+00  0.85831267E+00  0.37729319E+00
  0.82576119E+00  0.18799759E+00  0.58913480E+00
  0.38410247E+00  0.91818878E-02  0.48684799E+00
  0.86740877E+00  0.63283857E-01  0.48971915E+00
  0.60465064E+00  0.25287812E+00  0.37392220E+00
  0.58905162E-01  0.31799109E+00  0.49894235E+00
  0.26314182E+00  0.77106327E+00  0.32404384E+00
  0.14352555E+00  0.34358502E+00  0.35536935E+00
  0.18166646E+00  0.92549795E+00  0.56553046E+00
  0.12563800E+00  0.79677438E+00  0.55818243E+00
  0.69381662E+00  0.36709726E-01  0.66456325E+00
  0.56216062E+00  0.10444924E+00  0.62974188E+00
  0.45502947E+00  0.91394596E+00  0.35298920E+00
  0.38711027E+00  0.78978495E+00  0.34230601E+00
  0.85415088E+00  0.44550874E+00  0.42074580E+00
  0.20697157E-01  0.34870375E+00  0.39584903E+00
  0.32211521E+00  0.16225170E+00  0.35955505E+00
  0.43484165E+00  0.12653495E+00  0.32152449E+00
  0.11890086E+00  0.57772993E+00  0.59155510E+00
  0.14158275E-01  0.65306637E+00  0.55097864E+00
  0.67717632E+00  0.71016002E+00  0.43856905E+00
  0.59078146E+00  0.71259288E+00  0.39771272E+00
  0.60360297E-01  0.72726754E+00  0.38130606E+00
  0.20291942E+00  0.60876714E+00  0.40597514E+00
  0.66347181E+00  0.73631686E+00  0.33163338E+00
  0.80145264E+00  0.78287674E+00  0.34541267E+00
  0.63036480E-01  0.21446052E-02  0.46707324E+00
  0.20982117E+00  0.85515202E+00  0.45607035E+00
  0.88671217E+00  0.28452437E+00  0.35282575E+00
  0.93943706E-01  0.20073150E-01  0.39481807E+00
  0.40856584E+00  0.32852744E+00  0.52790903E+00
  0.24746618E+00  0.33295229E+00  0.52147255E+00
  0.24762904E+00  0.26591218E+00  0.62823865E+00
  0.34947305E+00  0.21376682E+00  0.58496637E+00
  0.58792943E+00  0.54533312E+00  0.43339480E+00
  0.57084901E+00  0.39837052E+00  0.41630176E+00
  0.53675332E+00  0.74425625E+00  0.56079331E+00
  0.58061400E+00  0.56539824E+00  0.54726205E+00
  0.35724061E+00  0.55647943E+00  0.45561382E+00
  0.21229684E+00  0.59761076E+00  0.48609362E+00
  0.57673771E+00  0.95407532E+00  0.46915172E+00
  0.75666456E+00  0.81484086E+00  0.48234059E+00
  0.94052184E+00  0.54216514E+00  0.50827773E+00
  0.78303650E+00  0.63349763E+00  0.53563466E+00
  0.10105316E+00  0.42752339E+00  0.67310702E+00
  0.98767244E+00  0.44987004E+00  0.63234864E+00
  0.55606948E+00  0.42371942E+00  0.49635107E+00
  0.65266089E+00  0.30672398E+00  0.53513033E+00
  0.84143688E+00  0.36321353E+00  0.60779120E+00
  0.76226395E+00  0.52886309E+00  0.59257695E+00
  0.38207531E+00  0.99756749E+00  0.59278957E+00
  0.38188584E+00  0.98150842E+00  0.54341163E+00
  0.86881490E+00  0.95290271E+00  0.37196793E+00
  0.76453586E+00  0.90116548E+00  0.40146110E+00
  0.91097966E+00  0.85711422E-01  0.58239634E+00
  0.75235279E+00  0.16230816E+00  0.60762413E+00
  0.34448116E+00  0.12162959E+00  0.49653990E+00
  0.29496208E+00  0.42164291E-02  0.47509555E+00
  0.90891992E+00  0.98267185E+00  0.51082297E+00
  0.81162819E+00  0.38007169E-01  0.46823760E+00
  0.60782185E+00  0.29231365E+00  0.34619983E+00
  0.53411778E+00  0.21041421E+00  0.37231275E+00
  0.36879673E-01  0.31804741E+00  0.46717931E+00
  0.47164317E-01  0.24234097E+00  0.51635510E+00
  0.24105803E+00  0.69955826E+00  0.34630008E+00
  0.97597919E-01  0.97044339E+00  0.34806101E+00
  0.11316255E+00  0.35165438E+00  0.32433911E+00
  0.14273640E+00  0.44709284E+00  0.35796166E+00
  0.81885170E+00  0.33077111E+00  0.29251292E+00
  0.79372729E+00  0.35794592E+00  0.33509647E+00
  0.00000000E+00  0.00000000E+00  0.00000000E+00
  0.00000000E+00  0.00000000E+00  0.00000000E+00
  0.00000000E+00  0.00000000E+00  0.00000000E+00
  0.00000000E+00  0.00000000E+00  0.00000000E+00
  0.00000000E+00  0.00000000E+00  0.00000000E+00
  0.00000000E+00  0.00000000E+00  0.00000000E+00
  0.00000000E+00  0.00000000E+00  0.00000000E+00
  0.00000000E+00  0.00000000E+00  0.00000000E+00
  0.00000000E+00  0.00000000E+00  0.00000000E+00
  0.00000000E+00  0.00000000E+00  0.00000000E+00
  0.00000000E+00  0.00000000E+00  0.00000000E+00
  0.00000000E+00  0.00000000E+00  0.00000000E+00
  0.00000000E+00  0.00000000E+00  0.00000000E+00
  0.00000000E+00  0.00000000E+00  0.00000000E+00
  0.00000000E+00  0.00000000E+00  0.00000000E+00
  0.00000000E+00  0.00000000E+00  0.00000000E+00
  0.00000000E+00  0.00000000E+00  0.00000000E+00
  0.00000000E+00  0.00000000E+00  0.00000000E+00
  0.00000000E+00  0.00000000E+00  0.00000000E+00
  0.00000000E+00  0.00000000E+00  0.00000000E+00
  0.00000000E+00  0.00000000E+00  0.00000000E+00
  0.00000000E+00  0.00000000E+00  0.00000000E+00
  0.00000000E+00  0.00000000E+00  0.00000000E+00
  0.00000000E+00  0.00000000E+00  0.00000000E+00
  0.00000000E+00  0.00000000E+00  0.00000000E+00
  0.00000000E+00  0.00000000E+00  0.00000000E+00
  0.00000000E+00  0.00000000E+00  0.00000000E+00
  0.00000000E+00  0.00000000E+00  0.00000000E+00
  0.00000000E+00  0.00000000E+00  0.00000000E+00
  0.00000000E+00  0.00000000E+00  0.00000000E+00
  0.00000000E+00  0.00000000E+00  0.00000000E+00
  0.00000000E+00  0.00000000E+00  0.00000000E+00
  0.00000000E+00  0.00000000E+00  0.00000000E+00
  0.00000000E+00  0.00000000E+00  0.00000000E+00
  0.00000000E+00  0.00000000E+00  0.00000000E+00
  0.00000000E+00  0.00000000E+00  0.00000000E+00
  0.00000000E+00  0.00000000E+00  0.00000000E+00
  0.00000000E+00  0.00000000E+00  0.00000000E+00
  0.00000000E+00  0.00000000E+00  0.00000000E+00
  0.00000000E+00  0.00000000E+00  0.00000000E+00
  0.00000000E+00  0.00000000E+00  0.00000000E+00
  0.00000000E+00  0.00000000E+00  0.00000000E+00
  0.00000000E+00  0.00000000E+00  0.00000000E+00