Rh                                      
   1.00000000000000     
    10.6386000000000003    0.0000000000000000    0.0000000000000007
    -5.3192999999999993    9.2132978607011307    0.0000000000000007
     0.0000000000000000    0.0000000000000000   21.5148000000000010
   Rh   H 
    64     1
Selective dynamics
Direct
  0.9999994000000001  0.0000005999999999  0.9987502999999975   F   F   F
  0.3333362999999991  0.1666669999999968  0.1014054999999985   F   F   F
  0.1668563100387601  0.3336335711026734  0.2013125435739269   T   T   T
  0.0001506331116730  0.0000771398949340  0.3036436615225568   T   T   T
  0.2499994000000001  0.0000005999999999  0.9987502999999975   F   F   F
  0.0833330000000032  0.1666669999999968  0.1014054999999985   F   F   F
  0.4167236385131687  0.3334754332712748  0.2012240111713766   T   T   T
  0.2501183866034538  0.0002263220506862  0.3037640955933938   T   T   T
  0.2499994000000001  0.2500005999999999  0.9987502999999975   F   F   F
  0.0833330000000032  0.4166669999999968  0.1014054999999985   F   F   F
  0.4167226557346737  0.0832486179555119  0.2012232389847384   T   T   T
  0.2501183616681075  0.2498955096002149  0.3037648363215268   T   T   T
  0.9999994000000001  0.2500005999999999  0.9987502999999975   F   F   F
  0.3333362999999991  0.4166669999999968  0.1014054999999985   F   F   F
  0.1667260610536729  0.0833639431975897  0.2011751392797620   T   T   T
  0.9999754277301065  0.2498758333709645  0.3037670318093006   T   T   T
  0.4999994000000001  0.0000005999999999  0.9987502999999975   F   F   F
  0.8333330000000032  0.1666669999999968  0.1014054999999985   F   F   F
  0.6667458916793905  0.3333744806895425  0.2010316630531435   T   T   T
  0.5007473599581189  0.0012946569136290  0.3039969193907268   T   T   T
  0.7499994000000001  0.0000005999999999  0.9987502999999975   F   F   F
  0.5833330000000032  0.1666669999999968  0.1014054999999985   F   F   F
  0.9168425044403463  0.3334715406378379  0.2012208815852929   T   T   T
  0.7502879306555883  0.0001946097250141  0.3037700700341404   T   T   T
  0.7499994000000001  0.2500005999999999  0.9987502999999975   F   F   F
  0.5833330000000032  0.4166669999999968  0.1014054999999985   F   F   F
  0.9167200808829676  0.0833456841899789  0.2011757335770596   T   T   T
  0.7500531892778213  0.2501639990880165  0.3037251700358965   T   T   T
  0.4999994000000001  0.2500005999999999  0.9987502999999975   F   F   F
  0.8333330000000032  0.4166669999999968  0.1014054999999985   F   F   F
  0.6666244447658229  0.0832405265814913  0.2012217745680047   T   T   T
  0.5003287280176139  0.2501663502170288  0.3037256615086221   T   T   T
  0.9999994000000001  0.5000005999999999  0.9987502999999975   F   F   F
  0.3333362999999991  0.6666637000000009  0.1014054999999985   F   F   F
  0.1668553410517006  0.8332230048162899  0.2013119459195636   T   T   T
  0.9989002553942328  0.4994526101207697  0.3039957996946043   T   T   T
  0.2499994000000001  0.5000005999999999  0.9987502999999975   F   F   F
  0.0833330000000032  0.6666637000000009  0.1014054999999985   F   F   F
  0.4166853794272072  0.8332737255588043  0.2014927794383823   T   T   T
  0.2486603381996204  0.4971657015673046  0.3050828524956373   T   T   T
  0.2499994000000001  0.7500005999999999  0.9987502999999975   F   F   F
  0.0833330000000032  0.9166669999999968  0.1014054999999985   F   F   F
  0.4166865350207729  0.5834096608675168  0.2014934909663850   T   T   T
  0.2486601443413221  0.7514977332950963  0.3050825157371762   T   T   T
  0.9999994000000001  0.7500005999999999  0.9987502999999975   F   F   F
  0.3333362999999991  0.9166669999999968  0.1014054999999985   F   F   F
  0.1667958445206992  0.5833974388729217  0.2014885135254900   T   T   T
  0.9999749513087366  0.7501039885386334  0.3037672051097857   T   T   T
  0.4999994000000001  0.5000005999999999  0.9987502999999975   F   F   F
  0.8333330000000032  0.6666637000000009  0.1014054999999985   F   F   F
  0.6664122146466269  0.8332054024928226  0.2013249858362940   T   T   T
  0.5007461079932227  0.4994548115573565  0.3039979048876944   T   T   T
  0.7499994000000001  0.5000005999999999  0.9987502999999975   F   F   F
  0.5833330000000032  0.6666637000000009  0.1014054999999985   F   F   F
  0.9167210805969148  0.8333759008397337  0.2011760265291471   T   T   T
  0.7500525288835362  0.4998924860657468  0.3037255502448986   T   T   T
  0.7499994000000001  0.7500005999999999  0.9987502999999975   F   F   F
  0.5833330000000032  0.9166669999999968  0.1014054999999985   F   F   F
  0.9168429131663416  0.5833732646364354  0.2012214906125536   T   T   T
  0.7502857679322048  0.7500938978715013  0.3037708100246377   T   T   T
  0.4999994000000001  0.7500005999999999  0.9987502999999975   F   F   F
  0.8333330000000032  0.9166669999999968  0.1014054999999985   F   F   F
  0.6666243442001729  0.5833843053422356  0.2012226721422863   T   T   T
  0.5030122304744751  0.7515078827574726  0.3051007271341390   T   T   T
  0.3334175044855670  0.6667110108785579  0.3513401607191042   T   T   T
 
  0.00000000E+00  0.00000000E+00  0.00000000E+00
  0.00000000E+00  0.00000000E+00  0.00000000E+00
  0.00000000E+00  0.00000000E+00  0.00000000E+00
  0.00000000E+00  0.00000000E+00  0.00000000E+00
  0.00000000E+00  0.00000000E+00  0.00000000E+00
  0.00000000E+00  0.00000000E+00  0.00000000E+00
  0.00000000E+00  0.00000000E+00  0.00000000E+00
  0.00000000E+00  0.00000000E+00  0.00000000E+00
  0.00000000E+00  0.00000000E+00  0.00000000E+00
  0.00000000E+00  0.00000000E+00  0.00000000E+00
  0.00000000E+00  0.00000000E+00  0.00000000E+00
  0.00000000E+00  0.00000000E+00  0.00000000E+00
  0.00000000E+00  0.00000000E+00  0.00000000E+00
  0.00000000E+00  0.00000000E+00  0.00000000E+00
  0.00000000E+00  0.00000000E+00  0.00000000E+00
  0.00000000E+00  0.00000000E+00  0.00000000E+00
  0.00000000E+00  0.00000000E+00  0.00000000E+00
  0.00000000E+00  0.00000000E+00  0.00000000E+00
  0.00000000E+00  0.00000000E+00  0.00000000E+00
  0.00000000E+00  0.00000000E+00  0.00000000E+00
  0.00000000E+00  0.00000000E+00  0.00000000E+00
  0.00000000E+00  0.00000000E+00  0.00000000E+00
  0.00000000E+00  0.00000000E+00  0.00000000E+00
  0.00000000E+00  0.00000000E+00  0.00000000E+00
  0.00000000E+00  0.00000000E+00  0.00000000E+00
  0.00000000E+00  0.00000000E+00  0.00000000E+00
  0.00000000E+00  0.00000000E+00  0.00000000E+00
  0.00000000E+00  0.00000000E+00  0.00000000E+00
  0.00000000E+00  0.00000000E+00  0.00000000E+00
  0.00000000E+00  0.00000000E+00  0.00000000E+00
  0.00000000E+00  0.00000000E+00  0.00000000E+00
  0.00000000E+00  0.00000000E+00  0.00000000E+00
  0.00000000E+00  0.00000000E+00  0.00000000E+00
  0.00000000E+00  0.00000000E+00  0.00000000E+00
  0.00000000E+00  0.00000000E+00  0.00000000E+00
  0.00000000E+00  0.00000000E+00  0.00000000E+00
  0.00000000E+00  0.00000000E+00  0.00000000E+00
  0.00000000E+00  0.00000000E+00  0.00000000E+00
  0.00000000E+00  0.00000000E+00  0.00000000E+00
  0.00000000E+00  0.00000000E+00  0.00000000E+00
  0.00000000E+00  0.00000000E+00  0.00000000E+00
  0.00000000E+00  0.00000000E+00  0.00000000E+00
  0.00000000E+00  0.00000000E+00  0.00000000E+00
  0.00000000E+00  0.00000000E+00  0.00000000E+00
  0.00000000E+00  0.00000000E+00  0.00000000E+00
  0.00000000E+00  0.00000000E+00  0.00000000E+00
  0.00000000E+00  0.00000000E+00  0.00000000E+00
  0.00000000E+00  0.00000000E+00  0.00000000E+00
  0.00000000E+00  0.00000000E+00  0.00000000E+00
  0.00000000E+00  0.00000000E+00  0.00000000E+00
  0.00000000E+00  0.00000000E+00  0.00000000E+00
  0.00000000E+00  0.00000000E+00  0.00000000E+00
  0.00000000E+00  0.00000000E+00  0.00000000E+00
  0.00000000E+00  0.00000000E+00  0.00000000E+00
  0.00000000E+00  0.00000000E+00  0.00000000E+00
  0.00000000E+00  0.00000000E+00  0.00000000E+00
  0.00000000E+00  0.00000000E+00  0.00000000E+00
  0.00000000E+00  0.00000000E+00  0.00000000E+00
  0.00000000E+00  0.00000000E+00  0.00000000E+00
  0.00000000E+00  0.00000000E+00  0.00000000E+00
  0.00000000E+00  0.00000000E+00  0.00000000E+00
  0.00000000E+00  0.00000000E+00  0.00000000E+00
  0.00000000E+00  0.00000000E+00  0.00000000E+00
  0.00000000E+00  0.00000000E+00  0.00000000E+00
  0.00000000E+00  0.00000000E+00  0.00000000E+00
