 Ni\(1\1\1)                             
   1.00000000000000     
     9.8291997910000006    0.0000000000000000    0.0000000000000000
     4.9145998955000003    8.5123367178000002    0.0000000000000000
     0.0000000000000000    0.0000000000000000   33.0128002167000005
   Ni   O    O    H    C    O 
    64     3    30    60     1     1
Direct
  0.8339324021462364  0.5787637087331273  0.1223541984399154
  0.3452730655735634  0.0694766656954866  0.1252793675263074
  0.8422701199857185  0.0717139695950881  0.1253564070679771
  0.3290378713230269  0.5791679892620399  0.1227546697480809
  0.5841185770427767  0.8403384733772121  0.1214844066648263
  0.8421103834010111  0.8162943163247777  0.1222081758219204
  0.0862369392747259  0.3290180134185412  0.1196636261074430
  0.8426641755935226  0.3237176705511648  0.1217190911577494
  0.5883479596916821  0.5782399687795882  0.1225182985436418
  0.0940673782339083  0.5728008309142956  0.1212173737360316
  0.0858144106279517  0.0748467787579689  0.1221524510355758
  0.5875524374353391  0.0740555198276225  0.1219143364269168
  0.3383035590170903  0.8326041839567621  0.1223459504692533
  0.0863928799737640  0.8227956399514326  0.1266851176002747
  0.3383643529044664  0.3135679721006844  0.1179937842890211
  0.5917816683448930  0.3163480121113382  0.1226308317619687
  0.9206689451658377  0.6535487137888577  0.1814868755979708
  0.9121213642681438  0.4241893929347880  0.1821209346804585
  0.6597870467089769  0.6704727055100381  0.1856232228649849
  0.1683886223311204  0.1680918723101831  0.1863470114430474
  0.9270446361259153  0.1637047008577759  0.1838533124867318
  0.9341298566398860  0.9026614951600412  0.1856472542321797
  0.4139651831167985  0.9140236349032294  0.1871303356792563
  0.4167558716521277  0.1591974639498950  0.1846647972884474
  0.6691900468893676  0.1566230817914636  0.1842419637059266
  0.1635325779645731  0.6554070761573844  0.1840211689810045
  0.4208133120062418  0.6601947890406366  0.1812971705952995
  0.4222762039152322  0.4012945480852156  0.1834036923651211
  0.6793003463438313  0.9106183756955599  0.1867887982764245
  0.1881932048880350  0.4002665141525359  0.1845225762304429
  0.6671296080816014  0.4117517589353606  0.1833187921493208
  0.1780570543101356  0.9135881247048773  0.1827842763032054
  0.9917205277438782  0.2560384019913789  0.2443976329570522
  0.5046442632810156  0.2450656445960184  0.2493821666749240
  0.0058586016349254  0.7412515884511083  0.2450681110451441
  0.5072313428025046  0.7448407607031899  0.2505661374102495
  0.7593514730807167  0.7573063071063044  0.2421610794808894
  0.9977368354998412  0.4950899735035759  0.2452533086304071
  0.7480684953810679  0.5060427695800520  0.2520503818709677
  0.2456113967470741  0.0027849579366856  0.2472553978729419
  0.0029259496061083  0.9953672062424574  0.2472207188968282
  0.5120889237845880  0.9880300213748195  0.2480771126600468
  0.2572779590010579  0.7469035064055282  0.2487483476923217
  0.7497704204840197  0.9918572380343238  0.2500989403291003
  0.2530338174350660  0.2494633863885870  0.2495876504781201
  0.7502203217658889  0.2544570743024797  0.2435126608103194
  0.2647240048678240  0.4918555555892846  0.2467981742074905
  0.5060935777051234  0.5015718794811029  0.2446517288473447
  0.9945086846824803  0.2403346823091086  0.0577771471983012
  0.5041453754464204  0.2384268799054156  0.0602051888060876
  0.0013982131621653  0.7497169467041168  0.0581075633971497
  0.5056241432935611  0.7529279360828078  0.0595790871716879
  0.7541207458670711  0.7541437844656462  0.0590329201785870
  0.9976014609159500  0.4953117671832360  0.0631015947947134
  0.7482104614401088  0.4963627562721119  0.0631799341436455
  0.2567694182427801  0.9996848403207660  0.0610155988767075
  0.0097566395896604  0.9841796092640114  0.0651829456241636
  0.5119872994977591  0.9911375665044295  0.0608255756517009
  0.2562341028182828  0.7405340123731752  0.0615344983454020
  0.7579361161256648  0.9942500511207233  0.0620906986647772
  0.2405855545654504  0.2410601603622831  0.0601662006301176
  0.7545365358974661  0.2409213194764773  0.0578754715241446
  0.2492178047168538  0.4967168648790083  0.0614051213720472
  0.5014428503462691  0.4868615482749212  0.0621624870337771
  0.3335109778347863  0.0822571594409384  0.2865566500857956
  0.8283848180425240  0.0901304699180648  0.2824900122037176
  0.3505369124506887  0.5727412418781720  0.2850707735924752
  0.4926701417586831  0.6111006600930089  0.6201081303808285
  0.1724891596812005  0.5819583433268687  0.5120503444409165
  0.1619107700859922  0.2294753759683611  0.4753142163666478
  0.8508647256845238  0.4801938923231998  0.4616085826514016
  0.5025163980935611  0.2815799129296992  0.3124436867587617
  0.9508247636851810  0.5722944798850782  0.5712447080996982
  0.0192860143092477  0.7113542519050567  0.3105543039588052
  0.0999400766641761  0.2869230879707436  0.3348665637002052
  0.5232745227670448  0.0089939563619720  0.3577165839310240
  0.4345290149602193  0.7749486061205296  0.5018523619593871
  0.9281966306137208  0.8454336305789175  0.4061324928633480
  0.4845063179669321  0.5104439906634110  0.5376722162540722
  0.2149681773494243  0.0052147237262056  0.5395877237875838
  0.7886014085915218  0.7295972528600747  0.3665650854794789
  0.6018901337818813  0.3179052225663589  0.4094188717196177
  0.1296955274286627  0.0968967393610827  0.4015616384850468
  0.1958191129955322  0.6179563384197017  0.4293370273005671
  0.5055723482734845  0.7125227320794566  0.3113206612176632
  0.7331822555861661  0.7336690036579787  0.5082643006740447
  0.4360450926092415  0.1561334012445458  0.4349388110349889
  0.9025237563169755  0.8366012421788415  0.5966948456162910
  0.7425135429692497  0.3150854621043834  0.4897004417703015
  0.3609366755369702  0.7962195098070970  0.4203449124594851
  0.8466511074239604  0.1303715997084666  0.3621839850382342
  0.8068803695630080  0.4274125800104111  0.3168434585926943
  0.9621940904269831  0.9350486223377253  0.5255804676833939
  0.7102642032437887  0.9731290797619918  0.4714902994639312
  0.8052760817942168  0.4042559660811941  0.6044974621013457
  0.6599854053795624  0.5700147145875897  0.4018045644091198
  0.2054226576864031  0.4662878404162407  0.3580663876367455
  0.4612854167206328  0.7196236252678168  0.6196952027227789
  0.4520311752120807  0.5901764118603103  0.5955045644831107
  0.1192956433533993  0.5444672398840157  0.5304377224629174
  0.1053928584976943  0.7000474645653323  0.5148877117095293
  0.0764522116668975  0.3426315959213814  0.4766569929371748
  0.2505381061813672  0.2306824824187579  0.4608505926112995
  0.7882127442195761  0.5292351366569343  0.4377650606826973
  0.8181158916160119  0.4115676181232502  0.4741184568103362
  0.5244875973405652  0.1825985948340000  0.3261364035373576
  0.4069355003223047  0.3620199146407700  0.3268903975924360
  0.8738696767717965  0.6414223693246850  0.5527373498867416
  0.9055291716629567  0.5084087677153601  0.5836019456854115
  0.1182691489000525  0.6128541238477301  0.3262735209266370
  0.8621131229197275  0.7126259106979601  0.3416784484595045
  0.1172055010136115  0.2132315380093782  0.3580565299684348
  0.1673815797343439  0.2074004927544521  0.3146078673986767
  0.4677248566007449  0.0393293913408799  0.3823224078639796
  0.4604994362914853  0.9983816920637310  0.3362502181824142
  0.3994418532323887  0.7803976727323874  0.4733638087171094
  0.3393930989453738  0.8700651892387116  0.5136335012707021
  0.8655466613444150  0.8002692274049924  0.3948065474643495
  0.9062083143941931  0.9410124420873738  0.3905815215610298
  0.4765865066871807  0.6023600530170193  0.5222592222425922
  0.3893563202938277  0.5135029382154269  0.5298389516260759
  0.1895547611503033  0.0924419749260200  0.5210512959555275
  0.1180907758924657  0.9961677127464145  0.5389674210705624
  0.5983607281233628  0.6459335390888127  0.3285888596004437
  0.6950216540090132  0.8319098797289213  0.3627486133398174
  0.6031646335954571  0.4176141137404240  0.4030754712615896
  0.6554889190370436  0.2890766864683456  0.4353943550719174
  0.1287011565786666  0.1282076004599621  0.4301260588923698
  0.0317394216398667  0.0937172292376158  0.3954164823498564
  0.1785117147311913  0.6066094889713040  0.4580840470089948
  0.1049216279855607  0.7157847872700770  0.4208235956729353
  0.4535218512804148  0.6506952053109428  0.3097659179043072
  0.0088652054542753  0.8010111532599019  0.3303075560293642
  0.6189081591962409  0.7656498923776981  0.5130839154974336
  0.7807621972111262  0.6341100423521123  0.4888059420385260
  0.4440807276139967  0.2445279096465134  0.4250295756872644
  0.5380413904683220  0.0810505404670288  0.4493287653465690
  0.9380958844232785  0.7203638577764295  0.5953095366858707
  0.8399421464908625  0.8776467712759535  0.6213006158941822
  0.8114341647783249  0.2290587228687112  0.5057067999477973
  0.6443367162415076  0.3823852686363410  0.5066271231859074
  0.3017413818275755  0.7396862113547540  0.4198359248968213
  0.3003320701779664  0.8975714381721523  0.4052751082981125
  0.8335646332768027  0.1082590448069015  0.3323376962846932
  0.7429677714656270  0.2030605899965396  0.3720670189630891
  0.9167838862234214  0.3758118386688807  0.3260609334775313
  0.7699396711845867  0.3580419570364177  0.3212219824348722
  0.8639586479044215  0.9654426808489323  0.5104795267750984
  0.9311181414081510  0.9143486344851466  0.5531595563853106
  0.7192745515963122  0.8730021394534652  0.4855995911481397
  0.7933048739789540  0.9280493717161702  0.4497769737623271
  0.6954660372286593  0.4739503109006499  0.6134997374923931
  0.8700528476820908  0.3590471680731574  0.6288979357550887
  0.7081313895755276  0.6162469328892626  0.3846985290117330
  0.5512394828410233  0.6594599988355411  0.4088856005671188
  0.2084925554248285  0.4931707353542004  0.3855419931031943
  0.1671308103282515  0.3915499311953235  0.3536177091201629
  0.1448211322624058  0.9199425489724339  0.2900766869175907
  0.1399512460510940  0.9212466903281108  0.3245370429939060
 
  0.83457872E-03  0.98057631E-03  0.18647739E-02
 -0.28669015E-02  0.13451471E-02  0.11462149E-02
  0.20849428E-02 -0.26674005E-04 -0.62863366E-03
  0.24411244E-03 -0.16493409E-02  0.20142515E-02
 -0.42314739E-02  0.54148542E-02  0.22264867E-02
 -0.35201514E-02  0.14833029E-02 -0.18688899E-02
 -0.57249022E-03 -0.80338420E-03 -0.74890153E-04
  0.36112000E-02  0.17622680E-03  0.22765049E-03
 -0.16327501E-02  0.49319986E-02  0.11165980E-03
 -0.22588910E-02 -0.31591513E-02 -0.40599733E-02
 -0.12466987E-02  0.26273868E-02  0.10271035E-02
 -0.18916771E-02  0.22979148E-02 -0.13899764E-02
  0.22201257E-02 -0.24635001E-02  0.19868572E-02
 -0.69569951E-03 -0.71528830E-03  0.19414670E-02
 -0.27357792E-02 -0.51149824E-02  0.10351277E-02
 -0.54077137E-03 -0.31920521E-02  0.76445374E-03
 -0.10690956E-02  0.38693193E-02 -0.23004539E-02
 -0.11911258E-02 -0.13895475E-02 -0.13117447E-02
  0.18409913E-02 -0.62682162E-03  0.40837981E-03
 -0.30617388E-02 -0.87695448E-03 -0.22482974E-03
  0.26960704E-02  0.43344006E-02 -0.96386118E-03
  0.27042152E-02 -0.55430229E-03 -0.29302896E-02
 -0.32448284E-03  0.25358872E-03 -0.10494118E-02
 -0.67702806E-03 -0.28940581E-03  0.35999998E-03
  0.64495627E-06  0.81922794E-03 -0.53887002E-02
 -0.10344053E-02  0.26013583E-02  0.26062752E-02
 -0.23420614E-02  0.23724896E-02 -0.17973563E-02
 -0.13187582E-02  0.18158916E-02 -0.36373859E-03
  0.36430121E-02 -0.74385614E-03  0.27787482E-02
  0.91670460E-03 -0.48348395E-02 -0.12716716E-03
  0.16430893E-02 -0.20400316E-02  0.25521587E-02
  0.90841490E-03 -0.13893728E-02  0.14778366E-02
  0.36415717E-02 -0.37102364E-02 -0.12670587E-03
 -0.33528079E-02 -0.14845448E-02 -0.23630531E-02
 -0.19214788E-03 -0.64166740E-03 -0.42372332E-02
 -0.43609753E-02  0.10471511E-02  0.16486910E-02
  0.11643914E-03 -0.21923600E-02 -0.11844523E-02
 -0.18760575E-02 -0.34446250E-03  0.26270063E-02
  0.14259317E-02 -0.76479708E-03 -0.17668696E-03
 -0.10593534E-02  0.36100660E-02 -0.58349745E-02
 -0.61456842E-03 -0.28798932E-03 -0.26994333E-03
 -0.84091200E-03  0.17022267E-02 -0.15692211E-02
  0.14630465E-02  0.42262987E-03 -0.90296758E-03
  0.14943362E-02  0.11652742E-02 -0.10436051E-02
  0.28409785E-03  0.20258415E-02  0.19697183E-03
  0.12425376E-02 -0.15288915E-02  0.22797897E-02
  0.93070454E-03 -0.15251026E-02  0.14447544E-02
 -0.21994139E-03  0.84275352E-03  0.24818022E-02
 -0.17272155E-02  0.11463532E-02 -0.26632240E-02
  0.34508704E-03 -0.66264307E-03  0.22568512E-02
 -0.20634761E-02  0.96475388E-03  0.12912676E-02
  0.60971128E-03 -0.32793421E-02 -0.11397657E-02
 -0.14669761E-02 -0.45537574E-02 -0.19760509E-02
  0.35049649E-02  0.25215853E-02 -0.22442764E-02
 -0.20446620E-02 -0.13160125E-02  0.22318289E-02
  0.23210190E-02  0.17170893E-02  0.24402869E-03
  0.24134124E-02  0.31988670E-02 -0.17856018E-02
 -0.95582350E-03 -0.33753238E-02 -0.32496544E-03
  0.26934664E-03 -0.99206808E-03  0.41291697E-03
 -0.42021973E-03 -0.11734708E-02  0.57452728E-03
  0.84279569E-03 -0.25474999E-03  0.51322417E-03
  0.27309078E-02 -0.27829303E-03  0.38833256E-03
  0.32944497E-02  0.18540194E-02 -0.24437153E-03
 -0.39205441E-03 -0.17017084E-02  0.44176437E-03
 -0.12293301E-02  0.15903641E-02 -0.25042260E-02
  0.41189618E-02  0.35140532E-02  0.46233882E-02
  0.41215827E-02 -0.48820498E-03  0.24020112E-02
 -0.24266169E-02 -0.19396584E-02 -0.30234298E-02
  0.34029285E-02 -0.87304847E-03  0.94832550E-02
 -0.36214570E-02  0.45959706E-02  0.12552642E-02
  0.13958658E-02  0.27284403E-02  0.18518500E-02
 -0.19122951E-02  0.15528734E-02 -0.23630256E-02
  0.57668450E-02  0.34477625E-02 -0.42915780E-02
  0.64243480E-02  0.52529469E-02  0.65782302E-03
  0.34981065E-02 -0.78176427E-02  0.55260877E-02
 -0.49703785E-02 -0.13630632E-02  0.69303907E-02
 -0.68094868E-03  0.29080397E-02  0.43822779E-02
  0.25474546E-02 -0.91963944E-02  0.56117210E-03
  0.81201174E-03  0.14121368E-02 -0.26687655E-03
  0.10439623E-02  0.57939359E-02  0.81620713E-03
  0.47710732E-02  0.40477243E-02  0.85578796E-02
 -0.17259143E-02  0.24607886E-02 -0.20620778E-02
  0.38571680E-02  0.73278762E-03 -0.26022536E-02
  0.65502493E-02 -0.23818479E-02 -0.31108648E-02
 -0.51398037E-02  0.23476102E-02  0.99117503E-02
 -0.24666625E-02 -0.33720169E-02  0.29783769E-02
  0.40041405E-02 -0.32895465E-02  0.96904785E-02
 -0.43590551E-02  0.29829320E-02 -0.12685488E-02
 -0.38425942E-02 -0.10833814E-02  0.31685620E-02
 -0.61926460E-03  0.38674403E-03  0.38913351E-02
  0.37855602E-03  0.17583805E-02 -0.53537409E-02
  0.67610995E-03 -0.62091801E-02 -0.14697264E-02
  0.37041672E-02  0.94218812E-03 -0.41767322E-02
  0.13231890E-02  0.68772888E-04  0.61880420E-03
  0.43096744E-03  0.71874638E-03 -0.35428628E-02
 -0.24872263E-02  0.37921508E-03  0.81365887E-02
 -0.20542226E-02  0.13064830E-02 -0.15834451E-02
  0.59076478E-02  0.45260347E-02 -0.36828704E-02
 -0.17092873E-01 -0.17232594E-01 -0.21447452E-01
 -0.15439760E-01  0.24114412E-01 -0.26913797E-01
  0.38743104E-02 -0.14165065E-01  0.85371606E-02
 -0.43260567E-01  0.53242509E-02 -0.15517887E-01
 -0.64300288E-02  0.11945369E-02  0.37602762E-02
  0.26409501E-01 -0.28016740E-01  0.20352892E-04
  0.26825322E-01 -0.18682380E-01  0.51628658E-02
  0.31746103E-01 -0.24787999E-01 -0.84901207E-03
 -0.22869668E-02  0.55165341E-02 -0.85294047E-03
 -0.96712994E-02 -0.17150021E-01  0.37331704E-01
  0.16961329E-01 -0.13099918E-01  0.11386812E-01
  0.35492930E-01 -0.10399847E-01 -0.12850302E-01
 -0.17556498E-01 -0.15821531E-02 -0.19245284E-01
 -0.16966367E-01 -0.19718988E-01 -0.11391861E-01
  0.90986926E-04 -0.11078044E-01 -0.93259784E-02
  0.91215178E-02 -0.20184542E-01 -0.54198944E-02
 -0.11477754E-01  0.98937308E-02 -0.41293218E-02
  0.15011264E-02 -0.12894822E-02 -0.98303463E-02
 -0.22405176E-01 -0.62185011E-02 -0.29624167E-01
 -0.66326714E-02  0.14564651E-01 -0.35574243E-01
  0.79315924E-02  0.20952348E-02 -0.14121437E-01
  0.60070540E-02  0.17043637E-01 -0.58629814E-02
 -0.14253661E-01  0.27003997E-01  0.47170677E-02
 -0.13230425E-01  0.21853068E-02 -0.95700607E-02
  0.75326951E-02  0.56326929E-02 -0.23350088E-01
  0.99425648E-02 -0.16307849E-01  0.17296030E-01
  0.44669154E-02 -0.10432389E-01  0.72098410E-02
  0.50864340E-02  0.73309754E-02  0.11515863E-01
  0.99101953E-02  0.28992649E-02 -0.11024579E-05
 -0.10134262E-01 -0.45092815E-02  0.11641418E-01
 -0.49560342E-02 -0.20206939E-01 -0.15524501E-01
 -0.92538637E-02  0.20043996E-01  0.32662738E-02
  0.16410523E-01  0.46837693E-02  0.38496112E-02
 -0.13287558E-01  0.20744328E-01  0.44091730E-02
 -0.25967924E-01  0.84737466E-02 -0.46722839E-03
 -0.11406744E-02 -0.16633829E-02 -0.14204292E-02
  0.13883205E-01 -0.10318455E-01  0.77985436E-03
  0.65030739E-02 -0.44199182E-02  0.25486125E-01
  0.66586433E-02 -0.23339521E-02  0.77282472E-02
 -0.30689399E-02  0.24821411E-02 -0.28473091E-01
  0.20395794E-01  0.20572837E-01  0.55154553E-02
 -0.17927004E-01  0.97603983E-03  0.12093134E-01
  0.90154683E-02  0.15287820E-01  0.14801776E-01
  0.25996305E-01 -0.38085642E-02 -0.44211863E-02
  0.53164498E-02 -0.17602881E-01 -0.13556990E-01
 -0.29094361E-02 -0.62470864E-02 -0.32864303E-01
 -0.45158536E-02 -0.14748235E-01 -0.54190126E-02
  0.54790334E-02  0.10263828E-01 -0.12544492E-01
  0.72387827E-02 -0.16784217E-02 -0.17286195E-01
 -0.25164141E-01  0.69897042E-02 -0.68707135E-03
 -0.79815565E-02 -0.62584129E-02 -0.65068407E-02
  0.67748225E-02  0.52947887E-02  0.52631994E-02
  0.79398487E-02 -0.13885461E-01 -0.95733726E-02
  0.19932596E-01  0.31063707E-01 -0.10066238E-01
 -0.73101248E-02 -0.14792377E-02 -0.12875621E-01
 -0.17012735E-01 -0.18112716E-01 -0.20280192E-01
  0.17439174E-02 -0.12939264E-01  0.70776913E-02
 -0.45073308E-02 -0.29412841E-02 -0.35003520E-01
  0.96080091E-02 -0.50115550E-02  0.14410527E-01
 -0.84807121E-02  0.16156037E-03 -0.99415071E-02
  0.41552108E-03  0.21419638E-02  0.91203927E-02
 
           1
   1.00000000000000     
  0.11066282E+00 -0.39105715E-02 -0.35580977E-02  0.11439716E+00
  0.83393240E+00  0.57876371E+00  0.12235420E+00
  0.34527307E+00  0.69476666E-01  0.12527937E+00
  0.84227012E+00  0.71713970E-01  0.12535641E+00
  0.32903787E+00  0.57916799E+00  0.12275467E+00
  0.58411858E+00  0.84033847E+00  0.12148441E+00
  0.84211038E+00  0.81629432E+00  0.12220818E+00
  0.86236939E-01  0.32901801E+00  0.11966363E+00
  0.84266418E+00  0.32371767E+00  0.12171909E+00
  0.58834796E+00  0.57823997E+00  0.12251830E+00
  0.94067378E-01  0.57280083E+00  0.12121737E+00
  0.85814411E-01  0.74846779E-01  0.12215245E+00
  0.58755244E+00  0.74055520E-01  0.12191434E+00
  0.33830356E+00  0.83260418E+00  0.12234595E+00
  0.86392880E-01  0.82279564E+00  0.12668512E+00
  0.33836435E+00  0.31356797E+00  0.11799378E+00
  0.59178167E+00  0.31634801E+00  0.12263083E+00
  0.92066895E+00  0.65354871E+00  0.18148688E+00
  0.91212136E+00  0.42418939E+00  0.18212093E+00
  0.65978705E+00  0.67047271E+00  0.18562322E+00
  0.16838862E+00  0.16809187E+00  0.18634701E+00
  0.92704464E+00  0.16370470E+00  0.18385331E+00
  0.93412986E+00  0.90266150E+00  0.18564725E+00
  0.41396518E+00  0.91402363E+00  0.18713034E+00
  0.41675587E+00  0.15919746E+00  0.18466480E+00
  0.66919005E+00  0.15662308E+00  0.18424196E+00
  0.16353258E+00  0.65540708E+00  0.18402117E+00
  0.42081331E+00  0.66019479E+00  0.18129717E+00
  0.42227620E+00  0.40129455E+00  0.18340369E+00
  0.67930035E+00  0.91061838E+00  0.18678880E+00
  0.18819320E+00  0.40026651E+00  0.18452258E+00
  0.66712961E+00  0.41175176E+00  0.18331879E+00
  0.17805705E+00  0.91358812E+00  0.18278428E+00
  0.99172053E+00  0.25603840E+00  0.24439763E+00
  0.50464426E+00  0.24506564E+00  0.24938217E+00
  0.58586016E-02  0.74125159E+00  0.24506811E+00
  0.50723134E+00  0.74484076E+00  0.25056614E+00
  0.75935147E+00  0.75730631E+00  0.24216108E+00
  0.99773684E+00  0.49508997E+00  0.24525331E+00
  0.74806850E+00  0.50604277E+00  0.25205038E+00
  0.24561140E+00  0.27849579E-02  0.24725540E+00
  0.29259496E-02  0.99536721E+00  0.24722072E+00
  0.51208892E+00  0.98803002E+00  0.24807711E+00
  0.25727796E+00  0.74690351E+00  0.24874835E+00
  0.74977042E+00  0.99185724E+00  0.25009894E+00
  0.25303382E+00  0.24946339E+00  0.24958765E+00
  0.75022032E+00  0.25445707E+00  0.24351266E+00
  0.26472400E+00  0.49185556E+00  0.24679817E+00
  0.50609358E+00  0.50157188E+00  0.24465173E+00
  0.99450868E+00  0.24033468E+00  0.57777147E-01
  0.50414538E+00  0.23842688E+00  0.60205189E-01
  0.13982132E-02  0.74971695E+00  0.58107563E-01
  0.50562414E+00  0.75292794E+00  0.59579087E-01
  0.75412075E+00  0.75414378E+00  0.59032920E-01
  0.99760146E+00  0.49531177E+00  0.63101595E-01
  0.74821046E+00  0.49636276E+00  0.63179934E-01
  0.25676942E+00  0.99968484E+00  0.61015599E-01
  0.97566396E-02  0.98417961E+00  0.65182946E-01
  0.51198730E+00  0.99113757E+00  0.60825576E-01
  0.25623410E+00  0.74053401E+00  0.61534498E-01
  0.75793612E+00  0.99425005E+00  0.62090699E-01
  0.24058555E+00  0.24106016E+00  0.60166201E-01
  0.75453654E+00  0.24092132E+00  0.57875472E-01
  0.24921780E+00  0.49671686E+00  0.61405121E-01
  0.50144285E+00  0.48686155E+00  0.62162487E-01
  0.33351098E+00  0.82257159E-01  0.28655665E+00
  0.82838482E+00  0.90130470E-01  0.28249001E+00
  0.35053691E+00  0.57274124E+00  0.28507077E+00
  0.49267014E+00  0.61110066E+00  0.62010813E+00
  0.17248916E+00  0.58195834E+00  0.51205034E+00
  0.16191077E+00  0.22947538E+00  0.47531422E+00
  0.85086473E+00  0.48019389E+00  0.46160858E+00
  0.50251640E+00  0.28157991E+00  0.31244369E+00
  0.95082476E+00  0.57229448E+00  0.57124471E+00
  0.19286014E-01  0.71135425E+00  0.31055430E+00
  0.99940077E-01  0.28692309E+00  0.33486656E+00
  0.52327452E+00  0.89939564E-02  0.35771658E+00
  0.43452901E+00  0.77494861E+00  0.50185236E+00
  0.92819663E+00  0.84543363E+00  0.40613249E+00
  0.48450632E+00  0.51044399E+00  0.53767222E+00
  0.21496818E+00  0.52147237E-02  0.53958772E+00
  0.78860141E+00  0.72959725E+00  0.36656509E+00
  0.60189013E+00  0.31790522E+00  0.40941887E+00
  0.12969553E+00  0.96896739E-01  0.40156164E+00
  0.19581911E+00  0.61795634E+00  0.42933703E+00
  0.50557235E+00  0.71252273E+00  0.31132066E+00
  0.73318226E+00  0.73366900E+00  0.50826430E+00
  0.43604509E+00  0.15613340E+00  0.43493881E+00
  0.90252376E+00  0.83660124E+00  0.59669485E+00
  0.74251354E+00  0.31508546E+00  0.48970044E+00
  0.36093668E+00  0.79621951E+00  0.42034491E+00
  0.84665111E+00  0.13037160E+00  0.36218399E+00
  0.80688037E+00  0.42741258E+00  0.31684346E+00
  0.96219409E+00  0.93504862E+00  0.52558047E+00
  0.71026420E+00  0.97312908E+00  0.47149030E+00
  0.80527608E+00  0.40425597E+00  0.60449746E+00
  0.65998541E+00  0.57001471E+00  0.40180456E+00
  0.20542266E+00  0.46628784E+00  0.35806639E+00
  0.46128542E+00  0.71962363E+00  0.61969520E+00
  0.45203118E+00  0.59017641E+00  0.59550456E+00
  0.11929564E+00  0.54446724E+00  0.53043772E+00
  0.10539286E+00  0.70004746E+00  0.51488771E+00
  0.76452212E-01  0.34263160E+00  0.47665699E+00
  0.25053811E+00  0.23068248E+00  0.46085059E+00
  0.78821274E+00  0.52923514E+00  0.43776506E+00
  0.81811589E+00  0.41156762E+00  0.47411846E+00
  0.52448760E+00  0.18259859E+00  0.32613640E+00
  0.40693550E+00  0.36201991E+00  0.32689040E+00
  0.87386968E+00  0.64142237E+00  0.55273735E+00
  0.90552917E+00  0.50840877E+00  0.58360195E+00
  0.11826915E+00  0.61285412E+00  0.32627352E+00
  0.86211312E+00  0.71262591E+00  0.34167845E+00
  0.11720550E+00  0.21323154E+00  0.35805653E+00
  0.16738158E+00  0.20740049E+00  0.31460787E+00
  0.46772486E+00  0.39329391E-01  0.38232241E+00
  0.46049944E+00  0.99838169E+00  0.33625022E+00
  0.39944185E+00  0.78039767E+00  0.47336381E+00
  0.33939310E+00  0.87006519E+00  0.51363350E+00
  0.86554666E+00  0.80026923E+00  0.39480655E+00
  0.90620831E+00  0.94101244E+00  0.39058152E+00
  0.47658651E+00  0.60236005E+00  0.52225922E+00
  0.38935632E+00  0.51350294E+00  0.52983895E+00
  0.18955476E+00  0.92441975E-01  0.52105130E+00
  0.11809078E+00  0.99616771E+00  0.53896742E+00
  0.59836073E+00  0.64593354E+00  0.32858886E+00
  0.69502165E+00  0.83190988E+00  0.36274861E+00
  0.60316463E+00  0.41761411E+00  0.40307547E+00
  0.65548892E+00  0.28907669E+00  0.43539436E+00
  0.12870116E+00  0.12820760E+00  0.43012606E+00
  0.31739422E-01  0.93717229E-01  0.39541648E+00
  0.17851171E+00  0.60660949E+00  0.45808405E+00
  0.10492163E+00  0.71578479E+00  0.42082360E+00
  0.45352185E+00  0.65069521E+00  0.30976592E+00
  0.88652055E-02  0.80101115E+00  0.33030756E+00
  0.61890816E+00  0.76564989E+00  0.51308392E+00
  0.78076220E+00  0.63411004E+00  0.48880594E+00
  0.44408073E+00  0.24452791E+00  0.42502958E+00
  0.53804139E+00  0.81050540E-01  0.44932877E+00
  0.93809588E+00  0.72036386E+00  0.59530954E+00
  0.83994215E+00  0.87764677E+00  0.62130062E+00
  0.81143416E+00  0.22905872E+00  0.50570680E+00
  0.64433672E+00  0.38238527E+00  0.50662712E+00
  0.30174138E+00  0.73968621E+00  0.41983592E+00
  0.30033207E+00  0.89757144E+00  0.40527511E+00
  0.83356463E+00  0.10825904E+00  0.33233770E+00
  0.74296777E+00  0.20306059E+00  0.37206702E+00
  0.91678389E+00  0.37581184E+00  0.32606093E+00
  0.76993967E+00  0.35804196E+00  0.32122198E+00
  0.86395865E+00  0.96544268E+00  0.51047953E+00
  0.93111814E+00  0.91434863E+00  0.55315956E+00
  0.71927455E+00  0.87300214E+00  0.48559959E+00
  0.79330487E+00  0.92804937E+00  0.44977697E+00
  0.69546604E+00  0.47395031E+00  0.61349974E+00
  0.87005285E+00  0.35904717E+00  0.62889794E+00
  0.70813139E+00  0.61624693E+00  0.38469853E+00
  0.55123948E+00  0.65946000E+00  0.40888560E+00
  0.20849256E+00  0.49317074E+00  0.38554199E+00
  0.16713081E+00  0.39154993E+00  0.35361771E+00
  0.14482113E+00  0.91994255E+00  0.29007669E+00
  0.13995125E+00  0.92124669E+00  0.32453704E+00
  0.00000000E+00  0.00000000E+00  0.00000000E+00
  0.00000000E+00  0.00000000E+00  0.00000000E+00
  0.00000000E+00  0.00000000E+00  0.00000000E+00
  0.00000000E+00  0.00000000E+00  0.00000000E+00
  0.00000000E+00  0.00000000E+00  0.00000000E+00
  0.00000000E+00  0.00000000E+00  0.00000000E+00
  0.00000000E+00  0.00000000E+00  0.00000000E+00
  0.00000000E+00  0.00000000E+00  0.00000000E+00
  0.00000000E+00  0.00000000E+00  0.00000000E+00
  0.00000000E+00  0.00000000E+00  0.00000000E+00
  0.00000000E+00  0.00000000E+00  0.00000000E+00
  0.00000000E+00  0.00000000E+00  0.00000000E+00
  0.00000000E+00  0.00000000E+00  0.00000000E+00
  0.00000000E+00  0.00000000E+00  0.00000000E+00
  0.00000000E+00  0.00000000E+00  0.00000000E+00
  0.00000000E+00  0.00000000E+00  0.00000000E+00
  0.00000000E+00  0.00000000E+00  0.00000000E+00
  0.00000000E+00  0.00000000E+00  0.00000000E+00
  0.00000000E+00  0.00000000E+00  0.00000000E+00
  0.00000000E+00  0.00000000E+00  0.00000000E+00
  0.00000000E+00  0.00000000E+00  0.00000000E+00
  0.00000000E+00  0.00000000E+00  0.00000000E+00
  0.00000000E+00  0.00000000E+00  0.00000000E+00
  0.00000000E+00  0.00000000E+00  0.00000000E+00
  0.00000000E+00  0.00000000E+00  0.00000000E+00
  0.00000000E+00  0.00000000E+00  0.00000000E+00
  0.00000000E+00  0.00000000E+00  0.00000000E+00
  0.00000000E+00  0.00000000E+00  0.00000000E+00
  0.00000000E+00  0.00000000E+00  0.00000000E+00
  0.00000000E+00  0.00000000E+00  0.00000000E+00
  0.00000000E+00  0.00000000E+00  0.00000000E+00
  0.00000000E+00  0.00000000E+00  0.00000000E+00
  0.00000000E+00  0.00000000E+00  0.00000000E+00
  0.00000000E+00  0.00000000E+00  0.00000000E+00
  0.00000000E+00  0.00000000E+00  0.00000000E+00
  0.00000000E+00  0.00000000E+00  0.00000000E+00
  0.00000000E+00  0.00000000E+00  0.00000000E+00
  0.00000000E+00  0.00000000E+00  0.00000000E+00
  0.00000000E+00  0.00000000E+00  0.00000000E+00
  0.00000000E+00  0.00000000E+00  0.00000000E+00
  0.00000000E+00  0.00000000E+00  0.00000000E+00
  0.00000000E+00  0.00000000E+00  0.00000000E+00
  0.00000000E+00  0.00000000E+00  0.00000000E+00
  0.00000000E+00  0.00000000E+00  0.00000000E+00
  0.00000000E+00  0.00000000E+00  0.00000000E+00
  0.00000000E+00  0.00000000E+00  0.00000000E+00
  0.00000000E+00  0.00000000E+00  0.00000000E+00
  0.00000000E+00  0.00000000E+00  0.00000000E+00
  0.00000000E+00  0.00000000E+00  0.00000000E+00
  0.00000000E+00  0.00000000E+00  0.00000000E+00
  0.00000000E+00  0.00000000E+00  0.00000000E+00
  0.00000000E+00  0.00000000E+00  0.00000000E+00
  0.00000000E+00  0.00000000E+00  0.00000000E+00
  0.00000000E+00  0.00000000E+00  0.00000000E+00
  0.00000000E+00  0.00000000E+00  0.00000000E+00
  0.00000000E+00  0.00000000E+00  0.00000000E+00
  0.00000000E+00  0.00000000E+00  0.00000000E+00
  0.00000000E+00  0.00000000E+00  0.00000000E+00
  0.00000000E+00  0.00000000E+00  0.00000000E+00
  0.00000000E+00  0.00000000E+00  0.00000000E+00
  0.00000000E+00  0.00000000E+00  0.00000000E+00
  0.00000000E+00  0.00000000E+00  0.00000000E+00
  0.00000000E+00  0.00000000E+00  0.00000000E+00
  0.00000000E+00  0.00000000E+00  0.00000000E+00
  0.00000000E+00  0.00000000E+00  0.00000000E+00
  0.00000000E+00  0.00000000E+00  0.00000000E+00
  0.00000000E+00  0.00000000E+00  0.00000000E+00
  0.00000000E+00  0.00000000E+00  0.00000000E+00
  0.00000000E+00  0.00000000E+00  0.00000000E+00
  0.00000000E+00  0.00000000E+00  0.00000000E+00
  0.00000000E+00  0.00000000E+00  0.00000000E+00
  0.00000000E+00  0.00000000E+00  0.00000000E+00
  0.00000000E+00  0.00000000E+00  0.00000000E+00
  0.00000000E+00  0.00000000E+00  0.00000000E+00
  0.00000000E+00  0.00000000E+00  0.00000000E+00
  0.00000000E+00  0.00000000E+00  0.00000000E+00
  0.00000000E+00  0.00000000E+00  0.00000000E+00
  0.00000000E+00  0.00000000E+00  0.00000000E+00
  0.00000000E+00  0.00000000E+00  0.00000000E+00
  0.00000000E+00  0.00000000E+00  0.00000000E+00
  0.00000000E+00  0.00000000E+00  0.00000000E+00
  0.00000000E+00  0.00000000E+00  0.00000000E+00
  0.00000000E+00  0.00000000E+00  0.00000000E+00
  0.00000000E+00  0.00000000E+00  0.00000000E+00
  0.00000000E+00  0.00000000E+00  0.00000000E+00
  0.00000000E+00  0.00000000E+00  0.00000000E+00
  0.00000000E+00  0.00000000E+00  0.00000000E+00