Ni_Pol_CO2CH
   1.00000000000000     
     9.8291997910000006    0.0000000000000000    0.0000000000000000
     4.9145998955000003    8.5123367178000002    0.0000000000000000
     0.0000000000000000    0.0000000000000000   19.0128002167000005
   Ni   O    C    O    C    H 
    64     3     1     2     1     1
Selective dynamics
Direct
  0.8319106181528181  0.5837867547250044  0.2713873724196853   T   T   T
  0.3317654654392035  0.0834322792053815  0.2703110942077118   T   T   T
  0.8321913731031320  0.0830035160761689  0.2709473040715948   T   T   T
  0.3321611904992059  0.5829545480531000  0.2706587738208604   T   T   T
  0.5814466993695413  0.8341810848250361  0.2700323820482591   T   T   T
  0.8319394980658333  0.8329289576667114  0.2706278443498102   T   T   T
  0.0820150902261453  0.3329668085040566  0.2710744600480556   T   T   T
  0.8326008281142894  0.3327198755344136  0.2710936514110034   T   T   T
  0.5827758802551596  0.5820836745263452  0.2715970683529801   T   T   T
  0.0817986619663203  0.5830724000582013  0.2713135461352273   T   T   T
  0.0818281281788152  0.0836014400776414  0.2708223344339974   T   T   T
  0.5819734130309029  0.0835848171590690  0.2717767084358443   T   T   T
  0.3325244064881524  0.8328297597429630  0.2707497964608969   T   T   T
  0.0819383180970304  0.8328632674730323  0.2705174149296833   T   T   T
  0.3318020198543126  0.3331856764728994  0.2715726684939803   T   T   T
  0.5827568727428106  0.3323583469405876  0.2716528113525741   T   T   T
  0.9162755680330995  0.6640127651462463  0.3766700276253167   T   T   T
  0.9150407690424320  0.4166421736119081  0.3756298765403996   T   T   T
  0.6644994732276833  0.6670305684696000  0.3746958079132195   T   T   T
  0.1642130583784993  0.1664627740431552  0.3766225275047055   T   T   T
  0.9153346130747910  0.1653647048524829  0.3769942226944500   T   T   T
  0.9156769349561527  0.9154952859337014  0.3754069098875910   T   T   T
  0.4141407338435028  0.9172093565446340  0.3754586706031218   T   T   T
  0.4140681898012513  0.1665217446805835  0.3764951339151453   T   T   T
  0.6670792848663547  0.1660705892077626  0.3775109337178139   T   T   T
  0.1661847064395409  0.6656582471050232  0.3759001743776154   T   T   T
  0.4154397327603947  0.6657361100325004  0.3759469626294544   T   T   T
  0.4157857645424306  0.4158383074295943  0.3760407248480674   T   T   T
  0.6644745602245881  0.9168857058453173  0.3768174242092481   T   T   T
  0.1650898862801344  0.4160005301290369  0.3783644471389373   T   T   T
  0.6665483761060066  0.4137079677733901  0.3785062016798730   T   T   T
  0.1653781987057693  0.9157663395475002  0.3778340062976929   T   T   T
  0.9931230391625818  0.2521896282595617  0.4815598973723981   T   T   T
  0.5015109290165505  0.2485814599292642  0.4800533963882139   T   T   T
  0.9972570557755058  0.7469464116249657  0.4796616492762271   T   T   T
  0.5040341275341236  0.7475264552069986  0.4795387080235373   T   T   T
  0.7479218363537208  0.7491240246071569  0.4798712155625421   T   T   T
  0.9989599707013435  0.5015398977529291  0.4857525273173634   T   T   T
  0.7462519074998264  0.5043138614443922  0.4815373836310429   T   T   T
  0.2468386995259924  0.9974185911873026  0.4846061308525901   T   T   T
  0.0043681158670689  0.9930829528266837  0.4852309919118380   T   T   T
  0.5029580639665246  0.9965009671788586  0.4855094704303684   T   T   T
  0.2486465733834862  0.7522831111278385  0.4854812292692041   T   T   T
  0.7468340259611366  0.9943218916327342  0.4840434140468981   T   T   T
  0.2496906063346601  0.2515942440351382  0.4858440242587646   T   T   T
  0.7505036362631280  0.2494424450799766  0.4951166708528234   T   T   T
  0.2489991830594160  0.4982947959371903  0.4844977757163795   T   T   T
  0.5012723034420037  0.4989962926274097  0.4852964640061387   T   T   T
  0.9970724670000024  0.2558556729999992  0.1637003960000030   F   F   F
  0.4999617989999976  0.2500875830000027  0.1643123180000003   F   F   F
  0.9968841629999972  0.7476992069999966  0.1643590660000029   F   F   F
  0.5054474789999972  0.7476858750000019  0.1651548480000002   F   F   F
  0.7507219769999978  0.7486395119999969  0.1651830500000031   F   F   F
  0.9979410790000003  0.5014025589999989  0.1651978470000017   F   F   F
  0.7507272960000009  0.5014379059999996  0.1654730480000026   F   F   F
  0.2484077359999972  0.9989653640000000  0.1655050250000016   F   F   F
  0.0026835399999996  0.9989392600000002  0.1655775309999967   F   F   F
  0.5037179199999997  0.9979203070000011  0.1655856309999990   F   F   F
  0.2483221529999966  0.7533767729999994  0.1658259459999982   F   F   F
  0.7484137009999969  0.9978805350000002  0.1658943890000018   F   F   F
  0.2473094730000014  0.2543786680000011  0.1660089160000027   F   F   F
  0.7483561820000020  0.2543461500000035  0.1660180820000008   F   F   F
  0.2472921950000000  0.4989472700000022  0.1662971330000005   F   F   F
  0.5037960519999984  0.4989156760000029  0.1664085250000014   F   F   F
  0.3336785457032881  0.0785057505975498  0.5442797024758936   T   T   T
  0.8383143008397955  0.0624547630701324  0.5458797469516237   T   T   T
  0.3325250678962251  0.5827050459665902  0.5448940808025340   T   T   T
  0.9612632200887188  0.3523480531730019  0.6027142869613319   T   T   T
  1.0320546071514871  0.4299007561030191  0.5801758448312584   T   T   T
 -0.0034216892669608  0.2753424081004032  0.6571463252326931   T   T   T
  0.8269674869367186  0.3667319141289438  0.5576435812485004   T   T   T
  0.7390639451490412  0.3624807509452114  0.5931209874076541   T   T   T
 
  0.00000000E+00  0.00000000E+00  0.00000000E+00
  0.00000000E+00  0.00000000E+00  0.00000000E+00
  0.00000000E+00  0.00000000E+00  0.00000000E+00
  0.00000000E+00  0.00000000E+00  0.00000000E+00
  0.00000000E+00  0.00000000E+00  0.00000000E+00
  0.00000000E+00  0.00000000E+00  0.00000000E+00
  0.00000000E+00  0.00000000E+00  0.00000000E+00
  0.00000000E+00  0.00000000E+00  0.00000000E+00
  0.00000000E+00  0.00000000E+00  0.00000000E+00
  0.00000000E+00  0.00000000E+00  0.00000000E+00
  0.00000000E+00  0.00000000E+00  0.00000000E+00
  0.00000000E+00  0.00000000E+00  0.00000000E+00
  0.00000000E+00  0.00000000E+00  0.00000000E+00
  0.00000000E+00  0.00000000E+00  0.00000000E+00
  0.00000000E+00  0.00000000E+00  0.00000000E+00
  0.00000000E+00  0.00000000E+00  0.00000000E+00
  0.00000000E+00  0.00000000E+00  0.00000000E+00
  0.00000000E+00  0.00000000E+00  0.00000000E+00
  0.00000000E+00  0.00000000E+00  0.00000000E+00
  0.00000000E+00  0.00000000E+00  0.00000000E+00
  0.00000000E+00  0.00000000E+00  0.00000000E+00
  0.00000000E+00  0.00000000E+00  0.00000000E+00
  0.00000000E+00  0.00000000E+00  0.00000000E+00
  0.00000000E+00  0.00000000E+00  0.00000000E+00
  0.00000000E+00  0.00000000E+00  0.00000000E+00
  0.00000000E+00  0.00000000E+00  0.00000000E+00
  0.00000000E+00  0.00000000E+00  0.00000000E+00
  0.00000000E+00  0.00000000E+00  0.00000000E+00
  0.00000000E+00  0.00000000E+00  0.00000000E+00
  0.00000000E+00  0.00000000E+00  0.00000000E+00
  0.00000000E+00  0.00000000E+00  0.00000000E+00
  0.00000000E+00  0.00000000E+00  0.00000000E+00
  0.00000000E+00  0.00000000E+00  0.00000000E+00
  0.00000000E+00  0.00000000E+00  0.00000000E+00
  0.00000000E+00  0.00000000E+00  0.00000000E+00
  0.00000000E+00  0.00000000E+00  0.00000000E+00
  0.00000000E+00  0.00000000E+00  0.00000000E+00
  0.00000000E+00  0.00000000E+00  0.00000000E+00
  0.00000000E+00  0.00000000E+00  0.00000000E+00
  0.00000000E+00  0.00000000E+00  0.00000000E+00
  0.00000000E+00  0.00000000E+00  0.00000000E+00
  0.00000000E+00  0.00000000E+00  0.00000000E+00
  0.00000000E+00  0.00000000E+00  0.00000000E+00
  0.00000000E+00  0.00000000E+00  0.00000000E+00
  0.00000000E+00  0.00000000E+00  0.00000000E+00
  0.00000000E+00  0.00000000E+00  0.00000000E+00
  0.00000000E+00  0.00000000E+00  0.00000000E+00
  0.00000000E+00  0.00000000E+00  0.00000000E+00
  0.00000000E+00  0.00000000E+00  0.00000000E+00
  0.00000000E+00  0.00000000E+00  0.00000000E+00
  0.00000000E+00  0.00000000E+00  0.00000000E+00
  0.00000000E+00  0.00000000E+00  0.00000000E+00
  0.00000000E+00  0.00000000E+00  0.00000000E+00
  0.00000000E+00  0.00000000E+00  0.00000000E+00
  0.00000000E+00  0.00000000E+00  0.00000000E+00
  0.00000000E+00  0.00000000E+00  0.00000000E+00
  0.00000000E+00  0.00000000E+00  0.00000000E+00
  0.00000000E+00  0.00000000E+00  0.00000000E+00
  0.00000000E+00  0.00000000E+00  0.00000000E+00
  0.00000000E+00  0.00000000E+00  0.00000000E+00
  0.00000000E+00  0.00000000E+00  0.00000000E+00
  0.00000000E+00  0.00000000E+00  0.00000000E+00
  0.00000000E+00  0.00000000E+00  0.00000000E+00
  0.00000000E+00  0.00000000E+00  0.00000000E+00
  0.00000000E+00  0.00000000E+00  0.00000000E+00
  0.00000000E+00  0.00000000E+00  0.00000000E+00
  0.00000000E+00  0.00000000E+00  0.00000000E+00
  0.00000000E+00  0.00000000E+00  0.00000000E+00
  0.00000000E+00  0.00000000E+00  0.00000000E+00
  0.00000000E+00  0.00000000E+00  0.00000000E+00
  0.00000000E+00  0.00000000E+00  0.00000000E+00
  0.00000000E+00  0.00000000E+00  0.00000000E+00
