 Ni\(1\1\1)                             
   1.00000000000000     
     9.8291997910000006    0.0000000000000000    0.0000000000000000
     4.9145998955000003    8.5123367178000002    0.0000000000000000
     0.0000000000000000    0.0000000000000000   19.0128002167000005
   Ni   O    C    H 
    64     3     2     1
Direct
  0.8291447121738982  0.5853421458431671  0.2704778043345589
  0.3306990375349093  0.0843652781486526  0.2698145577589079
  0.8291004609583302  0.0843819781693008  0.2701249021263438
  0.3296524797919249  0.5844333752125356  0.2697018207649834
  0.5799832661040412  0.8347984212044621  0.2698454287968681
  0.8294381763249873  0.8345502073618805  0.2699922148219244
  0.0796964236364926  0.3346745823712280  0.2698961936090397
  0.8299686983503506  0.3340178674395673  0.2703477259442438
  0.5802666438276305  0.5841254447395576  0.2703942875675427
  0.0794574628929938  0.5843268657001294  0.2703598264738577
  0.0795592460425012  0.0845993542643658  0.2696670325754996
  0.5797870481700589  0.0845804471165357  0.2708375219333332
  0.3296962480139735  0.8347713222236075  0.2695565452637414
  0.0795169613106710  0.8344128140582429  0.2697163745620191
  0.3296346022051078  0.3339635766498969  0.2703957596406178
  0.5800918664965351  0.3338692491861593  0.2703550417561478
  0.9138213859543870  0.6657816217263538  0.3768023481954232
  0.9127312857765278  0.4183767594035613  0.3750931879003438
  0.6640061556772264  0.6666863666119752  0.3762826070312973
  0.1646416750959079  0.1674833842644172  0.3741494064524863
  0.9132593197016871  0.1684305769349242  0.3759699572535166
  0.9129208661414732  0.9177898473011652  0.3748727501168418
  0.4146446733263304  0.9173827794338067  0.3748208597878705
  0.4123396434942934  0.1687144356909832  0.3772690070561992
  0.6644775639562657  0.1694781624985121  0.3768823932894106
  0.1630244603995528  0.6678667478224503  0.3749433119454746
  0.4132153926222072  0.6683821231663493  0.3744808218694505
  0.4133124290635689  0.4172599331043652  0.3745539797245430
  0.6640914689925517  0.9176746142349002  0.3756178326922469
  0.1626577522828958  0.4174621588206210  0.3761362749601130
  0.6643819578465147  0.4170920036150990  0.3759268603996682
  0.1628574010907659  0.9183046855622413  0.3745853435460186
  0.0026338169106227  0.2419791331377877  0.4776253603847603
  0.4989930303512676  0.2521206064563616  0.4814973408741260
  0.9965206660381968  0.7515656412229130  0.4806707879501583
  0.4969383747022119  0.7507326482219283  0.4808765831446536
  0.7451743361156701  0.7530652761751746  0.4810901972919819
  0.9928377697124161  0.5057924650159762  0.4839959254669762
  0.7414954341336581  0.5022739781665579  0.4863043602475895
  0.2517587127009649  0.9952639009947564  0.4794258050174018
  0.9987464195707118  0.9968974242302912  0.4802632037063653
  0.4992302560812014 -0.0000951613865233  0.4813529476767167
  0.2468300864165308  0.7507168097250804  0.4807445076786925
  0.7475894854453333  0.0033202884762927  0.4811314716327387
  0.2530293810429818  0.2473524362421096  0.4839660796665625
  0.7517073408181504  0.2535432982744686  0.4889959288493373
  0.2485405159618426  0.5026241727256384  0.4801050626118264
  0.4925508483218063  0.5032126469654183  0.4787222479825443
  0.9963219306926627  0.2506943487754818  0.1644623423167143
  0.4964668311421026  0.2506522736299254  0.1650746093331619
  0.9962602818584948  0.7503791951029377  0.1645032870756541
  0.4965518543674032  0.7502858302041610  0.1647333732885053
  0.7464998086815526  0.7502737299515531  0.1646142553397933
  0.9962896923505761  0.5008015850563412  0.1646248701410918
  0.7465299746305275  0.5005847654969831  0.1648399181824916
  0.2460973868825037  0.0007208686924269  0.1643064186949581
  0.9964757697470110  0.0007411934987085  0.1642410952531237
  0.4964439472217182  0.0008668244669633  0.1644525051129392
  0.2461909905985190  0.7505223922098838  0.1639483695171584
  0.7460131842295458  0.0008790685338782  0.1642245195800031
  0.2463031697385535  0.2507484021426616  0.1645646827480292
  0.7465068370345016  0.2506202293822744  0.1648102339171788
  0.2460887690611018  0.5004327029845933  0.1645766446216913
  0.4965038285844201  0.5005859576567180  0.1646669781675781
  0.0536315938580408  0.3471996831650510  0.5581323164727910
 -0.0007290425766987  0.2546647615325198  0.6574459122362168
  0.6945759706818575  0.3909793951950595  0.6208481127073480
  0.9564339216516480  0.3188196833601123  0.6009103786382729
  0.7950515145324316  0.3711602658199837  0.5676904278665168
  0.5917639124513715  0.4182423926165457  0.6003364494557919
 
  0.00000000E+00  0.00000000E+00  0.00000000E+00
  0.00000000E+00  0.00000000E+00  0.00000000E+00
  0.00000000E+00  0.00000000E+00  0.00000000E+00
  0.00000000E+00  0.00000000E+00  0.00000000E+00
  0.00000000E+00  0.00000000E+00  0.00000000E+00
  0.00000000E+00  0.00000000E+00  0.00000000E+00
  0.00000000E+00  0.00000000E+00  0.00000000E+00
  0.00000000E+00  0.00000000E+00  0.00000000E+00
  0.00000000E+00  0.00000000E+00  0.00000000E+00
  0.00000000E+00  0.00000000E+00  0.00000000E+00
  0.00000000E+00  0.00000000E+00  0.00000000E+00
  0.00000000E+00  0.00000000E+00  0.00000000E+00
  0.00000000E+00  0.00000000E+00  0.00000000E+00
  0.00000000E+00  0.00000000E+00  0.00000000E+00
  0.00000000E+00  0.00000000E+00  0.00000000E+00
  0.00000000E+00  0.00000000E+00  0.00000000E+00
  0.00000000E+00  0.00000000E+00  0.00000000E+00
  0.00000000E+00  0.00000000E+00  0.00000000E+00
  0.00000000E+00  0.00000000E+00  0.00000000E+00
  0.00000000E+00  0.00000000E+00  0.00000000E+00
  0.00000000E+00  0.00000000E+00  0.00000000E+00
  0.00000000E+00  0.00000000E+00  0.00000000E+00
  0.00000000E+00  0.00000000E+00  0.00000000E+00
  0.00000000E+00  0.00000000E+00  0.00000000E+00
  0.00000000E+00  0.00000000E+00  0.00000000E+00
  0.00000000E+00  0.00000000E+00  0.00000000E+00
  0.00000000E+00  0.00000000E+00  0.00000000E+00
  0.00000000E+00  0.00000000E+00  0.00000000E+00
  0.00000000E+00  0.00000000E+00  0.00000000E+00
  0.00000000E+00  0.00000000E+00  0.00000000E+00
  0.00000000E+00  0.00000000E+00  0.00000000E+00
  0.00000000E+00  0.00000000E+00  0.00000000E+00
  0.00000000E+00  0.00000000E+00  0.00000000E+00
  0.00000000E+00  0.00000000E+00  0.00000000E+00
  0.00000000E+00  0.00000000E+00  0.00000000E+00
  0.00000000E+00  0.00000000E+00  0.00000000E+00
  0.00000000E+00  0.00000000E+00  0.00000000E+00
  0.00000000E+00  0.00000000E+00  0.00000000E+00
  0.00000000E+00  0.00000000E+00  0.00000000E+00
  0.00000000E+00  0.00000000E+00  0.00000000E+00
  0.00000000E+00  0.00000000E+00  0.00000000E+00
  0.00000000E+00  0.00000000E+00  0.00000000E+00
  0.00000000E+00  0.00000000E+00  0.00000000E+00
  0.00000000E+00  0.00000000E+00  0.00000000E+00
  0.00000000E+00  0.00000000E+00  0.00000000E+00
  0.00000000E+00  0.00000000E+00  0.00000000E+00
  0.00000000E+00  0.00000000E+00  0.00000000E+00
  0.00000000E+00  0.00000000E+00  0.00000000E+00
  0.00000000E+00  0.00000000E+00  0.00000000E+00
  0.00000000E+00  0.00000000E+00  0.00000000E+00
  0.00000000E+00  0.00000000E+00  0.00000000E+00
  0.00000000E+00  0.00000000E+00  0.00000000E+00
  0.00000000E+00  0.00000000E+00  0.00000000E+00
  0.00000000E+00  0.00000000E+00  0.00000000E+00
  0.00000000E+00  0.00000000E+00  0.00000000E+00
  0.00000000E+00  0.00000000E+00  0.00000000E+00
  0.00000000E+00  0.00000000E+00  0.00000000E+00
  0.00000000E+00  0.00000000E+00  0.00000000E+00
  0.00000000E+00  0.00000000E+00  0.00000000E+00
  0.00000000E+00  0.00000000E+00  0.00000000E+00
  0.00000000E+00  0.00000000E+00  0.00000000E+00
  0.00000000E+00  0.00000000E+00  0.00000000E+00
  0.00000000E+00  0.00000000E+00  0.00000000E+00
  0.00000000E+00  0.00000000E+00  0.00000000E+00
  0.00000000E+00  0.00000000E+00  0.00000000E+00
  0.00000000E+00  0.00000000E+00  0.00000000E+00
  0.00000000E+00  0.00000000E+00  0.00000000E+00
  0.00000000E+00  0.00000000E+00  0.00000000E+00
  0.00000000E+00  0.00000000E+00  0.00000000E+00
  0.00000000E+00  0.00000000E+00  0.00000000E+00
