Au                                      
   1.00000000000000     
    11.5838999999999999    0.0000000000000000    0.0000000000000007
    -5.7919499999999990   10.0319516748985595    0.0000000000000007
     0.0000000000000000    0.0000000000000000   17.0936999999999983
   Au   C    O 
    64     1     1
Selective dynamics
Direct
  0.0000000000000000  0.0000000000000000  0.0000000000000000   F   F   F
  0.3333332999999996  0.1666700000000034  0.1383300000000034   F   F   F
  0.1677784511484395  0.3354934746807298  0.2775160962332088   T   T   T
  0.0005238917281390  0.0008993307098379  0.4240069053656361   T   T   T
  0.2500000000000000  0.0000000000000000  0.0000000000000000   F   F   F
  0.0833299999999966  0.1666700000000034  0.1383300000000034   F   F   F
  0.4161431379033082  0.3319901070032124  0.2754686607966105   T   T   T
  0.2499951696492466  0.0037549048313078  0.4214801562404034   T   T   T
  0.2500000000000000  0.2500000000000000  0.0000000000000000   F   F   F
  0.0833299999999966  0.4166700000000034  0.1383300000000034   F   F   F
  0.4160093806264303  0.0842402795368394  0.2754613760609872   T   T   T
  0.2500052324624095  0.2480747729811355  0.4217349653997623   T   T   T
  0.0000000000000000  0.2500000000000000  0.0000000000000000   F   F   F
  0.3333332999999996  0.4166700000000034  0.1383300000000034   F   F   F
  0.1653608969998768  0.0830183159803545  0.2757585678575213   T   T   T
 -0.0018438245104694  0.2481192669421363  0.4217176615970559   T   T   T
  0.5000000000000000  0.0000000000000000  0.0000000000000000   F   F   F
  0.8333299999999966  0.1666700000000034  0.1383300000000034   F   F   F
  0.6667797474102274  0.3335142987568395  0.2765319249686573   T   T   T
  0.5025019239771483  0.0048730392156540  0.4171946257559616   T   T   T
  0.7500000000000000  0.0000000000000000  0.0000000000000000   F   F   F
  0.5833299999999966  0.1666700000000034  0.1383300000000034   F   F   F
  0.9158754391385250  0.3319751382977569  0.2754532810527319   T   T   T
  0.7538977880695522  0.0037527294413241  0.4214363714717924   T   T   T
  0.7500000000000000  0.2500000000000000  0.0000000000000000   F   F   F
  0.5833299999999966  0.4166700000000034  0.1383300000000034   F   F   F
  0.9176905121994132  0.0830446902641774  0.2757841840908954   T   T   T
  0.7498971310219102  0.2512202664258613  0.4223513075163953   T   T   T
  0.5000000000000000  0.2500000000000000  0.0000000000000000   F   F   F
  0.8333299999999966  0.4166700000000034  0.1383300000000034   F   F   F
  0.6682142279049130  0.0842488278452606  0.2754496526717672   T   T   T
  0.5014011923148338  0.2512336271350989  0.4223611715704703   T   T   T
  0.0000000000000000  0.5000000000000000  0.0000000000000000   F   F   F
  0.3333332999999996  0.6666667000000004  0.1383300000000034   F   F   F
  0.1676801221126780  0.8326834913876054  0.2773929835389706   T   T   T
 -0.0038350661815236  0.4986145414398322  0.4172941078106975   T   T   T
  0.2500000000000000  0.5000000000000000  0.0000000000000000   F   F   F
  0.0833299999999966  0.6666667000000004  0.1383300000000034   F   F   F
  0.4169033145406900  0.8336903207574344  0.2752034213851869   T   T   T
  0.2457179653115702  0.4912661822684084  0.4225190146880453   T   T   T
  0.2500000000000000  0.7500000000000000  0.0000000000000000   F   F   F
  0.0833299999999966  0.9166700000000034  0.1383300000000034   F   F   F
  0.4168925192690418  0.5833607604766615  0.2752518773344241   T   T   T
  0.2453029057384963  0.7557766629342121  0.4221994858566221   T   T   T
  0.0000000000000000  0.7500000000000000  0.0000000000000000   F   F   F
  0.3333332999999996  0.9166700000000034  0.1383300000000034   F   F   F
  0.1664998443136095  0.5833430344835890  0.2752538670523974   T   T   T
 -0.0022503223005527  0.7513254835365726  0.4214798530726046   T   T   T
  0.5000000000000000  0.5000000000000000  0.0000000000000000   F   F   F
  0.8333299999999966  0.6666667000000004  0.1383300000000034   F   F   F
  0.6651221712872213  0.8327254243120092  0.2773579365692496   T   T   T
  0.5025663457478917  0.4986698140563866  0.4172848473862548   T   T   T
  0.7500000000000000  0.5000000000000000  0.0000000000000000   F   F   F
  0.5833299999999966  0.6666667000000004  0.1383300000000034   F   F   F
  0.9175193402767957  0.8349197067671228  0.2756966741772885   T   T   T
  0.7498204092161119  0.4995628874296629  0.4224336348239848   T   T   T
  0.7500000000000000  0.7500000000000000  0.0000000000000000   F   F   F
  0.5833299999999966  0.9166700000000034  0.1383300000000034   F   F   F
  0.9159787997144180  0.5841444550771152  0.2754823282710600   T   T   T
  0.7536048055496978  0.7513432294839915  0.4214165581438516   T   T   T
  0.5000000000000000  0.7500000000000000  0.0000000000000000   F   F   F
  0.8333299999999966  0.9166700000000034  0.1383300000000034   F   F   F
  0.6682019129064672  0.5841405772023872  0.2754588768766089   T   T   T
  0.5106312830576091  0.7558298739263922  0.4222255032580925   T   T   T
  0.3346819000463636  0.6691624129463385  0.5012416575470456   T   T   T
  0.3346808769157668  0.6690614112195126  0.5703528212700989   T   T   T
 
  0.00000000E+00  0.00000000E+00  0.00000000E+00
  0.00000000E+00  0.00000000E+00  0.00000000E+00
  0.00000000E+00  0.00000000E+00  0.00000000E+00
  0.00000000E+00  0.00000000E+00  0.00000000E+00
  0.00000000E+00  0.00000000E+00  0.00000000E+00
  0.00000000E+00  0.00000000E+00  0.00000000E+00
  0.00000000E+00  0.00000000E+00  0.00000000E+00
  0.00000000E+00  0.00000000E+00  0.00000000E+00
  0.00000000E+00  0.00000000E+00  0.00000000E+00
  0.00000000E+00  0.00000000E+00  0.00000000E+00
  0.00000000E+00  0.00000000E+00  0.00000000E+00
  0.00000000E+00  0.00000000E+00  0.00000000E+00
  0.00000000E+00  0.00000000E+00  0.00000000E+00
  0.00000000E+00  0.00000000E+00  0.00000000E+00
  0.00000000E+00  0.00000000E+00  0.00000000E+00
  0.00000000E+00  0.00000000E+00  0.00000000E+00
  0.00000000E+00  0.00000000E+00  0.00000000E+00
  0.00000000E+00  0.00000000E+00  0.00000000E+00
  0.00000000E+00  0.00000000E+00  0.00000000E+00
  0.00000000E+00  0.00000000E+00  0.00000000E+00
  0.00000000E+00  0.00000000E+00  0.00000000E+00
  0.00000000E+00  0.00000000E+00  0.00000000E+00
  0.00000000E+00  0.00000000E+00  0.00000000E+00
  0.00000000E+00  0.00000000E+00  0.00000000E+00
  0.00000000E+00  0.00000000E+00  0.00000000E+00
  0.00000000E+00  0.00000000E+00  0.00000000E+00
  0.00000000E+00  0.00000000E+00  0.00000000E+00
  0.00000000E+00  0.00000000E+00  0.00000000E+00
  0.00000000E+00  0.00000000E+00  0.00000000E+00
  0.00000000E+00  0.00000000E+00  0.00000000E+00
  0.00000000E+00  0.00000000E+00  0.00000000E+00
  0.00000000E+00  0.00000000E+00  0.00000000E+00
  0.00000000E+00  0.00000000E+00  0.00000000E+00
  0.00000000E+00  0.00000000E+00  0.00000000E+00
  0.00000000E+00  0.00000000E+00  0.00000000E+00
  0.00000000E+00  0.00000000E+00  0.00000000E+00
  0.00000000E+00  0.00000000E+00  0.00000000E+00
  0.00000000E+00  0.00000000E+00  0.00000000E+00
  0.00000000E+00  0.00000000E+00  0.00000000E+00
  0.00000000E+00  0.00000000E+00  0.00000000E+00
  0.00000000E+00  0.00000000E+00  0.00000000E+00
  0.00000000E+00  0.00000000E+00  0.00000000E+00
  0.00000000E+00  0.00000000E+00  0.00000000E+00
  0.00000000E+00  0.00000000E+00  0.00000000E+00
  0.00000000E+00  0.00000000E+00  0.00000000E+00
  0.00000000E+00  0.00000000E+00  0.00000000E+00
  0.00000000E+00  0.00000000E+00  0.00000000E+00
  0.00000000E+00  0.00000000E+00  0.00000000E+00
  0.00000000E+00  0.00000000E+00  0.00000000E+00
  0.00000000E+00  0.00000000E+00  0.00000000E+00
  0.00000000E+00  0.00000000E+00  0.00000000E+00
  0.00000000E+00  0.00000000E+00  0.00000000E+00
  0.00000000E+00  0.00000000E+00  0.00000000E+00
  0.00000000E+00  0.00000000E+00  0.00000000E+00
  0.00000000E+00  0.00000000E+00  0.00000000E+00
  0.00000000E+00  0.00000000E+00  0.00000000E+00
  0.00000000E+00  0.00000000E+00  0.00000000E+00
  0.00000000E+00  0.00000000E+00  0.00000000E+00
  0.00000000E+00  0.00000000E+00  0.00000000E+00
  0.00000000E+00  0.00000000E+00  0.00000000E+00
  0.00000000E+00  0.00000000E+00  0.00000000E+00
  0.00000000E+00  0.00000000E+00  0.00000000E+00
  0.00000000E+00  0.00000000E+00  0.00000000E+00
  0.00000000E+00  0.00000000E+00  0.00000000E+00
  0.00000000E+00  0.00000000E+00  0.00000000E+00
  0.00000000E+00  0.00000000E+00  0.00000000E+00
