Ni                                      
   1.00000000000000     
     9.7777999999999992    0.0000000000000000    0.0000000000000006
    -4.8888999999999987    8.4678231931234844    0.0000000000000006
     0.0000000000000000    0.0000000000000000   20.9877000000000002
   Ni   C    H 
    64     1     2
Selective dynamics
Direct
  0.9999985999999979  0.0000014000000021  0.9987795999999989   F   F   F
  0.3333353000000017  0.1666680000000014  0.0946606999999986   F   F   F
  0.1668568885434050  0.3338885733919884  0.1906296117216454   T   T   T
 -0.0001967487129413  0.0005169862900230  0.2865763284041002   T   T   T
  0.2499985999999979  0.0000014000000021  0.9987795999999989   F   F   F
  0.0833319999999986  0.1666680000000014  0.0946606999999986   F   F   F
  0.4163395735299595  0.3333377234690491  0.1903339254314459   T   T   T
  0.2496107144694352  0.0020706164551628  0.2862463586946636   T   T   T
  0.2499985999999979  0.2500014000000021  0.9987795999999989   F   F   F
  0.0833319999999986  0.4166680000000014  0.0946606999999986   F   F   F
  0.4165572345223105  0.0832530924354017  0.1903584378868896   T   T   T
  0.2499345914111758  0.2506563521296568  0.2863178277289279   T   T   T
  0.9999985999999979  0.2500014000000021  0.9987795999999989   F   F   F
  0.3333353000000017  0.4166680000000014  0.0946606999999986   F   F   F
  0.1665543382418901  0.0833535423873932  0.1903497821136586   T   T   T
  0.0002260322168635  0.2504348663240774  0.2864300825502517   T   T   T
  0.4999985999999979  0.0000014000000021  0.9987795999999989   F   F   F
  0.8333319999999986  0.1666680000000014  0.0946606999999986   F   F   F
  0.6666359998538908  0.3335419965294514  0.1904675403966763   T   T   T
  0.5022393402114951  0.0043401996213156  0.2858940888622124   T   T   T
  0.7499985999999979  0.0000014000000021  0.9987795999999989   F   F   F
  0.5833319999999986  0.1666680000000014  0.0946606999999986   F   F   F
  0.9167426292417103  0.3333619383518113  0.1903061032153635   T   T   T
  0.7499579477080390  0.0000777039627741  0.2863858633822718   T   T   T
  0.7499985999999979  0.2500014000000021  0.9987795999999989   F   F   F
  0.5833319999999986  0.4166680000000014  0.0946606999999986   F   F   F
  0.9165815557942275  0.0835164704603269  0.1905481263606798   T   T   T
  0.7499933066045213  0.2500421363842809  0.2864654050120933   T   T   T
  0.4999985999999979  0.2500014000000021  0.9987795999999989   F   F   F
  0.8333319999999986  0.4166680000000014  0.0946606999999986   F   F   F
  0.6666786064685851  0.0832594133136447  0.1902621993602255   T   T   T
  0.4999695956973045  0.2505085877036674  0.2865984857341247   T   T   T
  0.9999985999999979  0.5000014000000021  0.9987795999999989   F   F   F
  0.3333353000000017  0.6666646999999983  0.0946606999999986   F   F   F
  0.1676564243790000  0.8324616956697743  0.1916387894347969   T   T   T
 -0.0041357113756000  0.4979348105141992  0.2858844159878590   T   T   T
  0.2499985999999979  0.5000014000000021  0.9987795999999989   F   F   F
  0.0833319999999986  0.6666646999999983  0.0946606999999986   F   F   F
  0.4167611050298224  0.8330428868129152  0.1906366149683253   T   T   T
  0.2492826338467880  0.4988893715035209  0.2900343315006151   T   T   T
  0.2499985999999979  0.7500014000000021  0.9987795999999989   F   F   F
  0.0833319999999986  0.9166680000000014  0.0946606999999986   F   F   F
  0.4163870509842524  0.5837288715159725  0.1906363080906132   T   T   T
  0.2479498190649611  0.7524157392547161  0.2895799454076847   T   T   T
  0.9999985999999979  0.7500014000000021  0.9987795999999989   F   F   F
  0.3333353000000017  0.9166680000000014  0.0946606999999986   F   F   F
  0.1671248339123976  0.5832878752014462  0.1906513625269246   T   T   T
 -0.0019401586088396  0.7505695631287584  0.2862587146269540   T   T   T
  0.4999985999999979  0.5000014000000021  0.9987795999999989   F   F   F
  0.8333319999999986  0.6666646999999983  0.0946606999999986   F   F   F
  0.6662803327943764  0.8332589649684579  0.1905313034595009   T   T   T
  0.5019579603666141  0.4985969281820283  0.2857233299651599   T   T   T
  0.7499985999999979  0.5000014000000021  0.9987795999999989   F   F   F
  0.5833319999999986  0.6666646999999983  0.0946606999999986   F   F   F
  0.9167261587213390  0.8334938519957197  0.1903799593209130   T   T   T
  0.7497826813801981  0.5002085875605757  0.2866663228978613   T   T   T
  0.7499985999999979  0.7500014000000021  0.9987795999999989   F   F   F
  0.5833319999999986  0.9166680000000014  0.0946606999999986   F   F   F
  0.9168911278901470  0.5836024447119491  0.1904073615811138   T   T   T
  0.7497666198616389  0.7505529437031428  0.2863045699463244   T   T   T
  0.4999985999999979  0.7500014000000021  0.9987795999999989   F   F   F
  0.8333319999999986  0.9166680000000014  0.0946606999999986   F   F   F
  0.6667241211140131  0.5837167521552526  0.1903493528669135   T   T   T
  0.5013681568798191  0.7514457971730890  0.2895609199321171   T   T   T
  0.3353766902856978  0.6656967642337281  0.3508498554100617   T   T   T
  0.3727880065246202  0.6343632546228305  0.3953873837712613   T   T   T
  0.2680975058620160  0.7282964769503387  0.3698086899682830   T   T   T
 
  0.00000000E+00  0.00000000E+00  0.00000000E+00
  0.00000000E+00  0.00000000E+00  0.00000000E+00
  0.00000000E+00  0.00000000E+00  0.00000000E+00
  0.00000000E+00  0.00000000E+00  0.00000000E+00
  0.00000000E+00  0.00000000E+00  0.00000000E+00
  0.00000000E+00  0.00000000E+00  0.00000000E+00
  0.00000000E+00  0.00000000E+00  0.00000000E+00
  0.00000000E+00  0.00000000E+00  0.00000000E+00
  0.00000000E+00  0.00000000E+00  0.00000000E+00
  0.00000000E+00  0.00000000E+00  0.00000000E+00
  0.00000000E+00  0.00000000E+00  0.00000000E+00
  0.00000000E+00  0.00000000E+00  0.00000000E+00
  0.00000000E+00  0.00000000E+00  0.00000000E+00
  0.00000000E+00  0.00000000E+00  0.00000000E+00
  0.00000000E+00  0.00000000E+00  0.00000000E+00
  0.00000000E+00  0.00000000E+00  0.00000000E+00
  0.00000000E+00  0.00000000E+00  0.00000000E+00
  0.00000000E+00  0.00000000E+00  0.00000000E+00
  0.00000000E+00  0.00000000E+00  0.00000000E+00
  0.00000000E+00  0.00000000E+00  0.00000000E+00
  0.00000000E+00  0.00000000E+00  0.00000000E+00
  0.00000000E+00  0.00000000E+00  0.00000000E+00
  0.00000000E+00  0.00000000E+00  0.00000000E+00
  0.00000000E+00  0.00000000E+00  0.00000000E+00
  0.00000000E+00  0.00000000E+00  0.00000000E+00
  0.00000000E+00  0.00000000E+00  0.00000000E+00
  0.00000000E+00  0.00000000E+00  0.00000000E+00
  0.00000000E+00  0.00000000E+00  0.00000000E+00
  0.00000000E+00  0.00000000E+00  0.00000000E+00
  0.00000000E+00  0.00000000E+00  0.00000000E+00
  0.00000000E+00  0.00000000E+00  0.00000000E+00
  0.00000000E+00  0.00000000E+00  0.00000000E+00
  0.00000000E+00  0.00000000E+00  0.00000000E+00
  0.00000000E+00  0.00000000E+00  0.00000000E+00
  0.00000000E+00  0.00000000E+00  0.00000000E+00
  0.00000000E+00  0.00000000E+00  0.00000000E+00
  0.00000000E+00  0.00000000E+00  0.00000000E+00
  0.00000000E+00  0.00000000E+00  0.00000000E+00
  0.00000000E+00  0.00000000E+00  0.00000000E+00
  0.00000000E+00  0.00000000E+00  0.00000000E+00
  0.00000000E+00  0.00000000E+00  0.00000000E+00
  0.00000000E+00  0.00000000E+00  0.00000000E+00
  0.00000000E+00  0.00000000E+00  0.00000000E+00
  0.00000000E+00  0.00000000E+00  0.00000000E+00
  0.00000000E+00  0.00000000E+00  0.00000000E+00
  0.00000000E+00  0.00000000E+00  0.00000000E+00
  0.00000000E+00  0.00000000E+00  0.00000000E+00
  0.00000000E+00  0.00000000E+00  0.00000000E+00
  0.00000000E+00  0.00000000E+00  0.00000000E+00
  0.00000000E+00  0.00000000E+00  0.00000000E+00
  0.00000000E+00  0.00000000E+00  0.00000000E+00
  0.00000000E+00  0.00000000E+00  0.00000000E+00
  0.00000000E+00  0.00000000E+00  0.00000000E+00
  0.00000000E+00  0.00000000E+00  0.00000000E+00
  0.00000000E+00  0.00000000E+00  0.00000000E+00
  0.00000000E+00  0.00000000E+00  0.00000000E+00
  0.00000000E+00  0.00000000E+00  0.00000000E+00
  0.00000000E+00  0.00000000E+00  0.00000000E+00
  0.00000000E+00  0.00000000E+00  0.00000000E+00
  0.00000000E+00  0.00000000E+00  0.00000000E+00
  0.00000000E+00  0.00000000E+00  0.00000000E+00
  0.00000000E+00  0.00000000E+00  0.00000000E+00
  0.00000000E+00  0.00000000E+00  0.00000000E+00
  0.00000000E+00  0.00000000E+00  0.00000000E+00
  0.00000000E+00  0.00000000E+00  0.00000000E+00
  0.00000000E+00  0.00000000E+00  0.00000000E+00
  0.00000000E+00  0.00000000E+00  0.00000000E+00
