 Ni_O                                   
   1.00000000000000     
     9.8292000000000002    0.0000000000000000    0.0000000000000000
     4.9146000000000001    8.5123370000000005    0.0000000000000000
     0.0000000000000000    0.0000000000000000   33.0128020000000006
   Ni   O    H    C 
    64    35    62     2
Selective dynamics
Direct
  0.8161304599999966  0.5889720300000008  0.1200248399999992   F   F   F
  0.3267620199999968  0.0893950099999969  0.1211907300000021   F   F   F
  0.8281435399999992  0.0930463300000000  0.1197676299999983   F   F   F
  0.3295063099999993  0.5878229699999977  0.1215391799999992   F   F   F
  0.5760458099999965  0.8344787999999994  0.1202235299999970   F   F   F
  0.8191150399999998  0.8479825300000030  0.1227014700000026   F   F   F
  0.0724901800000026  0.3403221100000025  0.1244834100000034   F   F   F
  0.8360156999999973  0.3349392399999971  0.1203170300000025   F   F   F
  0.5719467400000013  0.5928171899999981  0.1215288300000026   F   F   F
  0.0639449900000031  0.5965508800000023  0.1207646699999998   F   F   F
  0.0879175800000027  0.0802031899999989  0.1190218400000020   F   F   F
  0.5738104599999971  0.0977474800000024  0.1218458600000005   F   F   F
  0.3280706099999975  0.8348992499999994  0.1225252200000000   F   F   F
  0.0801046300000010  0.8404303200000030  0.1228029800000030   F   F   F
  0.3222068800000031  0.3505104500000016  0.1209987599999991   F   F   F
  0.5919944600000022  0.3370575900000006  0.1200636499999987   F   F   F
  0.9008264802246582  0.6793656233737715  0.1858958336088774   T   T   T
  0.8980672530012577  0.4339134080709360  0.1844846608751780   T   T   T
  0.6564217740805585  0.6796625619394575  0.1825992489669012   T   T   T
  0.1544916418725824  0.1855729172749425  0.1819623470338040   T   T   T
  0.9175025869147093  0.1758385274224745  0.1801056195627772   T   T   T
  0.8965339936120001  0.9291727404113461  0.1842684562036321   T   T   T
  0.4008730717291785  0.9331628515359409  0.1798329052719752   T   T   T
  0.3969785600040827  0.1925240437178595  0.1833669097341779   T   T   T
  0.6520115980672458  0.1877600290100127  0.1822410497909840   T   T   T
  0.1534854739609201  0.6781433292624087  0.1829459520094276   T   T   T
  0.4161675464952852  0.6776613580728397  0.1847481184330167   T   T   T
  0.3966276955681689  0.4392587794451456  0.1830039840833746   T   T   T
  0.6520354152779108  0.9210934777842881  0.1815111497850825   T   T   T
  0.1509919928655157  0.4301903702427659  0.1865366809839154   T   T   T
  0.6659617124300536  0.4225915955982834  0.1821839347950904   T   T   T
  0.1496406784712447  0.9303861496089652  0.1803556535972634   T   T   T
  0.9802723139203049  0.2663998625858752  0.2405218663133737   T   T   T
  0.4925112387262559  0.2511735161625334  0.2426804464459730   T   T   T
  0.9718664534989705  0.7624583254068353  0.2442926004103503   T   T   T
  0.4774423800324993  0.7649335468051497  0.2461518296103105   T   T   T
  0.7221896082614376  0.7607158618836960  0.2457971408886983   T   T   T
  0.9835442948946180  0.5166561022937517  0.2493108384613072   T   T   T
  0.7409358827891988  0.5011123846221314  0.2480263750793744   T   T   T
  0.2118203724858684  0.0159934673133666  0.2414822868269266   T   T   T
  0.9945204699179828 -0.0048321118930692  0.2448033942051443   T   T   T
  0.4708992546206455  0.0086870847370639  0.2440143437138918   T   T   T
  0.2378521498124178  0.7686242918078164  0.2431028957093335   T   T   T
  0.7356240467722733  0.0020000285009782  0.2444837676419192   T   T   T
  0.2233841560246101  0.2582376459388105  0.2485956622560535   T   T   T
  0.7440931034081089  0.2520270642432920  0.2437965189540064   T   T   T
  0.2273063693040225  0.5167914334714284  0.2458274851204890   T   T   T
  0.4982899459834647  0.4964310935730273  0.2455712449078349   T   T   T
  0.9970724599999983  0.2558556800000034  0.0591330299999981   F   F   F
  0.4999617900000004  0.2500875899999997  0.0594854499999968   F   F   F
  0.9968841700000013  0.7476991999999996  0.0595123700000002   F   F   F
  0.5054474499999984  0.7476859100000013  0.0599706799999993   F   F   F
  0.7507219900000024  0.7486395199999976  0.0599869200000001   F   F   F
  0.9979410799999968  0.5014025600000025  0.0599954500000024   F   F   F
  0.7507273000000012  0.5014378999999991  0.0601539399999993   F   F   F
  0.2484077800000009  0.9989653800000013  0.0601723600000028   F   F   F
  0.0026835399999996  0.9989392800000019  0.0602141099999969   F   F   F
  0.5037178999999981  0.9979203299999995  0.0602187799999996   F   F   F
  0.2483221600000007  0.7533767799999964  0.0603571799999969   F   F   F
  0.7484136200000009  0.9978805200000025  0.0603965999999971   F   F   F
  0.2473094799999984  0.2543786800000021  0.0604625599999977   F   F   F
  0.7483561600000002  0.2543461599999972  0.0604678400000012   F   F   F
  0.2472921900000031  0.4989472600000013  0.0606285499999970   F   F   F
  0.5037960399999974  0.4989156700000024  0.0606926999999970   F   F   F
  0.5651670400659999  0.8443064984796308  0.2834465531699021   T   T   T
  0.8185669371875623  0.0874159532605367  0.2792264163093731   T   T   T
  0.3262626891592889  0.6016706607467233  0.2790297650605599   T   T   T
  0.3370608889351704  0.4837849106136521  0.5582832121202058   T   T   T
  0.4393000842557546  0.0409179274517167  0.4873950492135637   T   T   T
  0.4799733466545888  0.7567685727857844  0.5144775224263105   T   T   T
  1.1742835651571326  0.8879722659452406  0.5325219097625693   T   T   T
  0.9814855018645871  0.7704931922067444  0.3170753221764042   T   T   T
  0.1339874761210541  0.2367815785173754  0.6042197380024766   T   T   T
  0.9724783425593188  0.5063350318194649  0.3090093255947758   T   T   T
  0.2888627758870626  0.6945879978247346  0.3545325074966310   T   T   T
  0.5203309647663606  0.7649536966432093  0.3564465807657372   T   T   T
  0.8429141173062455  0.1179200631250955  0.4477140472819395   T   T   T
  0.1814766334842292  0.5632709599879033  0.4822633666704616   T   T   T
  0.7976709820035339 -0.1536995022307673  0.5637262474998866   T   T   T
  0.6127864644774308  0.4168711245618461  0.5917932837699561   T   T   T
  0.6834045761123591 -0.0385753106126704  0.3447570213467455   T   T   T
  0.5925760280563337  0.0838638187476473  0.4241487084844825   T   T   T
  0.3841474172084568  0.4825874691239042  0.4123313215894868   T   T   T
  0.8268623563212210  0.6054866349748873  0.4232836976776316   T   T   T
  0.6913037552536433  0.5028230438054381  0.3140563827524299   T   T   T
  0.9860246538419640  0.3119178721873287  0.5353735061647776   T   T   T
  0.9394254150592284  0.8410139490982524  0.4936576534969207   T   T   T
  0.7885557014316308  0.2012834453200383  0.5352366890233030   T   T   T
  1.0941525422915579  0.7331431400532774  0.5984659351901988   T   T   T
  0.1545808006296279  0.2938625867717256  0.4680931044944697   T   T   T
  0.9978079666465838  0.0442701880585011  0.3751915396266746   T   T   T
  0.6629174941900233  0.2829538469153999  0.3500417274445242   T   T   T
  0.4807070174546660  0.0927037213611766  0.5667268969701559   T   T   T
  0.7618053858035548  0.6102028478413122  0.5542061988613304   T   T   T
  0.1063478292691339  0.9876666888762543  0.6364681292300284   T   T   T
  0.5900708198717693  0.5108952751221613  0.4591538103075414   T   T   T
  1.0438726267958380  0.3136083233131697  0.3903761233875903   T   T   T
  0.3295043717462791  0.2906367154465578  0.3565923647052738   T   T   T
  0.4779812162958950  0.2114010784723647  0.2995962827213602   T   T   T
  0.2545060533638207  0.5565293402625184  0.5770254807802004   T   T   T
  0.2892272928045088  0.5128031967298095  0.5312240446222064   T   T   T
  0.4416655890224634  0.0599006889203855  0.5160356749880385   T   T   T
  0.5051535740479386  0.0665428979288683  0.4696666166600564   T   T   T
  0.3585103146697838  0.7899923128963423  0.5199623731738846   T   T   T
  0.4701870986981718  0.8569809161501745  0.5037973859137229   T   T   T
  1.1045216389952779  0.8469200954107351  0.5207922147429426   T   T   T
  1.1698179306962224  0.8931502569298726  0.5632257736884676   T   T   T
  0.8792842127510405  0.8534117266242334  0.3318178202986080   T   T   T
  0.0685742609090595  0.7532196718648544  0.3362185720999147   T   T   T
  1.0840416748628756  0.2403809845666826  0.5767222079802419   T   T   T
  0.1115038264512336  0.3403757722389942  0.6126325401084920   T   T   T
  0.9707651057389493  0.6008384977022576  0.3218070880734677   T   T   T
  0.3068493551737725  0.6382396939910233  0.3285372059718567   T   T   T
  0.3171660823315350  0.6138219379209594  0.3783729291513434   T   T   T
  0.4178209996287361  0.7617627807885829  0.3615950916244731   T   T   T
  0.5592575942646596  0.7535583920558748  0.3844728819386069   T   T   T
  0.8897556102042478  0.1109083622986953  0.4196295117310440   T   T   T
  0.8266680872429213  0.2088835963102762  0.4639813880993046   T   T   T
  0.2544457938199418  0.5403599070382222  0.4592555764065684   T   T   T
  1.0996810065725269  0.6733620660131948  0.4815181136670037   T   T   T
  0.6928489240149821 -0.0663222526398620  0.5699771308261011   T   T   T
  0.7869167002171228  0.7436107153983901  0.5634255721361201   T   T   T
  0.6783475329992511  0.4611531225174089  0.5850812215591249   T   T   T
  0.5152771240361655  0.4724655126142954  0.5743956505011208   T   T   T
  0.6525616596353307  0.0507846799285187  0.3245697893570040   T   T   T
  0.6306927950097498  0.9055196482684289  0.3352876549703541   T   T   T
  0.6395679712641889  0.0357358174626700  0.3982106337521982   T   T   T
  0.6635109567325179  0.1196903015657834  0.4364854605984944   T   T   T
  0.4732059529533109  0.4849591107326364  0.4255012322881057   T   T   T
  0.4245526588479907  0.3724381571258449  0.4048930370666925   T   T   T
  0.9038324019721813  0.6237307822355772  0.4379794235374879   T   T   T
  0.8993168517375999  0.5033187722105050  0.4102941665042273   T   T   T
  0.6108758404274869  0.6102917238137682  0.3252592888748811   T   T   T
  0.6662830551884791  0.4279683587002430  0.3313708339030450   T   T   T
  0.9332397538249930  0.2544994839126009  0.5326579701576102   T   T   T
  1.0374347890358615  0.3164379307371020  0.5097715220268894   T   T   T
  0.8940851309606542  0.9366446848296539  0.4739478842806242   T   T   T
  0.8695784700584560  0.8498291895442692  0.5164824206905716   T   T   T
  0.7265513454890770  0.2694314893768993  0.5600338532316094   T   T   T
  0.8481585080713140  0.0888021201189408  0.5463784176393149   T   T   T
  0.0881637445122034  0.8269101702262288  0.6130598188445677   T   T   T
  0.9858790985050936  0.7708996154950505  0.5871742882061057   T   T   T
  0.2683956836588239  0.2025720668703591  0.4724806643011483   T   T   T
  0.1511223057151832  0.4004552159741924  0.4697218599525855   T   T   T
  1.0532292110911621  0.1053689531950223  0.3776873534983232   T   T   T
  0.0883019035612816  0.9327961265782672  0.3781963422259322   T   T   T
  0.5973062314610259  0.2728390882153051  0.3278530140235212   T   T   T
  0.7751883733655535  0.2040601907740810  0.3508351799450405   T   T   T
  0.3912609125377780  0.1055800477782762  0.5804073585393685   T   T   T
  0.4684497176170544  0.1963868724532231  0.5675170282783536   T   T   T
  0.8362590852555722  0.5030448361600410  0.5487045528696944   T   T   T
  0.6639115371964858  0.6377716582471372  0.5392325514789236   T   T   T
  0.2000478189425687  0.9149008871433835  0.6489269063614280   T   T   T
  0.1086084957906272  1.0721196240389865  0.6250916917910206   T   T   T
  0.5480900412872243  0.5881367223178876  0.4820619680008868   T   T   T
  0.6687887762420590  0.5375233895879103  0.4469522027701253   T   T   T
  0.0965772906148322  0.2832078817751066  0.4172325890196474   T   T   T
  0.1308333737725534  0.3285626407900109  0.3781068236388478   T   T   T
  0.8750939663020658  0.5056526297239120  0.3201592293443806   T   T   T
  0.1309823925541876  0.2168754237548479  0.3179923183956785   T   T   T
  0.3226855950508874  0.0620960433971462  0.3083992428823717   T   T   T
  0.3431570792862459  0.2422706486253646  0.3211904766755244   T   T   T
  0.2476137263798535  0.1868707031280087  0.3031623286566564   T   T   T
 
  0.00000000E+00  0.00000000E+00  0.00000000E+00
  0.00000000E+00  0.00000000E+00  0.00000000E+00
  0.00000000E+00  0.00000000E+00  0.00000000E+00
  0.00000000E+00  0.00000000E+00  0.00000000E+00
  0.00000000E+00  0.00000000E+00  0.00000000E+00
  0.00000000E+00  0.00000000E+00  0.00000000E+00
  0.00000000E+00  0.00000000E+00  0.00000000E+00
  0.00000000E+00  0.00000000E+00  0.00000000E+00
  0.00000000E+00  0.00000000E+00  0.00000000E+00
  0.00000000E+00  0.00000000E+00  0.00000000E+00
  0.00000000E+00  0.00000000E+00  0.00000000E+00
  0.00000000E+00  0.00000000E+00  0.00000000E+00
  0.00000000E+00  0.00000000E+00  0.00000000E+00
  0.00000000E+00  0.00000000E+00  0.00000000E+00
  0.00000000E+00  0.00000000E+00  0.00000000E+00
  0.00000000E+00  0.00000000E+00  0.00000000E+00
 -0.25089117E-02 -0.12522780E-02  0.74540728E-03
  0.26434365E-03  0.68600879E-03  0.19665598E-03
 -0.10012372E-02 -0.60161870E-03 -0.37685945E-02
 -0.22213013E-02 -0.17657443E-02 -0.67576704E-03
 -0.18014437E-02  0.38114370E-02 -0.16896914E-02
  0.17912465E-02  0.32116248E-02 -0.16142880E-02
  0.48395789E-03  0.58702977E-03 -0.14326091E-02
  0.33620151E-02 -0.12134637E-02  0.87532124E-03
 -0.20319916E-02  0.78304547E-03 -0.26605079E-02
 -0.15862312E-02 -0.80895333E-03  0.60944835E-03
  0.10220000E-02  0.21596936E-02  0.32891128E-03
  0.76208685E-03 -0.26067923E-02 -0.10993861E-02
  0.26825395E-02  0.37076986E-03 -0.31255887E-03
  0.11826159E-02  0.41248133E-03  0.23952703E-02
  0.29349735E-02  0.37081060E-02  0.16200852E-02
  0.64929390E-03  0.24167376E-02  0.47300745E-03
 -0.55913350E-03 -0.37942965E-02  0.14574160E-02
  0.23339728E-02  0.28108605E-02 -0.29140203E-02
 -0.12933952E-02  0.44271848E-04 -0.18643262E-02
 -0.18439809E-02 -0.24304054E-02  0.23743415E-02
  0.70485746E-03 -0.80112755E-03  0.94245636E-03
 -0.18669298E-02 -0.13968069E-02 -0.23083951E-02
 -0.31508702E-03  0.30054722E-04  0.13388873E-02
 -0.22630020E-02 -0.40305293E-02  0.30308848E-02
  0.82374586E-03  0.37334977E-03 -0.66486206E-03
 -0.33781634E-02  0.37864888E-03  0.18174356E-02
 -0.30291888E-02 -0.29926328E-03 -0.28127394E-03
 -0.99032656E-04  0.32302256E-02 -0.18783923E-02
 -0.13428468E-02  0.59046350E-02  0.75114747E-03
  0.13843027E-02 -0.65306409E-03 -0.25429101E-03
 -0.16621567E-02 -0.15868061E-02 -0.29438163E-02
  0.10434461E-03  0.58766746E-03 -0.31455252E-02
  0.00000000E+00  0.00000000E+00  0.00000000E+00
  0.00000000E+00  0.00000000E+00  0.00000000E+00
  0.00000000E+00  0.00000000E+00  0.00000000E+00
  0.00000000E+00  0.00000000E+00  0.00000000E+00
  0.00000000E+00  0.00000000E+00  0.00000000E+00
  0.00000000E+00  0.00000000E+00  0.00000000E+00
  0.00000000E+00  0.00000000E+00  0.00000000E+00
  0.00000000E+00  0.00000000E+00  0.00000000E+00
  0.00000000E+00  0.00000000E+00  0.00000000E+00
  0.00000000E+00  0.00000000E+00  0.00000000E+00
  0.00000000E+00  0.00000000E+00  0.00000000E+00
  0.00000000E+00  0.00000000E+00  0.00000000E+00
  0.00000000E+00  0.00000000E+00  0.00000000E+00
  0.00000000E+00  0.00000000E+00  0.00000000E+00
  0.00000000E+00  0.00000000E+00  0.00000000E+00
  0.00000000E+00  0.00000000E+00  0.00000000E+00
 -0.17860419E-02 -0.33910670E-02  0.38226434E-02
 -0.32532012E-04 -0.49857168E-03 -0.89593355E-03
  0.43677551E-02 -0.30431626E-02  0.41176107E-03
 -0.16813092E-02  0.85769461E-02 -0.63499418E-02
  0.33730729E-02 -0.16019951E-02  0.33169134E-02
  0.10326213E-02  0.30643919E-02  0.41722310E-03
  0.37692503E-02 -0.19654388E-03  0.32881410E-02
 -0.97640682E-03  0.39367581E-02  0.20965282E-02
  0.42528478E-02  0.40760941E-02  0.11172218E-02
  0.13580435E-02  0.29481490E-04 -0.46829109E-02
 -0.24070149E-02 -0.52911329E-02  0.46276547E-02
  0.17403117E-02  0.48370452E-02 -0.70591902E-02
  0.15954111E-02  0.10086208E-02  0.43205302E-02
  0.30774439E-02 -0.87149261E-02 -0.35077157E-02
 -0.40047071E-02  0.16124779E-02  0.60855950E-02
 -0.19034359E-02  0.25648590E-02 -0.10801235E-02
  0.55012298E-03 -0.84204087E-03  0.41115765E-02
 -0.20955028E-02 -0.82350860E-02  0.60222633E-02
 -0.17574693E-02  0.47395440E-02 -0.62089812E-02
 -0.52585601E-02 -0.17446517E-02  0.29352581E-02
  0.79821381E-02  0.41617242E-02  0.63077922E-02
 -0.33334673E-02  0.39017312E-03 -0.31490660E-03
  0.23823455E-02  0.12080928E-02  0.37635333E-03
  0.10151452E-02 -0.70864426E-03  0.30329942E-02
 -0.62995376E-02  0.87994544E-03  0.34993034E-02
  0.46802757E-02  0.25023244E-02 -0.26347856E-02
  0.35307603E-02  0.25628947E-02  0.41562711E-02
  0.40041398E-02  0.18564233E-02 -0.72196118E-02
  0.11088261E-02 -0.25407509E-02 -0.29642757E-02
 -0.65482132E-02  0.36588584E-02 -0.56163421E-02
 -0.30944404E-02  0.27133437E-02  0.69154161E-03
  0.10335920E-03  0.51663343E-02 -0.13656801E-02
 -0.14533375E-02  0.67846655E-02 -0.23044411E-02
 -0.88122921E-03 -0.13882769E-03  0.15764815E-02
 -0.27007444E-02  0.31507129E-02  0.45918356E-02
  0.91245470E-02  0.10634988E-01 -0.55238669E-02
 -0.19214833E-01 -0.28560319E-01 -0.10715170E-01
  0.29820952E-01  0.11341253E-01  0.55279174E-02
 -0.17056348E-01  0.13905761E-01 -0.24779416E-02
  0.13010628E-01 -0.15306923E-01 -0.68729902E-02
  0.35490115E-02 -0.12372810E-01  0.65248068E-02
  0.27181336E-01  0.60795826E-02 -0.48203111E-02
  0.98003434E-02 -0.10837089E-01 -0.12948580E-01
 -0.67565199E-02  0.45203530E-02 -0.55611980E-02
 -0.88475975E-02 -0.65353168E-02 -0.27014891E-01
 -0.54015102E-02  0.13950385E-01 -0.59068260E-02
 -0.22237732E-01  0.48673650E-02 -0.79108003E-02
 -0.12708335E-01 -0.27771006E-01 -0.58433243E-02
  0.85780919E-02  0.11300406E-01  0.11427843E-01
  0.80302699E-02  0.17283337E-01  0.87132827E-02
  0.20129940E-01  0.14162102E-01  0.14801083E-01
 -0.38297659E-02  0.10575548E-01  0.23737538E-02
 -0.14921230E-02 -0.14368448E-01  0.16988198E-01
  0.16529239E-01  0.37485113E-01 -0.80176653E-02
 -0.24551001E-01  0.37471496E-01 -0.17973074E-01
  0.11680741E-01 -0.79414723E-02  0.27959346E-02
  0.12289008E-01  0.83787767E-03  0.20546016E-01
  0.23157169E-01  0.11228630E-01 -0.34355700E-02
 -0.46824407E-01 -0.12695118E-01 -0.15826215E-02
 -0.87748840E-02 -0.10487047E-02  0.12192684E-01
  0.45328605E-02 -0.11102926E-01  0.10404667E-01
  0.81297459E-02 -0.14509678E-01 -0.12184706E-01
  0.23128046E-02 -0.18730281E-01 -0.11505296E-01
 -0.32550636E-02 -0.71785479E-02  0.19015942E-01
  0.35135678E-01 -0.20322336E-01 -0.50999883E-02
  0.21106244E-01  0.32908800E-01 -0.99325385E-02
 -0.27769245E-02  0.18600470E-01  0.17150307E-02
 -0.27219473E-02  0.11101149E-02 -0.83575742E-02
 -0.64253268E-02  0.74231862E-02  0.24148397E-01
  0.35913169E-01  0.12840938E-02 -0.17673303E-01
 -0.13327249E-01 -0.60203530E-02 -0.11758462E-01
 -0.34347141E-01  0.40438328E-02 -0.32950057E-01
  0.83247289E-02  0.12333700E-01 -0.32334573E-02
  0.11301498E-01 -0.22241517E-01  0.34604904E-02
 -0.20961686E-03 -0.10631592E-01 -0.11187451E-01
  0.77777844E-02 -0.83222820E-02 -0.16337785E-01
 -0.17119923E-01 -0.19450915E-01 -0.11084839E-01
  0.34617971E-01 -0.19615535E-03 -0.31954874E-01
 -0.17116427E-01  0.16377394E-02 -0.83063847E-02
 -0.11851601E-01  0.13198054E-01  0.52045512E-03
  0.85455775E-02 -0.10876286E-01  0.21921689E-01
 -0.20909546E-01  0.37526145E-01  0.13846955E-01
 -0.98633485E-02  0.29601709E-01 -0.96252496E-02
 -0.50618652E-02  0.11168035E-01 -0.14841506E-01
  0.61714895E-02  0.10701988E-01  0.18748305E-01
 -0.78552509E-02  0.18726537E-01 -0.39609633E-01
  0.87534048E-02 -0.10748170E-02  0.14235287E-01
 -0.55778253E-02  0.11162150E-01  0.10985134E-01
  0.14159440E-01  0.37269182E-02  0.16104605E-02
  0.12735455E-01 -0.36667485E-02 -0.24775073E-01
 -0.27528402E-01 -0.32112663E-02  0.18145362E-01
  0.81665845E-02  0.15362597E-01  0.11853220E-01
 -0.36830600E-02 -0.26503129E-01  0.80346042E-02
 -0.95979452E-02  0.44500961E-02 -0.55235407E-02
 -0.15633710E-01  0.46731988E-02  0.17453860E-01
  0.23839135E-01  0.14979893E-01  0.24530208E-02
  0.40031463E-02 -0.15138414E-01 -0.18738484E-01
 -0.20251147E-02 -0.50878276E-03  0.71460304E-02
  0.21974992E-02  0.24239927E-02 -0.17620431E-02
 
           1
   1.00000000000000     
  0.51373942E-02 -0.57441094E-02 -0.49991782E-02  0.10509038E-01
  0.81613046E+00  0.58897203E+00  0.12002484E+00
  0.32676202E+00  0.89395010E-01  0.12119073E+00
  0.82814354E+00  0.93046330E-01  0.11976763E+00
  0.32950631E+00  0.58782297E+00  0.12153918E+00
  0.57604581E+00  0.83447880E+00  0.12022353E+00
  0.81911504E+00  0.84798253E+00  0.12270147E+00
  0.72490180E-01  0.34032211E+00  0.12448341E+00
  0.83601570E+00  0.33493924E+00  0.12031703E+00
  0.57194674E+00  0.59281719E+00  0.12152883E+00
  0.63944990E-01  0.59655088E+00  0.12076467E+00
  0.87917580E-01  0.80203190E-01  0.11902184E+00
  0.57381046E+00  0.97747480E-01  0.12184586E+00
  0.32807061E+00  0.83489925E+00  0.12252522E+00
  0.80104630E-01  0.84043032E+00  0.12280298E+00
  0.32220688E+00  0.35051045E+00  0.12099876E+00
  0.59199446E+00  0.33705759E+00  0.12006365E+00
  0.90064479E+00  0.67921851E+00  0.18591841E+00
  0.89805385E+00  0.43399400E+00  0.18449062E+00
  0.65635525E+00  0.67959189E+00  0.18248509E+00
  0.15436937E+00  0.18536548E+00  0.18194188E+00
  0.91709543E+00  0.17628628E+00  0.18005444E+00
  0.89652759E+00  0.92955003E+00  0.18421956E+00
  0.40088783E+00  0.93323181E+00  0.17978951E+00
  0.39739188E+00  0.19238149E+00  0.18339342E+00
  0.65175887E+00  0.18785202E+00  0.18216046E+00
  0.15337161E+00  0.67804830E+00  0.18296441E+00
  0.41614467E+00  0.67791507E+00  0.18475808E+00
  0.39685835E+00  0.43895254E+00  0.18297068E+00
  0.65228655E+00  0.92113703E+00  0.18150168E+00
  0.15108808E+00  0.43023883E+00  0.18660924E+00
  0.66604250E+00  0.42302721E+00  0.18223301E+00
  0.14956478E+00  0.93067006E+00  0.18036998E+00
  0.98043830E+00  0.26595412E+00  0.24056601E+00
  0.49258359E+00  0.25150373E+00  0.24259218E+00
  0.97173227E+00  0.76246353E+00  0.24423613E+00
  0.47739754E+00  0.76464803E+00  0.24622375E+00
  0.72230838E+00  0.76062175E+00  0.24582569E+00
  0.98343640E+00  0.51649201E+00  0.24924091E+00
  0.74090206E+00  0.50111592E+00  0.24806693E+00
  0.21182689E+00  0.15519975E-01  0.24157410E+00
  0.99458235E+00  0.99521175E+00  0.24478325E+00
  0.47053333E+00  0.87315671E-02  0.24406940E+00
  0.23756155E+00  0.76858914E+00  0.24309438E+00
  0.73542423E+00  0.23795043E-02  0.24442687E+00
  0.22290071E+00  0.25893130E+00  0.24861842E+00
  0.74427230E+00  0.25195034E+00  0.24378882E+00
  0.22723047E+00  0.51660502E+00  0.24573831E+00
  0.49826604E+00  0.49650013E+00  0.24547596E+00
  0.99707246E+00  0.25585568E+00  0.59133030E-01
  0.49996179E+00  0.25008759E+00  0.59485450E-01
  0.99688417E+00  0.74769920E+00  0.59512370E-01
  0.50544745E+00  0.74768591E+00  0.59970680E-01
  0.75072199E+00  0.74863952E+00  0.59986920E-01
  0.99794108E+00  0.50140256E+00  0.59995450E-01
  0.75072730E+00  0.50143790E+00  0.60153940E-01
  0.24840778E+00  0.99896538E+00  0.60172360E-01
  0.26835400E-02  0.99893928E+00  0.60214110E-01
  0.50371790E+00  0.99792033E+00  0.60218780E-01
  0.24832216E+00  0.75337678E+00  0.60357180E-01
  0.74841362E+00  0.99788052E+00  0.60396600E-01
  0.24730948E+00  0.25437868E+00  0.60462560E-01
  0.74835616E+00  0.25434616E+00  0.60467840E-01
  0.24729219E+00  0.49894726E+00  0.60628550E-01
  0.50379604E+00  0.49891567E+00  0.60692700E-01
  0.56518452E+00  0.84390813E+00  0.28356235E+00
  0.81859291E+00  0.87357383E-01  0.27919928E+00
  0.32688580E+00  0.60131316E+00  0.27904224E+00
  0.33638604E+00  0.48479250E+00  0.55809086E+00
  0.43973735E+00  0.40729731E-01  0.48749552E+00
  0.47989841E+00  0.75712857E+00  0.51449016E+00
  0.17467858E+00  0.88794918E+00  0.53262151E+00
  0.98115493E+00  0.77095567E+00  0.31713883E+00
  0.13418073E+00  0.23726042E+00  0.60425358E+00
  0.97261478E+00  0.50633850E+00  0.30886747E+00
  0.28892868E+00  0.69396641E+00  0.35467269E+00
  0.52022390E+00  0.76552194E+00  0.35623275E+00
  0.84301719E+00  0.11803855E+00  0.44784492E+00
  0.18230163E+00  0.56224716E+00  0.48215711E+00
  0.79716884E+00  0.84648993E+00  0.56391059E+00
  0.61244216E+00  0.41717244E+00  0.59176057E+00
  0.68351000E+00  0.96132577E+00  0.34488157E+00
  0.59284655E+00  0.82896389E-01  0.42433113E+00
  0.38369022E+00  0.48314425E+00  0.41214324E+00
  0.82642984E+00  0.60528168E+00  0.42337261E+00
  0.69187139E+00  0.50331195E+00  0.31424745E+00
  0.98566260E+00  0.31196371E+00  0.53536397E+00
  0.93959683E+00  0.84115587E+00  0.49366905E+00
  0.78870060E+00  0.20120020E+00  0.53532856E+00
  0.93459955E-01  0.73324651E+00  0.59857193E+00
  0.15490998E+00  0.29415655E+00  0.46801329E+00
  0.99801664E+00  0.44571268E-01  0.37531744E+00
  0.66321582E+00  0.28317193E+00  0.34982304E+00
  0.48096907E+00  0.92405243E-01  0.56663711E+00
  0.76092427E+00  0.61063268E+00  0.55403607E+00
  0.10587363E+00  0.98798544E+00  0.63648908E+00
  0.58977787E+00  0.51150220E+00  0.45911244E+00
  0.43326248E-01  0.31440536E+00  0.39030632E+00
  0.32942287E+00  0.29062041E+00  0.35664012E+00
  0.47752138E+00  0.21177121E+00  0.29973538E+00
  0.25480968E+00  0.55777870E+00  0.57685816E+00
  0.28895000E+00  0.50944803E+00  0.53089947E+00
  0.44403334E+00  0.61233020E-01  0.51620312E+00
  0.50260150E+00  0.68176499E-01  0.46959156E+00
  0.36073309E+00  0.78819411E+00  0.51975418E+00
  0.47127492E+00  0.85552740E+00  0.50399503E+00
  0.10692990E+00  0.84763430E+00  0.52064620E+00
  0.17145155E+00  0.89187715E+00  0.56283354E+00
  0.87833130E+00  0.85394276E+00  0.33164936E+00
  0.68058000E-01  0.75245193E+00  0.33540026E+00
  0.82672716E-01  0.24201983E+00  0.57654328E+00
  0.10895551E+00  0.34094757E+00  0.61239291E+00
  0.97110341E+00  0.59757606E+00  0.32163009E+00
  0.30705830E+00  0.63956723E+00  0.32888337E+00
  0.31696787E+00  0.61585232E+00  0.37863687E+00
  0.41903712E+00  0.76342650E+00  0.36204344E+00
  0.55824677E+00  0.75480077E+00  0.38454479E+00
  0.89044778E+00  0.10922041E+00  0.42014411E+00
  0.82614792E+00  0.21328722E+00  0.46373852E+00
  0.24974702E+00  0.54476193E+00  0.45871115E+00
  0.10133585E+00  0.67242913E+00  0.48160281E+00
  0.69404996E+00  0.93377618E+00  0.57059950E+00
  0.78861311E+00  0.74492982E+00  0.56332150E+00
  0.67432942E+00  0.45966174E+00  0.58503328E+00
  0.51444599E+00  0.47234231E+00  0.57476498E+00
  0.65367499E+00  0.49480346E-01  0.32488496E+00
  0.63237217E+00  0.90381510E+00  0.33491856E+00
  0.64090346E+00  0.33535449E-01  0.39786212E+00
  0.66360145E+00  0.11884699E+00  0.43706148E+00
  0.47797427E+00  0.48257171E+00  0.42534675E+00
  0.42476695E+00  0.37630417E+00  0.40459217E+00
  0.90245732E+00  0.62591590E+00  0.43803137E+00
  0.89897472E+00  0.50344918E+00  0.41004100E+00
  0.60978612E+00  0.61116377E+00  0.32599077E+00
  0.66986135E+00  0.42811921E+00  0.33083549E+00
  0.93223750E+00  0.25379223E+00  0.53230179E+00
  0.33702863E-01  0.31691299E+00  0.50877342E+00
  0.89420761E+00  0.93809361E+00  0.47384994E+00
  0.87203469E+00  0.84721633E+00  0.51658724E+00
  0.72715450E+00  0.26818253E+00  0.55969497E+00
  0.84943864E+00  0.87824447E-01  0.54588353E+00
  0.87564517E-01  0.82462514E+00  0.61272404E+00
  0.98941257E+00  0.77087657E+00  0.58620633E+00
  0.26655810E+00  0.20276446E+00  0.47222905E+00
  0.14914132E+00  0.40200568E+00  0.46973763E+00
  0.54737473E-01  0.10409124E+00  0.37835139E+00
  0.83970394E-01  0.93720457E+00  0.37861578E+00
  0.59456400E+00  0.27631659E+00  0.32756145E+00
  0.77401740E+00  0.20537217E+00  0.35038561E+00
  0.39126017E+00  0.10683728E+00  0.58097527E+00
  0.46655058E+00  0.19858680E+00  0.56631720E+00
  0.83721277E+00  0.50291857E+00  0.54913576E+00
  0.66268842E+00  0.63908295E+00  0.53956531E+00
  0.20126945E+00  0.91533871E+00  0.64897569E+00
  0.11011955E+00  0.71688867E-01  0.62434122E+00
  0.54547799E+00  0.58775947E+00  0.48261161E+00
  0.66871725E+00  0.53932813E+00  0.44731125E+00
  0.97759333E-01  0.28009439E+00  0.41747597E+00
  0.12959551E+00  0.32908542E+00  0.37793951E+00
  0.87322893E+00  0.50620162E+00  0.32068793E+00
  0.13252784E+00  0.21863521E+00  0.31806662E+00
  0.32398207E+00  0.60317635E-01  0.30783163E+00
  0.34298093E+00  0.24221088E+00  0.32140694E+00
  0.24769491E+00  0.18715547E+00  0.30310895E+00
  0.00000000E+00  0.00000000E+00  0.00000000E+00
  0.00000000E+00  0.00000000E+00  0.00000000E+00
  0.00000000E+00  0.00000000E+00  0.00000000E+00
  0.00000000E+00  0.00000000E+00  0.00000000E+00
  0.00000000E+00  0.00000000E+00  0.00000000E+00
  0.00000000E+00  0.00000000E+00  0.00000000E+00
  0.00000000E+00  0.00000000E+00  0.00000000E+00
  0.00000000E+00  0.00000000E+00  0.00000000E+00
  0.00000000E+00  0.00000000E+00  0.00000000E+00
  0.00000000E+00  0.00000000E+00  0.00000000E+00
  0.00000000E+00  0.00000000E+00  0.00000000E+00
  0.00000000E+00  0.00000000E+00  0.00000000E+00
  0.00000000E+00  0.00000000E+00  0.00000000E+00
  0.00000000E+00  0.00000000E+00  0.00000000E+00
  0.00000000E+00  0.00000000E+00  0.00000000E+00
  0.00000000E+00  0.00000000E+00  0.00000000E+00
  0.00000000E+00  0.00000000E+00  0.00000000E+00
  0.00000000E+00  0.00000000E+00  0.00000000E+00
  0.00000000E+00  0.00000000E+00  0.00000000E+00
  0.00000000E+00  0.00000000E+00  0.00000000E+00
  0.00000000E+00  0.00000000E+00  0.00000000E+00
  0.00000000E+00  0.00000000E+00  0.00000000E+00
  0.00000000E+00  0.00000000E+00  0.00000000E+00
  0.00000000E+00  0.00000000E+00  0.00000000E+00
  0.00000000E+00  0.00000000E+00  0.00000000E+00
  0.00000000E+00  0.00000000E+00  0.00000000E+00
  0.00000000E+00  0.00000000E+00  0.00000000E+00
  0.00000000E+00  0.00000000E+00  0.00000000E+00
  0.00000000E+00  0.00000000E+00  0.00000000E+00
  0.00000000E+00  0.00000000E+00  0.00000000E+00
  0.00000000E+00  0.00000000E+00  0.00000000E+00
  0.00000000E+00  0.00000000E+00  0.00000000E+00
  0.00000000E+00  0.00000000E+00  0.00000000E+00
  0.00000000E+00  0.00000000E+00  0.00000000E+00