Ni_COOHCHO
   1.00000000000000     
     9.8291997910000006    0.0000000000000000    0.0000000000000000
     4.9145998955000003    8.5123367178000002    0.0000000000000000
     0.0000000000000000    0.0000000000000000   19.0128002167000005
   Ni   O    C    H 
    64     3     2     2
Selective dynamics
Direct
      0.8336562370186482      0.5857278592985444      0.2712586563237198   T T T
      0.3342304342665738      0.0858771175547760      0.2707992905794631   T T T
      0.8334734567008872      0.0861257179175893      0.2710454313960995   T T T
      0.3344591600902449      0.5853862772678348      0.2709580264812970   T T T
      0.5838793871668125      0.8360214250966770      0.2715042941397461   T T T
      0.8332983314817720      0.8360573094209149      0.2708617699822904   T T T
      0.0842357862650622      0.3355430541912945      0.2709152758606274   T T T
      0.8340224234875092      0.3353625572106915      0.2701217251643427   T T T
      0.5841266490215036      0.5858646166816953      0.2705778142421706   T T T
      0.0837639090233927      0.5855382894686495      0.2708317495576137   T T T
      0.0840445582548944      0.0856127265121498      0.2702692402199038   T T T
      0.5837265005257763      0.0853357579188064      0.2716534635928858   T T T
      0.3338802952182809      0.8360178856847736      0.2703307075159515   T T T
      0.0837282635813830      0.8357384265277036      0.2707647825046994   T T T
      0.3348582182585553      0.3348217852656666      0.2708364841917605   T T T
      0.5840861563126115      0.3354583807783295      0.2716193692147438   T T T
      0.9163029794411092      0.6690201200860136      0.3767665564007080   T T T
      0.9172797179424421      0.4188883672423316      0.3756656282624209   T T T
      0.6670806149149612      0.6694295029606410      0.3768102743991441   T T T
      0.1664465997346773      0.1689198989309989      0.3754100665360448   T T T
      0.9155321968316716      0.1697803062548463      0.3760547461074975   T T T
      0.9163286610517759      0.9194230670019710      0.3756183421703940   T T T
      0.4163691449750946      0.9190885519500029      0.3757316842787193   T T T
      0.4173806092032992      0.1699263692950242      0.3775515204202874   T T T
      0.6660977697118584      0.1696128262418511      0.3771191855739469   T T T
      0.1674171683533576      0.6681043297183084      0.3754484704351618   T T T
      0.4178114721811330      0.6677199177307243      0.3759719535325627   T T T
      0.4172289142036705      0.4185071978739469      0.3769538853003708   T T T
      0.6675810009148465      0.9170322474065573      0.3783117841888281   T T T
      0.1658740095499988      0.4194861145970661      0.3764161837563374   T T T
      0.6669703867762625      0.4188144359278718      0.3760400854475296   T T T
      0.1666623887872368      0.9186118965565804      0.3757950208079240   T T T
     -0.0000404653133654      0.2494346396725504      0.4809923176681839   T T T
      0.4957773874507359      0.2482434885660558      0.4871743437965276   T T T
      0.0021441565887946      0.7535597823206895      0.4804147269622396   T T T
      0.4967359037054480      0.7522513820646761      0.4808429109846337   T T T
      0.7470751902410170      0.7546851601639910      0.4883973716196985   T T T
      0.0003787338041966      0.5003278391012143      0.4859736405094511   T T T
      0.7514672138947809      0.5013498625156942      0.4798090197747045   T T T
      0.2482216872888281      0.0015752521840034      0.4816238404261415   T T T
     -0.0010005215584447      0.0031339521303396      0.4813318128181684   T T T
      0.4969531510363635      0.0007721636125879      0.4814276309583803   T T T
      0.2511396795285564      0.7503954231400847      0.4812910338303492   T T T
      0.7525532078285078      0.0002269834035618      0.4807778501280424   T T T
      0.2472209663574768      0.2508892836726130      0.4808327096613697   T T T
      0.7485663710897744      0.2548645096735963      0.4864444274624862   T T T
      0.2473006593402955      0.5035188426839735      0.4805938141090912   T T T
      0.5033358193983399      0.5002514352032349      0.4860023709623389   T T T
      0.0008927543345641      0.2525499403128152      0.1650294283231410   F F F
      0.5015553603197597      0.2521764282472789      0.1656319004915748   F F F
      0.0010420277205351      0.7522113412579846      0.1651393810179932   F F F
      0.5014157588144134      0.7521620308083053      0.1652183967901596   F F F
      0.7512793736241193      0.7521239769396938      0.1655938540699470   F F F
      0.0010622061361641      0.5024972361430452      0.1654001244346303   F F F
      0.7509582927555415      0.5023718316372418      0.1650365125945951   F F F
      0.2511022146094523      0.0023192429674173      0.1649543336174361   F F F
      0.0007477570773925      0.0023477901292705      0.1652578085219888   F F F
      0.5015312524005885      0.0020308229141000      0.1657268307024892   F F F
      0.2510229347891679      0.7521254957990788      0.1652419173904515   F F F
      0.7509886463882598      0.0023023556422706      0.1654791176777548   F F F
      0.2510422675156958      0.2523876647104055      0.1653811782974930   F F F
      0.7508926197311193      0.2522237073838478      0.1652604814172342   F F F
      0.2510743795800897      0.5022705190227623      0.1653447426005157   F F F
      0.5011847950534025      0.5022270005828054      0.1654204458099421   F F F
      0.8046744682584179      0.6844344934125718      0.5898674999898812   T T T
      0.9996357585884684      0.4617070129818778      0.6326823561961131   T T T
      0.5323257869416923      0.2846468897182702      0.5843831748163687   T T T
      0.9264283837070977      0.5545618596125149      0.5772648916132731   T T T
      0.6041720802165638      0.3579380322704599      0.5647441796509590   T T T
      0.0903116828589957      0.3659375219740381      0.6138388798939518   T T T
      0.6479104516498826      0.4028082248522394      0.6076024318250937   T T T
 
  0.00000000E+00  0.00000000E+00  0.00000000E+00
  0.00000000E+00  0.00000000E+00  0.00000000E+00
  0.00000000E+00  0.00000000E+00  0.00000000E+00
  0.00000000E+00  0.00000000E+00  0.00000000E+00
  0.00000000E+00  0.00000000E+00  0.00000000E+00
  0.00000000E+00  0.00000000E+00  0.00000000E+00
  0.00000000E+00  0.00000000E+00  0.00000000E+00
  0.00000000E+00  0.00000000E+00  0.00000000E+00
  0.00000000E+00  0.00000000E+00  0.00000000E+00
  0.00000000E+00  0.00000000E+00  0.00000000E+00
  0.00000000E+00  0.00000000E+00  0.00000000E+00
  0.00000000E+00  0.00000000E+00  0.00000000E+00
  0.00000000E+00  0.00000000E+00  0.00000000E+00
  0.00000000E+00  0.00000000E+00  0.00000000E+00
  0.00000000E+00  0.00000000E+00  0.00000000E+00
  0.00000000E+00  0.00000000E+00  0.00000000E+00
  0.00000000E+00  0.00000000E+00  0.00000000E+00
  0.00000000E+00  0.00000000E+00  0.00000000E+00
  0.00000000E+00  0.00000000E+00  0.00000000E+00
  0.00000000E+00  0.00000000E+00  0.00000000E+00
  0.00000000E+00  0.00000000E+00  0.00000000E+00
  0.00000000E+00  0.00000000E+00  0.00000000E+00
  0.00000000E+00  0.00000000E+00  0.00000000E+00
  0.00000000E+00  0.00000000E+00  0.00000000E+00
  0.00000000E+00  0.00000000E+00  0.00000000E+00
  0.00000000E+00  0.00000000E+00  0.00000000E+00
  0.00000000E+00  0.00000000E+00  0.00000000E+00
  0.00000000E+00  0.00000000E+00  0.00000000E+00
  0.00000000E+00  0.00000000E+00  0.00000000E+00
  0.00000000E+00  0.00000000E+00  0.00000000E+00
  0.00000000E+00  0.00000000E+00  0.00000000E+00
  0.00000000E+00  0.00000000E+00  0.00000000E+00
  0.00000000E+00  0.00000000E+00  0.00000000E+00
  0.00000000E+00  0.00000000E+00  0.00000000E+00
  0.00000000E+00  0.00000000E+00  0.00000000E+00
  0.00000000E+00  0.00000000E+00  0.00000000E+00
  0.00000000E+00  0.00000000E+00  0.00000000E+00
  0.00000000E+00  0.00000000E+00  0.00000000E+00
  0.00000000E+00  0.00000000E+00  0.00000000E+00
  0.00000000E+00  0.00000000E+00  0.00000000E+00
  0.00000000E+00  0.00000000E+00  0.00000000E+00
  0.00000000E+00  0.00000000E+00  0.00000000E+00
  0.00000000E+00  0.00000000E+00  0.00000000E+00
  0.00000000E+00  0.00000000E+00  0.00000000E+00
  0.00000000E+00  0.00000000E+00  0.00000000E+00
  0.00000000E+00  0.00000000E+00  0.00000000E+00
  0.00000000E+00  0.00000000E+00  0.00000000E+00
  0.00000000E+00  0.00000000E+00  0.00000000E+00
  0.00000000E+00  0.00000000E+00  0.00000000E+00
  0.00000000E+00  0.00000000E+00  0.00000000E+00
  0.00000000E+00  0.00000000E+00  0.00000000E+00
  0.00000000E+00  0.00000000E+00  0.00000000E+00
  0.00000000E+00  0.00000000E+00  0.00000000E+00
  0.00000000E+00  0.00000000E+00  0.00000000E+00
  0.00000000E+00  0.00000000E+00  0.00000000E+00
  0.00000000E+00  0.00000000E+00  0.00000000E+00
  0.00000000E+00  0.00000000E+00  0.00000000E+00
  0.00000000E+00  0.00000000E+00  0.00000000E+00
  0.00000000E+00  0.00000000E+00  0.00000000E+00
  0.00000000E+00  0.00000000E+00  0.00000000E+00
  0.00000000E+00  0.00000000E+00  0.00000000E+00
  0.00000000E+00  0.00000000E+00  0.00000000E+00
  0.00000000E+00  0.00000000E+00  0.00000000E+00
  0.00000000E+00  0.00000000E+00  0.00000000E+00
  0.00000000E+00  0.00000000E+00  0.00000000E+00
  0.00000000E+00  0.00000000E+00  0.00000000E+00
  0.00000000E+00  0.00000000E+00  0.00000000E+00
  0.00000000E+00  0.00000000E+00  0.00000000E+00
  0.00000000E+00  0.00000000E+00  0.00000000E+00
  0.00000000E+00  0.00000000E+00  0.00000000E+00
  0.00000000E+00  0.00000000E+00  0.00000000E+00
