 CONTCAR\(15)                           
   1.00000000000000     
     9.8291997910000006    0.0000000000000000    0.0000000000000000
     4.9145998955000003    8.5123367178000002    0.0000000000000000
     0.0000000000000000    0.0000000000000000   19.0128002167000005
   Ni   O    H 
    64     1     2
Selective dynamics
Direct
  0.0820859239999976  0.0853893090000000  0.1769045570000003   F   F   F
  0.3320606220000002  0.0853895819999977  0.1768983500000019   F   F   F
  0.3321350229999993  0.8353552940000029  0.1769282579999967   F   F   F
  0.5820235719999971  0.3354048120000002  0.1769164199999977   F   F   F
  0.3320824970000018  0.5853625190000002  0.1769149029999966   F   F   F
  0.3320413989999977  0.3353577580000007  0.1768658209999998   F   F   F
  0.8320489050000006  0.0854081170000001  0.1769476569999995   F   F   F
  0.5819999280000019  0.0854048260000013  0.1769176740000020   F   F   F
  0.8320446789999991  0.3354047560000026  0.1769184890000020   F   F   F
  0.5820607089999967  0.5854306920000028  0.1769178999999994   F   F   F
  0.0820949029999980  0.8352966440000031  0.1769376880000024   F   F   F
  0.5820859990000002  0.8354016760000036  0.1769298999999975   F   F   F
  0.0820782139999992  0.3353299730000003  0.1769054849999989   F   F   F
  0.8320439359999980  0.5854464330000013  0.1769503530000023   F   F   F
  0.0820345919999994  0.5853827979999977  0.1768957540000002   F   F   F
  0.8320200599999978  0.8354260990000029  0.1769315929999991   F   F   F
  0.1650213907472047  0.1670416997893497  0.2817532021038129   T   T   T
  0.1653089434444441  0.9173631140876918  0.2821337111037955   T   T   T
  0.4157942887776862  0.1678668552520043  0.2829359975923590   T   T   T
  0.4146199531249551  0.9178738769106449  0.2819531208386122   T   T   T
  0.4156338433823162  0.4160051106821391  0.2829804945654633   T   T   T
  0.4150057183304035  0.6670775526900309  0.2820122267845224   T   T   T
  0.9151202955692561  0.1673128952092890  0.2819499773117334   T   T   T
  0.6642129691993826  0.1677573758311479  0.2832288304315975   T   T   T
  0.6649259772451900  0.4172978825216646  0.2820386469074008   T   T   T
  0.1649936678879762  0.6677502121698550  0.2817867968893220   T   T   T
  0.9147873299626497  0.4176136955540692  0.2822216597710618   T   T   T
  0.6644795352617359  0.6676246006832421  0.2820560502443710   T   T   T
  0.9151311639705713  0.9174006781702226  0.2819870392017035   T   T   T
  0.6647809616307665  0.9176775782525771  0.2818817832398996   T   T   T
  0.1646914233119244  0.4176072888079891  0.2817674509792648   T   T   T
  0.9151342652988479  0.6673162715648101  0.2822936815376595   T   T   T
  0.2475326641238065  0.0000636863316762  0.3881978825451866   T   T   T
  0.4995810969740040  0.2487375797163144  0.3927657100288851   T   T   T
  0.4976085962661050  0.5013990980143992  0.3870033190207219   T   T   T
  0.2460363033662019  0.2502948489487639  0.3865728672357977   T   T   T
 -0.0019386538713061  0.2498328627602228  0.3881606615096619   T   T   T
  0.7497764000056814  0.2499194469532089  0.3872839967687375   T   T   T
  0.4971864110726102  0.7500653402421914  0.3878675661233990   T   T   T
  0.2475418790218059  0.7501705541596742  0.3881142437955938   T   T   T
  0.4981509657150445 -0.0021639910540787  0.3867987609766253   T   T   T
 -0.0023878250982953 -0.0002042512350274  0.3873604662373178   T   T   T
  0.2461327354491699  0.5013974664363896  0.3865926238365225   T   T   T
  0.7473368764975732  0.5002069111794832  0.3877868512847499   T   T   T
  0.7498149263979647 -0.0027303286233033  0.3870919094624204   T   T   T
 -0.0023496118577266  0.7498155267406542  0.3881648202618015   T   T   T
  0.7474678421683605  0.7491845591969977  0.3877214144291400   T   T   T
  0.9976778571400916  0.4999067551494251  0.3885055202223054   T   T   T
  0.2488099890000015  0.0018900000000031  0.0714200000000034   F   F   F
  0.4986599900000002  0.2520299789999996  0.0714200000000034   F   F   F
  0.4987100749999982  0.5019500149999985  0.0714200000000034   F   F   F
  0.2486699889999997  0.2519600139999980  0.0714200000000034   F   F   F
  0.9988300199999998  0.2520000100000033  0.0714200000000034   F   F   F
  0.7487000469999998  0.2521199990000014  0.0714200000000034   F   F   F
  0.4986899749999978  0.7520999730000000  0.0714200000000034   F   F   F
  0.2487699630000009  0.7521200280000002  0.0714200000000034   F   F   F
  0.4985999800000016  0.0021100000000018  0.0714200000000034   F   F   F
  0.9987700320000030  0.0022099999999980  0.0714200000000034   F   F   F
  0.2487500120000021  0.5021200269999966  0.0714200000000034   F   F   F
  0.7486699880000032  0.5022699849999981  0.0714200000000034   F   F   F
  0.7485899979999999  0.0024500000000032  0.0714200000000034   F   F   F
  0.9987000519999967  0.7524499689999971  0.0714200000000034   F   F   F
  0.7486699279999982  0.7524300270000026  0.0714200000000034   F   F   F
  0.9986899559999998  0.5022000199999965  0.0714200000000034   F   F   F
  0.4766339299021315  0.2564559469960649  0.5056940342498663   T   T   T
  0.4099044126342008  0.2085125612266125  0.5096336666665721   T   T   T
  0.4042365662090228  0.3699734574525990  0.5103515714126854   T   T   T
 
  0.00000000E+00  0.00000000E+00  0.00000000E+00
  0.00000000E+00  0.00000000E+00  0.00000000E+00
  0.00000000E+00  0.00000000E+00  0.00000000E+00
  0.00000000E+00  0.00000000E+00  0.00000000E+00
  0.00000000E+00  0.00000000E+00  0.00000000E+00
  0.00000000E+00  0.00000000E+00  0.00000000E+00
  0.00000000E+00  0.00000000E+00  0.00000000E+00
  0.00000000E+00  0.00000000E+00  0.00000000E+00
  0.00000000E+00  0.00000000E+00  0.00000000E+00
  0.00000000E+00  0.00000000E+00  0.00000000E+00
  0.00000000E+00  0.00000000E+00  0.00000000E+00
  0.00000000E+00  0.00000000E+00  0.00000000E+00
  0.00000000E+00  0.00000000E+00  0.00000000E+00
  0.00000000E+00  0.00000000E+00  0.00000000E+00
  0.00000000E+00  0.00000000E+00  0.00000000E+00
  0.00000000E+00  0.00000000E+00  0.00000000E+00
  0.00000000E+00  0.00000000E+00  0.00000000E+00
  0.00000000E+00  0.00000000E+00  0.00000000E+00
  0.00000000E+00  0.00000000E+00  0.00000000E+00
  0.00000000E+00  0.00000000E+00  0.00000000E+00
  0.00000000E+00  0.00000000E+00  0.00000000E+00
  0.00000000E+00  0.00000000E+00  0.00000000E+00
  0.00000000E+00  0.00000000E+00  0.00000000E+00
  0.00000000E+00  0.00000000E+00  0.00000000E+00
  0.00000000E+00  0.00000000E+00  0.00000000E+00
  0.00000000E+00  0.00000000E+00  0.00000000E+00
  0.00000000E+00  0.00000000E+00  0.00000000E+00
  0.00000000E+00  0.00000000E+00  0.00000000E+00
  0.00000000E+00  0.00000000E+00  0.00000000E+00
  0.00000000E+00  0.00000000E+00  0.00000000E+00
  0.00000000E+00  0.00000000E+00  0.00000000E+00
  0.00000000E+00  0.00000000E+00  0.00000000E+00
  0.00000000E+00  0.00000000E+00  0.00000000E+00
  0.00000000E+00  0.00000000E+00  0.00000000E+00
  0.00000000E+00  0.00000000E+00  0.00000000E+00
  0.00000000E+00  0.00000000E+00  0.00000000E+00
  0.00000000E+00  0.00000000E+00  0.00000000E+00
  0.00000000E+00  0.00000000E+00  0.00000000E+00
  0.00000000E+00  0.00000000E+00  0.00000000E+00
  0.00000000E+00  0.00000000E+00  0.00000000E+00
  0.00000000E+00  0.00000000E+00  0.00000000E+00
  0.00000000E+00  0.00000000E+00  0.00000000E+00
  0.00000000E+00  0.00000000E+00  0.00000000E+00
  0.00000000E+00  0.00000000E+00  0.00000000E+00
  0.00000000E+00  0.00000000E+00  0.00000000E+00
  0.00000000E+00  0.00000000E+00  0.00000000E+00
  0.00000000E+00  0.00000000E+00  0.00000000E+00
  0.00000000E+00  0.00000000E+00  0.00000000E+00
  0.00000000E+00  0.00000000E+00  0.00000000E+00
  0.00000000E+00  0.00000000E+00  0.00000000E+00
  0.00000000E+00  0.00000000E+00  0.00000000E+00
  0.00000000E+00  0.00000000E+00  0.00000000E+00
  0.00000000E+00  0.00000000E+00  0.00000000E+00
  0.00000000E+00  0.00000000E+00  0.00000000E+00
  0.00000000E+00  0.00000000E+00  0.00000000E+00
  0.00000000E+00  0.00000000E+00  0.00000000E+00
  0.00000000E+00  0.00000000E+00  0.00000000E+00
  0.00000000E+00  0.00000000E+00  0.00000000E+00
  0.00000000E+00  0.00000000E+00  0.00000000E+00
  0.00000000E+00  0.00000000E+00  0.00000000E+00
  0.00000000E+00  0.00000000E+00  0.00000000E+00
  0.00000000E+00  0.00000000E+00  0.00000000E+00
  0.00000000E+00  0.00000000E+00  0.00000000E+00
  0.00000000E+00  0.00000000E+00  0.00000000E+00
  0.00000000E+00  0.00000000E+00  0.00000000E+00
  0.00000000E+00  0.00000000E+00  0.00000000E+00
  0.00000000E+00  0.00000000E+00  0.00000000E+00
