 Ni_CO_COH(LH)
   1.000
    9.8292000000000002    0.0000000000000000    0.0000000000000000
    4.9146000000000001    8.5123370000000005    0.0000000000000000
    0.0000000000000000    0.0000000000000000   30.7148000000000003
   Ni   O    H    C    O    H 
   64   30   60    1    1    1
Selective Dynamics
Direct
    0.0792283200000000    0.0817630000000000    0.1186269600000000    F  F  F
    0.3261458200000000    0.0945059900000000    0.1218180300000000    F  F  F
    0.3333135000000000    0.8340758400000000    0.1222633900000000    F  F  F
    0.5853292300000000    0.3375219900000000    0.1220220000000000    F  F  F
    0.3372137500000000    0.5903115300000000    0.1199067900000000    F  F  F
    0.3372616200000000    0.3405483000000000    0.1218415900000000    F  F  F
    0.8334440200000000    0.0800302700000000    0.1204451200000000    F  F  F
    0.5765709700000000    0.0842646400000000    0.1201501900000000    F  F  F
    0.8393408900000000    0.3292407700000000    0.1215803500000000    F  F  F
    0.5901924600000000    0.5773147600000000    0.1221725900000000    F  F  F
    0.0832248300000000    0.8332026300000001    0.1214728500000000    F  F  F
    0.5743362900000000    0.8428757700000000    0.1194628200000000    F  F  F
    0.0847698600000000    0.3327511100000000    0.1229317200000000    F  F  F
    0.8318529099999999    0.5821238399999999    0.1219112000000000    F  F  F
    0.0778449200000000    0.5981744200000000    0.1186460800000000    F  F  F
    0.8302746000000000    0.8313213300000000    0.1207902900000000    F  F  F
    0.1624591800000000    0.1621644500000000    0.1856602100000000    T  T  T
    0.1674854800000000    0.9118384400000000    0.1869812100000000    T  T  T
    0.4191883500000000    0.1733262000000000    0.1872038600000000    T  T  T
    0.4173818400000000    0.9221010100000000    0.1850847600000000    T  T  T
    0.4221575100000000    0.4173989900000000    0.1922910400000000    T  T  T
    0.4193785500000000    0.6585801200000000    0.1876572200000000    T  T  T
    0.9122328100000000    0.1599510100000000    0.1840237000000000    T  T  T
    0.6643909500000000    0.1591168100000000    0.1898591700000000    T  T  T
    0.6708817300000000    0.4095729300000000    0.1863056700000000    T  T  T
    0.1788291100000000    0.6483643100000001    0.1871468500000000    T  T  T
    0.9113372500000000    0.4173934500000000    0.1859317700000000    T  T  T
    0.6672231600000000    0.6618185599999999    0.1895609000000000    T  T  T
    0.9204151300000000    0.9071459800000000    0.1845568900000000    T  T  T
    0.6626032700000000    0.9187904099999999    0.1849418000000000    T  T  T
    0.1676236400000000    0.4184557200000000    0.1857921100000000    T  T  T
    0.9081729900000000    0.6708204500000000    0.1871985500000000    T  T  T
    0.2674775400000000   -0.0072328400000000    0.2519310000000000    T  T  T
    0.5182811600000000    0.2389320500000000    0.2594909100000000    T  T  T
    0.5054476900000000    0.4994828900000000    0.2584175700000000    T  T  T
    0.2715347500000000    0.2420700400000000    0.2506345100000000    T  T  T
    1.0056904700000000    0.2421698100000000    0.2523540400000000    T  T  T
    0.7576742200000000    0.2484465100000000    0.2569531300000000    T  T  T
    0.5047422300000000    0.7525582400000000    0.2551182100000000    T  T  T
    0.2555402400000000    0.7472401600000000    0.2570985600000000    T  T  T
    0.5051414900000000   -0.0039793100000000    0.2560909200000000    T  T  T
    0.9972328100000000   -0.0035020500000000    0.2486821100000000    T  T  T
    0.2524157600000000    0.4956817600000000    0.2566820400000000    T  T  T
    0.7586938000000000    0.5023564700000001    0.2545454200000000    T  T  T
    0.7677523500000000   -0.0173819400000000    0.2542035500000000    T  T  T
    1.0135153299999999    0.7465796400000000    0.2508105200000000    T  T  T
    0.7564321700000000    0.7505490600000000    0.2657789900000000    T  T  T
    0.0102744000000000    0.4958411600000000    0.2541405700000000    T  T  T
    0.2488099900000000    0.0018900000000000    0.0530725900000000    F  F  F
    0.4986599900000000    0.2520299800000000    0.0530725900000000    F  F  F
    0.4987100700000000    0.5019500099999999    0.0530725900000000    F  F  F
    0.2486699900000000    0.2519600100000000    0.0530725900000000    F  F  F
    0.9988300200000000    0.2520000100000000    0.0530725900000000    F  F  F
    0.7487000500000000    0.2521200000000000    0.0530725900000000    F  F  F
    0.4986899700000000    0.7520999700000000    0.0530725900000000    F  F  F
    0.2487699600000000    0.7521200300000001    0.0530725900000000    F  F  F
    0.4985999800000000    0.0021100000000000    0.0530725900000000    F  F  F
    0.9987700300000000    0.0022100000000000    0.0530725900000000    F  F  F
    0.2487500100000000    0.5021200300000001    0.0530725900000000    F  F  F
    0.7486699900000000    0.5022699800000000    0.0530725900000000    F  F  F
    0.7485900000000000    0.0024500000000000    0.0530725900000000    F  F  F
    0.9987000500000000    0.7524499700000000    0.0530725900000000    F  F  F
    0.7486699300000000    0.7524300300000000    0.0530725900000000    F  F  F
    0.9986899600000000    0.5022000200000000    0.0530725900000000    F  F  F
    0.2831407900000000    0.9023852300000000    0.6149417500000000    T  T  T
    0.7892116100000000    1.1002936000000001    0.6731085000000000    T  T  T
    0.4647191300000000    0.8338914300000000    0.3665957000000000    T  T  T
    0.0340943200000000    0.2222554400000000    0.4183742100000000    T  T  T
    0.4837250300000000    0.1066346200000000    0.3510710400000000    T  T  T
    0.3481102600000000    0.5929013100000000    0.5906061600000000    T  T  T
    0.5089883800000000    0.6837170500000000    0.4545866000000000    T  T  T
    0.1387415100000000    0.6129754900000000    0.3714096600000000    T  T  T
    0.7643257400000000    0.7148945400000000    0.3303374400000000    T  T  T
    0.0602881700000000    0.9679527900000000    0.4637406100000000    T  T  T
    0.9614416600000000    0.0747701200000000    0.3487831000000000    T  T  T
    0.6358398700000000    0.3354907700000000    0.5509016300000000    T  T  T
    0.5650297600000000    0.1796675400000000    0.6161261000000000    T  T  T
    0.7102584500000000    0.3520598900000000    0.4641575200000000    T  T  T
    0.8879717700000000    0.6305111100000000    0.5843327000000000    T  T  T
    0.2415792600000000    0.6518725900000000    0.4493007700000000    T  T  T
    0.8006278500000000    0.9449890300000000    0.4532645700000000    T  T  T
    0.1555488400000000    0.5409743900000000    0.5261624700000000    T  T  T
    0.2923657400000000    0.4392295000000000    0.6502124000000000    T  T  T
    0.8883176100000000    0.3396954500000000    0.5778587500000000    T  T  T
    0.0261520400000000    0.4598611000000000    0.6612231100000000    T  T  T
    0.5484463300000000    0.9140964700000000    0.5948027100000000    T  T  T
    0.8681397700000000    0.8668322000000001    0.3747259500000000    T  T  T
    0.0128548400000000    0.1796949000000000    0.6561415100000000    T  T  T
    0.5280432300000000    0.9304437400000000    0.5038985200000000    T  T  T
    0.1105288100000000    0.0669804600000000    0.5400583500000000    T  T  T
    0.5473307600000000    0.1998648000000000    0.4287511700000000    T  T  T
    0.2376425200000000    0.2033000300000000    0.4980067600000000    T  T  T
    0.2226835400000000    0.7860826700000000    0.3221761400000000    T  T  T
    0.1105417500000000    0.3651189800000000    0.3560548000000000    T  T  T
    0.3738468300000000    0.9108692100000000    0.6095092400000000    T  T  T
    0.3163005800000000    0.7964649800000000    0.6062888500000000    T  T  T
    0.8036978200000000    1.0046202500000001    0.6854122700000000    T  T  T
    0.7136646500000000    1.1187333399999999    0.6508892900000000    T  T  T
    0.4520543500000000    0.9353803900000000    0.3587638200000000    T  T  T
    0.4193132000000000    0.8034913600000000    0.3419717300000000    T  T  T
    0.9262410500000000    0.2873021100000000    0.4284772400000000    T  T  T
    0.0541241800000000    0.2919069100000000    0.3960992700000000    T  T  T
    0.3749319900000000    0.1911774300000000    0.3444439400000000    T  T  T
    0.5351272700000000    0.1074714300000000    0.3227949000000000    T  T  T
    0.3042035300000000    0.5605200700000000    0.6159324200000000    T  T  T
    0.2909973800000000    0.5733036700000000    0.5664162700000001    T  T  T
    0.4874369100000000    0.7729871200000000    0.4760138700000000    T  T  T
    0.4830004200000000    0.7286406600000001    0.4245843700000000    T  T  T
    0.0260812600000000    0.7085005100000000    0.3715894300000000    T  T  T
    0.1926065800000000    0.6210370100000000    0.4000897900000000    T  T  T
    0.6641469700000000    0.7300021400000000    0.3386187900000000    T  T  T
    0.7764603400000000    0.7942288600000000    0.3490121200000000    T  T  T
    0.0863910000000000    1.0371982900000001    0.4475729500000000    T  T  T
    0.1321715100000000    0.8607440400000000    0.4520412200000000    T  T  T
    0.9266665100000000    0.1326695200000000    0.3191400700000000    T  T  T
    1.0235050999999999    0.1022271700000000    0.3683280000000000    T  T  T
    0.7311281600000000    0.3503057400000000    0.5614389600000000    T  T  T
    0.5518129200000000    0.4370378900000000    0.5587455000000000    T  T  T
    0.4624345900000000    0.2670330300000000    0.6269160100000000    T  T  T
    0.5786085200000000    0.2424762300000000    0.5911028400000000    T  T  T
    0.6345402700000000    0.4693680300000000    0.4603667800000000    T  T  T
    0.7002024200000000    0.3254961200000000    0.4955591500000000    T  T  T
    0.7698639800000000    0.7174909100000000    0.5875242600000000    T  T  T
    0.8988164700000000    0.5364998700000000    0.5708498100000000    T  T  T
    0.3406176300000000    0.6548110500000000    0.4541231100000000    T  T  T
    0.2152536000000000    0.6017214600000000    0.4748049700000000    T  T  T
    0.6941204399999999    0.0490588100000000    0.4465125600000000    T  T  T
    0.8642800899999999    0.9909480100000000    0.4615557900000000    T  T  T
    0.1933538400000000    0.4316105700000000    0.5181695300000000    T  T  T
    1.0562144899999999    0.5782638700000000    0.5432504600000000    T  T  T
    0.3352587700000000    0.4601753000000000    0.6764077200000000    T  T  T
    0.1881640200000000    0.4531999500000000    0.6560274500000000    T  T  T
    0.9663854200000001    0.2493712500000000    0.5632871200000000    T  T  T
    0.9111246300000000    0.3129467600000000    0.6088502900000000    T  T  T
    0.0158254800000000    0.3685069700000000    0.6680636599999999    T  T  T
    0.9690611800000000    0.5132712400000000    0.6356622900000000    T  T  T
    0.5430100900000000    1.0178648699999999    0.6015887200000000    T  T  T
    0.5247476900000000    0.9277937100000000    0.5609342300000000    T  T  T
    0.8777131900000000    0.9547955600000000    0.3623732700000000    T  T  T
    0.8472251200000001    0.8903590900000000    0.4081986800000000    T  T  T
    0.1001535300000000    0.0791087000000000    0.6496507200000000    T  T  T
    0.9277907100000000    0.1588469200000000    0.6648654500000000    T  T  T
    0.4347120900000000    0.0386138600000000    0.4958327700000000    T  T  T
    0.6280818200000000    0.9245354700000000    0.4927610900000000    T  T  T
    0.0848130100000000    0.0099290900000000    0.5171352700000000    T  T  T
    0.1619161700000000    0.0131508600000000    0.5676327100000000    T  T  T
    0.6021120900000000    0.2615349900000000    0.4289166800000000    T  T  T
    0.5388708900000000    0.1816599300000000    0.3982068900000000    T  T  T
    0.1994378000000000    0.2034876200000000    0.4689607400000000    T  T  T
    0.1943646500000000    0.1419889900000000    0.5159218600000000    T  T  T
    0.1889187300000000    0.7108491000000000    0.3340574700000000    T  T  T
    0.1343863900000000    0.8953325600000001    0.3306090900000000    T  T  T
    0.0576140800000000    0.3857006100000000    0.3267264900000000    T  T  T
    0.1220780800000000    0.4648687900000000    0.3595162500000000    T  T  T
    0.6928570700000000    0.4161666000000000    0.2968151700000000    T  T  T
    0.6766526500000000    0.4079832800000000    0.3408017100000000    T  T  T
    0.7665852500000000    0.3175378000000000    0.3534691500000000    T  T  T

   0.000000000000000    0.000000000000000    0.000000000000000
   0.000000000000000    0.000000000000000    0.000000000000000
   0.000000000000000    0.000000000000000    0.000000000000000
   0.000000000000000    0.000000000000000    0.000000000000000
   0.000000000000000    0.000000000000000    0.000000000000000
   0.000000000000000    0.000000000000000    0.000000000000000
   0.000000000000000    0.000000000000000    0.000000000000000
   0.000000000000000    0.000000000000000    0.000000000000000
   0.000000000000000    0.000000000000000    0.000000000000000
   0.000000000000000    0.000000000000000    0.000000000000000
   0.000000000000000    0.000000000000000    0.000000000000000
   0.000000000000000    0.000000000000000    0.000000000000000
   0.000000000000000    0.000000000000000    0.000000000000000
   0.000000000000000    0.000000000000000    0.000000000000000
   0.000000000000000    0.000000000000000    0.000000000000000
   0.000000000000000    0.000000000000000    0.000000000000000
  -0.000732963444000   -0.000620719614040    0.001833980708001
   0.002516520930000   -0.002403798845431   -0.001941482508000
  -0.001820859300000    0.000511591453700   -0.003532202000000
   0.001346895275999   -0.002325229974920   -0.001209241675999
   0.002178887910000    0.003026731667090    0.000332641284000
   0.002297624646000   -0.001611981257690   -0.002214229932000
   0.003401247222000    0.000414806182010   -0.001153340740001
   0.001543086108001    0.001833897883280    0.001775315440000
   0.001496004240000   -0.001237523553060    0.000004607220000
  -0.001366848552000    0.000199018439059   -0.001842273704001
   0.003526274645999   -0.004101329089970    0.001742143456001
   0.002993089692000    0.001896208190121   -0.003542030736000
   0.002056465224001   -0.001852795271420   -0.001427623903999
  -0.000078142140000   -0.001863180322559    0.002160786180000
  -0.000058385448000   -0.000083931642820    0.000813020756000
   0.000432091632002   -0.001390745619060   -0.002537042479999
  -0.001150606152000   -0.000368584192100    0.002902548600000
  -0.000867525192001   -0.000366370984480    0.000419564167998
  -0.000347216490001    0.001030758887330   -0.000444136007999
   0.003777656436000    0.001805126184220    0.001168390992001
  -0.000184887252001   -0.001616833289780    0.001960218536000
  -0.001072611450001   -0.000763811999010   -0.002216379968000
  -0.001566479604000   -0.001542094970920    0.000255239988000
  -0.003843561221999    0.003508189447810   -0.002054820119999
   0.001011670410001    0.001395427404410   -0.001336093799999
   0.000793707900002    0.004953158653560   -0.003534044888000
   0.001240887353999   -0.001240502871010   -0.005660430491999
   0.000850766406000   -0.001801125385831    0.000910693820000
   0.000588474204000   -0.000316318442920    0.002035776943999
  -0.003816088608000    0.003431152797960   -0.001053824787999
   0.001033933548001    0.000265244420921   -0.001285721527999
   0.000132595908000    0.002811795157839    0.000464407775999
   0.000000000000000    0.000000000000000    0.000000000000000
   0.000000000000000    0.000000000000000    0.000000000000000
   0.000000000000000    0.000000000000000    0.000000000000000
   0.000000000000000    0.000000000000000    0.000000000000000
   0.000000000000000    0.000000000000000    0.000000000000000
   0.000000000000000    0.000000000000000    0.000000000000000
   0.000000000000000    0.000000000000000    0.000000000000000
   0.000000000000000    0.000000000000000    0.000000000000000
   0.000000000000000    0.000000000000000    0.000000000000000
   0.000000000000000    0.000000000000000    0.000000000000000
   0.000000000000000    0.000000000000000    0.000000000000000
   0.000000000000000    0.000000000000000    0.000000000000000
   0.000000000000000    0.000000000000000    0.000000000000000
   0.000000000000000    0.000000000000000    0.000000000000000
   0.000000000000000    0.000000000000000    0.000000000000000
   0.000000000000000    0.000000000000000    0.000000000000000
   0.000258557106000   -0.000825271072150    0.005758717852004
   0.005039922300000    0.002874445958158    0.007266200235996
  -0.005417855039999   -0.001285703380479    0.000984102191998
  -0.003269191920000    0.004212925828040   -0.003954530500001
  -0.000663126978000   -0.002814604229050   -0.001826916303999
  -0.000854403210000   -0.003461541841051   -0.001069182187997
   0.000729965538000    0.008289569140709   -0.000466864960000
  -0.002644300530000    0.000674262213770   -0.001849338107998
   0.002349227946000    0.003924612973851    0.004395595028001
  -0.003946964406000    0.009158508501670   -0.000724562132000
  -0.004545562685999    0.003606762310270   -0.001570754871999
  -0.000260768675999   -0.003675627116600   -0.006331241724002
   0.003424100112000    0.011328047832860   -0.000163402736000
  -0.003383652953998    0.001051869483090   -0.002188429499999
   0.004459901208000   -0.004438502758540   -0.006180432056002
  -0.001674699095999   -0.004150275027720   -0.003559538172000
  -0.001308413958000    0.001581847584710   -0.006051737043999
   0.005530006211999    0.001611044900620   -0.001867766988003
   0.004261793682000    0.002721309015530    0.000508022791998
   0.003135367362001   -0.001281362088610    0.005743360452001
   0.001669981080000    0.003947340913640    0.003028479279997
  -0.002106102684001    0.001177937194060   -0.000900250788000
   0.001877377200000   -0.001058594229320   -0.000638253543999
   0.003123031716000   -0.004108734823160    0.005811547308003
   0.000490477080000   -0.005753829071780   -0.001600241080000
  -0.003796577646000    0.011685651110230    0.005205544303998
   0.002411643366000   -0.002971741970070   -0.001029560095999
   0.003812550096000    0.000521295517880    0.001912917744001
  -0.000227939148000    0.003194509829361    0.007636313575999
   0.000706375458000   -0.004001394253590   -0.004724243388003
   0.018620289042000    0.017570059431590   -0.003037386572000
   0.001565201808001   -0.007255235071840    0.000050679419999
  -0.023537002320001    0.029916097646279    0.012153232064001
   0.000283179251999   -0.013007531922959   -0.001117097276001
  -0.014062882170000    0.012031251992431   -0.019581299296000
  -0.019601243202001   -0.000046902976870   -0.009267576604001
   0.000791643768000   -0.020933028410180   -0.014408926975999
  -0.009045861906000   -0.012316245035191   -0.003893715196000
   0.009604455342000   -0.000752235220690    0.012512902372000
  -0.002818179078001    0.000674091967030    0.002973499787998
   0.016589232300000   -0.016198126077301   -0.017934986016002
   0.009306089976000    0.014411046047520   -0.039425210132002
  -0.030646167804001   -0.014025777674900   -0.004445353004000
  -0.004317377808000    0.014149206561400   -0.001446359932000
   0.010097045700000   -0.006852431285000   -0.003066565632000
  -0.016218868044001    0.013728526866860   -0.004348294235999
  -0.014581421615999    0.016731168620240   -0.000244489808001
   0.005251053516000   -0.007975549028781    0.003331327208002
   0.011508027360000    0.007143723457141    0.002341389203998
  -0.007710270210000   -0.001313708969211    0.021198126368001
  -0.016326055470001   -0.024414318873070    0.010364094964000
   0.002970482532000   -0.010508139533020    0.000621360404001
   0.003249730103999    0.005562471736020   -0.008752182260000
  -0.006565709016000    0.032918228659440   -0.020455442503998
  -0.001761097763999   -0.007658549598900   -0.008688295475999
   0.004790014890000   -0.012715303393750    0.010887168007997
   0.019748337179999   -0.016049160179800    0.000081087072001
   0.013558644209999    0.043060933565050    0.020770883499999
   0.008514642792001   -0.024414063502959    0.010517054668000
  -0.016707428430001    0.013299079465210   -0.000777391587999
  -0.002135147970000   -0.006235201729131    0.003064108447999
   0.006364652730000   -0.003424598298470    0.006877965164000
   0.012034282728000   -0.000190846595540   -0.011918570992000
   0.032111848962000    0.009683719694571    0.019469804571999
   0.007967402082000    0.003918654337950    0.005223051740002
   0.001194051216004   -0.022845239793861   -0.020871935192002
  -0.021659575973999   -0.016245880287870   -0.014413841344002
   0.020085822762000    0.002013423070609   -0.014821426739999
   0.020781631829999   -0.006321857319790    0.016202671296000
  -0.012898760868001   -0.011012750870380   -0.011256974200002
  -0.011666277480000    0.020098138397220    0.004225435036002
   0.019858227636000    0.006387146944579    0.017534465024003
   0.022450924865998    0.014945535687751    0.009868358092003
   0.022972363926002   -0.004992911267350    0.020776719312000
  -0.004411148376001    0.031083479542460    0.006914515775998
   0.033733028064001    0.020521371792860   -0.017477028347999
   0.016838943126000   -0.005705393874250   -0.007787737539999
  -0.007427434980000    0.037420233452000   -0.008271802787998
  -0.000285145092001   -0.013900135580780    0.006436900636000
  -0.000569847870000    0.012576041560430   -0.019004782500000
   0.012734858958000   -0.013273882947690   -0.009442958112002
   0.005354653284000   -0.017817683314920    0.037562357511998
  -0.012438361140000   -0.004522774894840   -0.011437270076000
   0.011194475880000    0.001957667263260   -0.000301619336000
   0.005469900654000    0.000045200509470   -0.013046725595999
   0.006480735582000    0.011127752543250   -0.010251985943999
  -0.008319238296001    0.005487563170420    0.027295628464000
  -0.012910899930001   -0.012817281191011    0.013661943040001
   0.005509561476000   -0.022303174173700    0.008004584028001
   0.005632868790000    0.001099879063771   -0.000235275367999
  -0.000648432324001   -0.001710639243520   -0.004171684136001
  -0.004630880141999   -0.004628412997010    0.003816313899998
   0.015398965326000    0.013720269899970    0.014418755711999