 Ni\(1\1\1)                             
   1.00000000000000     
     9.8291997910000006    0.0000000000000000    0.0000000000000000
     4.9145998955000003    8.5123367178000002    0.0000000000000000
     0.0000000000000000    0.0000000000000000   19.0128002167000005
   Ni   O    C    O    H    C    O    H 
    64     3     1     2     1     1     1     1
Selective dynamics
Direct
  0.8345941008827412  0.5826926867558293  0.2717220458058444   T   T   T
  0.3351588412798546  0.0824353826000768  0.2702821611361569   T   T   T
  0.8348022942676133  0.0827629456407889  0.2708713854696089   T   T   T
  0.3349014191523679  0.5828457398526760  0.2709096253129259   T   T   T
  0.5852183498795248  0.8329187074702381  0.2712226816499739   T   T   T
  0.8343376846632359  0.8326804009381304  0.2709595725713091   T   T   T
  0.0850498616396847  0.3328193194160547  0.2706602054476593   T   T   T
  0.8353135750368370  0.3321772240864990  0.2707923722095464   T   T   T
  0.5852250526259324  0.5827532452806022  0.2716084508138911   T   T   T
  0.0845776761999741  0.5823545934433305  0.2711911068464516   T   T   T
  0.0844331472238904  0.0832157710018771  0.2702803391918914   T   T   T
  0.5852416336506608  0.0820754505755072  0.2716093622913056   T   T   T
  0.3350990980884880  0.8328888243452972  0.2705394645371845   T   T   T
  0.0846077994999729  0.8325670674421913  0.2706289764304930   T   T   T
  0.3350690485749273  0.3322770997275983  0.2709192213609716   T   T   T
  0.5848206670782182  0.3321982217264220  0.2718181743130630   T   T   T
  0.9181219434873723  0.6650979079926198  0.3761162971569045   T   T   T
  0.9193190740914545  0.4152462726614291  0.3756267006051850   T   T   T
  0.6696860663241609  0.6654509417668270  0.3769543720209350   T   T   T
  0.1687924565589667  0.1653876920452466  0.3754011909171479   T   T   T
  0.9185621698372829  0.1653926308158778  0.3764857707320796   T   T   T
  0.9181180286297180  0.9161274631263551  0.3756960317349838   T   T   T
  0.4184533137287834  0.9162062772100179  0.3758297342969815   T   T   T
  0.4185984143841629  0.1654782243408336  0.3757230296029009   T   T   T
  0.6695116780750247  0.1660498178666319  0.3770787588215049   T   T   T
  0.1688397901429080  0.6656635584505850  0.3757636833730733   T   T   T
  0.4183522325068511  0.6661004231910052  0.3760264603969808   T   T   T
  0.4180620453173647  0.4165041920595998  0.3763973224810974   T   T   T
  0.6688532982274340  0.9149846949888224  0.3792263347933053   T   T   T
  0.1683875667832353  0.4158760955131472  0.3781989196814297   T   T   T
  0.6686344770816844  0.4150474319521412  0.3775947405795994   T   T   T
  0.1686896639078196  0.9156787295520855  0.3781323683852334   T   T   T
  0.0027421403406428  0.2508103657965879  0.4789872959018552   T   T   T
  0.4996888591950498  0.2491805212135405  0.4791560218622049   T   T   T
  0.0000774010912078  0.7483242742890052  0.4786164822745039   T   T   T
  0.5025275648562647  0.7506707596275632  0.4789463871975846   T   T   T
  0.7490208105473591  0.7525425006742347  0.4867624241514760   T   T   T
  0.0001452471965353  0.4996506682087862  0.4850564216596840   T   T   T
  0.7544683306334763  0.4983071370852811  0.4836660718904364   T   T   T
  0.2494302370683132 -0.0018642748551744  0.4855520655788084   T   T   T
  0.0052256803379151  0.9969617196819643  0.4850236186264588   T   T   T
  0.5022731167170320 -0.0004810838016141  0.4859384509159826   T   T   T
  0.2483733580962217  0.7536884306898783  0.4853919661889785   T   T   T
  0.7485463786616611 -0.0007361473145375  0.4851034945228320   T   T   T
  0.2496288449138931  0.2525463464165820  0.4849515390783874   T   T   T
  0.7510028313284867  0.2523653079640344  0.4938580134503530   T   T   T
  0.2485777724634066  0.4978621008531904  0.4853291096587511   T   T   T
  0.5009275568541002  0.5012835991592568  0.4885005462276103   T   T   T
  0.9970724670000024  0.2558556729999992  0.1637003960000030   F   F   F
  0.4999617989999976  0.2500875830000027  0.1643123180000003   F   F   F
  0.9968841629999972  0.7476992069999966  0.1643590660000029   F   F   F
  0.5054474789999972  0.7476858750000019  0.1651548480000002   F   F   F
  0.7507219769999978  0.7486395119999969  0.1651830500000031   F   F   F
  0.9979410790000003  0.5014025589999989  0.1651978470000017   F   F   F
  0.7507272960000009  0.5014379059999996  0.1654730480000026   F   F   F
  0.2484077359999972  0.9989653640000000  0.1655050250000016   F   F   F
  0.0026835399999996  0.9989392600000002  0.1655775309999967   F   F   F
  0.5037179199999997  0.9979203070000011  0.1655856309999990   F   F   F
  0.2483221529999966  0.7533767729999994  0.1658259459999982   F   F   F
  0.7484137009999969  0.9978805350000002  0.1658943890000018   F   F   F
  0.2473094730000014  0.2543786680000011  0.1660089160000027   F   F   F
  0.7483561820000020  0.2543461500000035  0.1660180820000008   F   F   F
  0.2472921950000000  0.4989472700000022  0.1662971330000005   F   F   F
  0.5037960519999984  0.4989156760000029  0.1664085250000014   F   F   F
  0.3318770676033121  0.0847620119063914  0.5462451291165084   T   T   T
  0.8415463561158585  0.0698131368886252  0.5469768854800287   T   T   T
  0.3246671021099213  0.5879365266854022  0.5474333963083766   T   T   T
  0.9313183653377742  0.5598794020599697  0.5770790374211355   T   T   T
  0.8112907213286046  0.6912515091398248  0.5893225476358291   T   T   T
  0.0090196848370697  0.4710108501806502  0.6326152643022703   T   T   T
  0.0996508196348915  0.3742459156098448  0.6145038341513008   T   T   T
  0.6658370103064805  0.4312310170588076  0.5506205750512093   T   T   T
  0.6571952930349491  0.4440601888363079  0.6197660973297687   T   T   T
  0.5462995205277635  0.5018737247843746  0.6346768731024629   T   T   T
 
  0.00000000E+00  0.00000000E+00  0.00000000E+00
  0.00000000E+00  0.00000000E+00  0.00000000E+00
  0.00000000E+00  0.00000000E+00  0.00000000E+00
  0.00000000E+00  0.00000000E+00  0.00000000E+00
  0.00000000E+00  0.00000000E+00  0.00000000E+00
  0.00000000E+00  0.00000000E+00  0.00000000E+00
  0.00000000E+00  0.00000000E+00  0.00000000E+00
  0.00000000E+00  0.00000000E+00  0.00000000E+00
  0.00000000E+00  0.00000000E+00  0.00000000E+00
  0.00000000E+00  0.00000000E+00  0.00000000E+00
  0.00000000E+00  0.00000000E+00  0.00000000E+00
  0.00000000E+00  0.00000000E+00  0.00000000E+00
  0.00000000E+00  0.00000000E+00  0.00000000E+00
  0.00000000E+00  0.00000000E+00  0.00000000E+00
  0.00000000E+00  0.00000000E+00  0.00000000E+00
  0.00000000E+00  0.00000000E+00  0.00000000E+00
  0.00000000E+00  0.00000000E+00  0.00000000E+00
  0.00000000E+00  0.00000000E+00  0.00000000E+00
  0.00000000E+00  0.00000000E+00  0.00000000E+00
  0.00000000E+00  0.00000000E+00  0.00000000E+00
  0.00000000E+00  0.00000000E+00  0.00000000E+00
  0.00000000E+00  0.00000000E+00  0.00000000E+00
  0.00000000E+00  0.00000000E+00  0.00000000E+00
  0.00000000E+00  0.00000000E+00  0.00000000E+00
  0.00000000E+00  0.00000000E+00  0.00000000E+00
  0.00000000E+00  0.00000000E+00  0.00000000E+00
  0.00000000E+00  0.00000000E+00  0.00000000E+00
  0.00000000E+00  0.00000000E+00  0.00000000E+00
  0.00000000E+00  0.00000000E+00  0.00000000E+00
  0.00000000E+00  0.00000000E+00  0.00000000E+00
  0.00000000E+00  0.00000000E+00  0.00000000E+00
  0.00000000E+00  0.00000000E+00  0.00000000E+00
  0.00000000E+00  0.00000000E+00  0.00000000E+00
  0.00000000E+00  0.00000000E+00  0.00000000E+00
  0.00000000E+00  0.00000000E+00  0.00000000E+00
  0.00000000E+00  0.00000000E+00  0.00000000E+00
  0.00000000E+00  0.00000000E+00  0.00000000E+00
  0.00000000E+00  0.00000000E+00  0.00000000E+00
  0.00000000E+00  0.00000000E+00  0.00000000E+00
  0.00000000E+00  0.00000000E+00  0.00000000E+00
  0.00000000E+00  0.00000000E+00  0.00000000E+00
  0.00000000E+00  0.00000000E+00  0.00000000E+00
  0.00000000E+00  0.00000000E+00  0.00000000E+00
  0.00000000E+00  0.00000000E+00  0.00000000E+00
  0.00000000E+00  0.00000000E+00  0.00000000E+00
  0.00000000E+00  0.00000000E+00  0.00000000E+00
  0.00000000E+00  0.00000000E+00  0.00000000E+00
  0.00000000E+00  0.00000000E+00  0.00000000E+00
  0.00000000E+00  0.00000000E+00  0.00000000E+00
  0.00000000E+00  0.00000000E+00  0.00000000E+00
  0.00000000E+00  0.00000000E+00  0.00000000E+00
  0.00000000E+00  0.00000000E+00  0.00000000E+00
  0.00000000E+00  0.00000000E+00  0.00000000E+00
  0.00000000E+00  0.00000000E+00  0.00000000E+00
  0.00000000E+00  0.00000000E+00  0.00000000E+00
  0.00000000E+00  0.00000000E+00  0.00000000E+00
  0.00000000E+00  0.00000000E+00  0.00000000E+00
  0.00000000E+00  0.00000000E+00  0.00000000E+00
  0.00000000E+00  0.00000000E+00  0.00000000E+00
  0.00000000E+00  0.00000000E+00  0.00000000E+00
  0.00000000E+00  0.00000000E+00  0.00000000E+00
  0.00000000E+00  0.00000000E+00  0.00000000E+00
  0.00000000E+00  0.00000000E+00  0.00000000E+00
  0.00000000E+00  0.00000000E+00  0.00000000E+00
  0.00000000E+00  0.00000000E+00  0.00000000E+00
  0.00000000E+00  0.00000000E+00  0.00000000E+00
  0.00000000E+00  0.00000000E+00  0.00000000E+00
  0.00000000E+00  0.00000000E+00  0.00000000E+00
  0.00000000E+00  0.00000000E+00  0.00000000E+00
  0.00000000E+00  0.00000000E+00  0.00000000E+00
  0.00000000E+00  0.00000000E+00  0.00000000E+00
  0.00000000E+00  0.00000000E+00  0.00000000E+00
  0.00000000E+00  0.00000000E+00  0.00000000E+00
  0.00000000E+00  0.00000000E+00  0.00000000E+00
