Ni_CO2CHOH
   1.00000000000000     
     9.8291997910000006    0.0000000000000000    0.0000000000000000
     4.9145998955000003    8.5123367178000002    0.0000000000000000
     0.0000000000000000    0.0000000000000000   19.0128002167000005
   Ni   O    C    H 
    64     3     2     2
Selective dynamics
Direct
      0.8345846477454814      0.5854452633515075      0.2686751753416360   T T T
      0.3334547808438698      0.0856100192852337      0.2682039914712830   T T T
      0.8348975476205025      0.0856575864700389      0.2691269596684104   T T T
      0.3341533888981942      0.5860123249874751      0.2687313088092572   T T T
      0.5840723896720252      0.8358417977371412      0.2686585778160115   T T T
      0.8342600571466268      0.8359788181110697      0.2680677582846512   T T T
      0.0847731637864429      0.3353323257851378      0.2693604687780342   T T T
      0.8349138857829098      0.3351216726678057      0.2694905481345642   T T T
      0.5842072474234568      0.5855308568360639      0.2688225904624083   T T T
      0.0841814573913616      0.5858283937042483      0.2687344454796121   T T T
      0.0837300757162275      0.0858715820618906      0.2692415392834927   T T T
      0.5842236310712090      0.0856670821378942      0.2679672450954240   T T T
      0.3339992882687015      0.8355881234817228      0.2681598954020527   T T T
      0.0841786561246110      0.8359518310504104      0.2685596861932780   T T T
      0.3339409288264430      0.3359548410338959      0.2672818508627593   T T T
      0.5842410302843609      0.3355109030077505      0.2690085182570748   T T T
      0.9182726904820052      0.6682403371520986      0.3740843530731339   T T T
      0.9186344902228583      0.4186679093476810      0.3748039981830664   T T T
      0.6677162985521701      0.6689586965193792      0.3732157372569251   T T T
      0.1657730058874633      0.1694732376510802      0.3751346910796655   T T T
      0.9170318230170417      0.1704636741399332      0.3771060294011178   T T T
      0.9180361350887901      0.9190063481553102      0.3739347746588300   T T T
      0.4170186832325596      0.9190706000930071      0.3735301819359849   T T T
      0.4166374761558244      0.1691087669088980      0.3721127473687779   T T T
      0.6686626856683414      0.1686608975952579      0.3735573191148210   T T T
      0.1682239551193204      0.6685671003463143      0.3738459654371595   T T T
      0.4186050645697292      0.6673538955817514      0.3747552555158439   T T T
      0.4178754448847153      0.4194583928207968      0.3737013288335186   T T T
      0.6677485618270319      0.9192318724674282      0.3734757726657721   T T T
      0.1675289953539647      0.4192079257627849      0.3740955475589466   T T T
      0.6679811478919638      0.4177906047171135      0.3742566081792481   T T T
      0.1675140010588252      0.9186932427258145      0.3741500703553838   T T T
      0.0007295176025678      0.2507819547074254      0.4855569064965092   T T T
      0.4997281607815296      0.2479889881960154      0.4759302087578807   T T T
      0.0023407642330849      0.7514279521828762      0.4795467842463793   T T T
      0.5005543300400522      0.7529784746237324      0.4793769312621222   T T T
      0.7507710582544713      0.7532429883205457      0.4788463391242104   T T T
      0.0022854877052270      0.5020336837810566      0.4846702027191950   T T T
      0.7493964470142963      0.5068495831554858      0.4769833339004165   T T T
      0.2524710761623385     -0.0006746747144746      0.4791737193252941   T T T
      0.0001601387956331      0.0011601132401584      0.4799470461352945   T T T
      0.5012644605690106      0.0011403369610131      0.4790646972796664   T T T
      0.2529146115697706      0.7499666256925477      0.4798142556989149   T T T
      0.7519992581644720      0.0003159828069260      0.4792433959832607   T T T
      0.2543120647632107      0.2502181118798898      0.4784013637321012   T T T
      0.7438670898788721      0.2527680743969057      0.4861554270078670   T T T
      0.2520221666372356      0.5020128601078616      0.4790755198780230   T T T
      0.5043214820042251      0.5003504359781454      0.4861323807511890   T T T
      0.0003688076292559      0.2522556930991161      0.1636354272286418   F F F
      0.5010567855229455      0.2518180967779275      0.1626163781374579   F F F
      0.0010729155846344      0.7517124075992433      0.1626818127681904   F F F
      0.5006870000654232      0.7517185700626309      0.1628981494494663   F F F
      0.7509107879645188      0.7516699459974202      0.1628457934012681   F F F
      0.0005110979020544      0.5020586073173572      0.1631757894610009   F F F
      0.7505402091648965      0.5020199667886064      0.1631461380780351   F F F
      0.2501998368665361      0.0021578072291779      0.1629008191482529   F F F
      0.0004730311415829      0.0020861755222288      0.1632031646415984   F F F
      0.5008446717015801      0.0015361344011313      0.1627817466932303   F F F
      0.2503676548318914      0.7520303276841335      0.1627285678538909   F F F
      0.7507301097468058      0.0021438468950681      0.1626676858303883   F F F
      0.2503194436951297      0.2520396597533422      0.1627713027908791   F F F
      0.7508033471414288      0.2521411484826855      0.1636529036201283   F F F
      0.2505160714765239      0.5020888279092447      0.1625280806005148   F F F
      0.5004676570648806      0.5021535586721929      0.1631973673391330   F F F
      0.0058568573392870      0.5262573191153013      0.6251340437140793   T T T
      0.9949894742600400      0.3110487909608564      0.5843093224468164   T T T
      0.5447608807939293      0.3472916621317569      0.6158595637863850   T T T
      0.0014583008164317      0.4382497560046573      0.5813753295038810   T T T
      0.6229936179558949      0.3796261855248656      0.5659937975414077   T T T
      0.7055304879940455      0.4050447786737191      0.5950089411157519   T T T
      0.4631139955492624      0.3303481353872674      0.5935015855931292   T T T
 
  0.00000000E+00  0.00000000E+00  0.00000000E+00
  0.00000000E+00  0.00000000E+00  0.00000000E+00
  0.00000000E+00  0.00000000E+00  0.00000000E+00
  0.00000000E+00  0.00000000E+00  0.00000000E+00
  0.00000000E+00  0.00000000E+00  0.00000000E+00
  0.00000000E+00  0.00000000E+00  0.00000000E+00
  0.00000000E+00  0.00000000E+00  0.00000000E+00
  0.00000000E+00  0.00000000E+00  0.00000000E+00
  0.00000000E+00  0.00000000E+00  0.00000000E+00
  0.00000000E+00  0.00000000E+00  0.00000000E+00
  0.00000000E+00  0.00000000E+00  0.00000000E+00
  0.00000000E+00  0.00000000E+00  0.00000000E+00
  0.00000000E+00  0.00000000E+00  0.00000000E+00
  0.00000000E+00  0.00000000E+00  0.00000000E+00
  0.00000000E+00  0.00000000E+00  0.00000000E+00
  0.00000000E+00  0.00000000E+00  0.00000000E+00
  0.00000000E+00  0.00000000E+00  0.00000000E+00
  0.00000000E+00  0.00000000E+00  0.00000000E+00
  0.00000000E+00  0.00000000E+00  0.00000000E+00
  0.00000000E+00  0.00000000E+00  0.00000000E+00
  0.00000000E+00  0.00000000E+00  0.00000000E+00
  0.00000000E+00  0.00000000E+00  0.00000000E+00
  0.00000000E+00  0.00000000E+00  0.00000000E+00
  0.00000000E+00  0.00000000E+00  0.00000000E+00
  0.00000000E+00  0.00000000E+00  0.00000000E+00
  0.00000000E+00  0.00000000E+00  0.00000000E+00
  0.00000000E+00  0.00000000E+00  0.00000000E+00
  0.00000000E+00  0.00000000E+00  0.00000000E+00
  0.00000000E+00  0.00000000E+00  0.00000000E+00
  0.00000000E+00  0.00000000E+00  0.00000000E+00
  0.00000000E+00  0.00000000E+00  0.00000000E+00
  0.00000000E+00  0.00000000E+00  0.00000000E+00
  0.00000000E+00  0.00000000E+00  0.00000000E+00
  0.00000000E+00  0.00000000E+00  0.00000000E+00
  0.00000000E+00  0.00000000E+00  0.00000000E+00
  0.00000000E+00  0.00000000E+00  0.00000000E+00
  0.00000000E+00  0.00000000E+00  0.00000000E+00
  0.00000000E+00  0.00000000E+00  0.00000000E+00
  0.00000000E+00  0.00000000E+00  0.00000000E+00
  0.00000000E+00  0.00000000E+00  0.00000000E+00
  0.00000000E+00  0.00000000E+00  0.00000000E+00
  0.00000000E+00  0.00000000E+00  0.00000000E+00
  0.00000000E+00  0.00000000E+00  0.00000000E+00
  0.00000000E+00  0.00000000E+00  0.00000000E+00
  0.00000000E+00  0.00000000E+00  0.00000000E+00
  0.00000000E+00  0.00000000E+00  0.00000000E+00
  0.00000000E+00  0.00000000E+00  0.00000000E+00
  0.00000000E+00  0.00000000E+00  0.00000000E+00
  0.00000000E+00  0.00000000E+00  0.00000000E+00
  0.00000000E+00  0.00000000E+00  0.00000000E+00
  0.00000000E+00  0.00000000E+00  0.00000000E+00
  0.00000000E+00  0.00000000E+00  0.00000000E+00
  0.00000000E+00  0.00000000E+00  0.00000000E+00
  0.00000000E+00  0.00000000E+00  0.00000000E+00
  0.00000000E+00  0.00000000E+00  0.00000000E+00
  0.00000000E+00  0.00000000E+00  0.00000000E+00
  0.00000000E+00  0.00000000E+00  0.00000000E+00
  0.00000000E+00  0.00000000E+00  0.00000000E+00
  0.00000000E+00  0.00000000E+00  0.00000000E+00
  0.00000000E+00  0.00000000E+00  0.00000000E+00
  0.00000000E+00  0.00000000E+00  0.00000000E+00
  0.00000000E+00  0.00000000E+00  0.00000000E+00
  0.00000000E+00  0.00000000E+00  0.00000000E+00
  0.00000000E+00  0.00000000E+00  0.00000000E+00
  0.00000000E+00  0.00000000E+00  0.00000000E+00
  0.00000000E+00  0.00000000E+00  0.00000000E+00
  0.00000000E+00  0.00000000E+00  0.00000000E+00
  0.00000000E+00  0.00000000E+00  0.00000000E+00
  0.00000000E+00  0.00000000E+00  0.00000000E+00
  0.00000000E+00  0.00000000E+00  0.00000000E+00
  0.00000000E+00  0.00000000E+00  0.00000000E+00
