 Ni(111)_pristine                          
   1.00000000000000     
     9.8291997910000006    0.0000000000000000    0.0000000000000000
     4.9145998955000003    8.5123367178000002    0.0000000000000000
     0.0000000000000000    0.0000000000000000   19.0128002167000005
   Ni
    64
Selective dynamics
Direct
  0.0820859243984368  0.0853893109517683  0.1769045637540869   T   T   T
  0.3320606472883552  0.0853895870650217  0.1768983389700816   T   T   T
  0.3321350616779328  0.8353552567647747  0.1769282457353094   T   T   T
  0.5820235564250136  0.3354048123144960  0.1769164269842662   T   T   T
  0.3320825062121072  0.5853625101725771  0.1769149033894353   T   T   T
  0.3320414212608621  0.3353577406425322  0.1768658198091144   T   T   T
  0.8320489592459195  0.0854081113555206  0.1769476480137241   T   T   T
  0.5819998715949006  0.0854048261088756  0.1769176791527070   T   T   T
  0.8320446886771830  0.3354047655840451  0.1769184985538843   T   T   T
  0.5820606785643726  0.5854306652012367  0.1769179016063153   T   T   T
  0.0820949054718363  0.8352966462559562  0.1769376867182660   T   T   T
  0.5820860391896101  0.8354016688065332  0.1769299085002327   T   T   T
  0.0820782239011362  0.3353299684108510  0.1769054843913695   T   T   T
  0.8320439131930699  0.5854464140118278  0.1769503558734459   T   T   T
  0.0820345819276504  0.5853827909895397  0.1768957591891291   T   T   T
  0.8320200558226475  0.8354260972868471  0.1769315840347656   T   T   T
  0.1654529279152634  0.1687248059883234  0.2821606646507911   T   T   T
  0.1654913397806046  0.9186455079709011  0.2821422581430360   T   T   T
  0.4153982658341804  0.1687068890686177  0.2821241946588352   T   T   T
  0.4154264098267072  0.9187093443977131  0.2821732267871116   T   T   T
  0.4153536030913613  0.4186801162422373  0.2821299223759059   T   T   T
  0.4154051912920573  0.6686924540744188  0.2821623471562373   T   T   T
  0.9154465887387500  0.1687711988018067  0.2821676701518293   T   T   T
  0.6654272951533388  0.1687039697215431  0.2821579221227526   T   T   T
  0.6654352290600164  0.4187619475333671  0.2821602450968241   T   T   T
  0.1654087348002502  0.6686569840671365  0.2821840997579876   T   T   T
  0.9154146210884734  0.4187698813985381  0.2821771693751732   T   T   T
  0.6654813754049023  0.6687653439154744  0.2822218305758011   T   T   T
  0.9154108392728385  0.9186963945065488  0.2821855675125150   T   T   T
  0.6654699426137503  0.9186635790742140  0.2821737175328880   T   T   T
  0.1653886290687463  0.4187576490414912  0.2821757949173889   T   T   T
  0.9154796800659796  0.6686642224378064  0.2822285437055725   T   T   T
  0.2486794440937822  0.0021641911107088  0.3877486652512903   T   T   T
  0.4986677745409223  0.2521522762247845  0.3876991412119162   T   T   T
  0.4986226528415980  0.5021739087760473  0.3877566833910533   T   T   T
  0.2486790324954441  0.2521943328619087  0.3877219265861106   T   T   T
  0.9986839131829230  0.2521563803632352  0.3878192542391166   T   T   T
  0.7486409707732030  0.2521188693935607  0.3877869017063827   T   T   T
  0.4986108349533469  0.7521970439067118  0.3878570032025674   T   T   T
  0.2486393923939660  0.7521698104964217  0.3877885641863685   T   T   T
  0.4986626491074358  0.0022007468223134  0.3877517285685833   T   T   T
  0.9987269854455371  0.0020917183135224  0.3878157063113906   T   T   T
  0.2486889959183818  0.5020746053819036  0.3877358332296740   T   T   T
  0.7486620008100324  0.5021841622350368  0.3878837582330931   T   T   T
  0.7486790135590735  0.0020729891876130  0.3878526532558756   T   T   T
  0.9986623843145608  0.7521187247871162  0.3878812108952733   T   T   T
  0.7486565156917991  0.7521250252599524  0.3879352222657574   T   T   T
  0.9987022318921895  0.5021022967418231  0.3878659280718645   T   T   T
  0.2488099890000015  0.0018900000000031  0.0714200000000034   F   F   F
  0.4986599900000002  0.2520299789999996  0.0714200000000034   F   F   F
  0.4987100749999982  0.5019500149999985  0.0714200000000034   F   F   F
  0.2486699889999997  0.2519600139999980  0.0714200000000034   F   F   F
  0.9988300199999998  0.2520000100000033  0.0714200000000034   F   F   F
  0.7487000469999998  0.2521199990000014  0.0714200000000034   F   F   F
  0.4986899749999978  0.7520999730000000  0.0714200000000034   F   F   F
  0.2487699630000009  0.7521200280000002  0.0714200000000034   F   F   F
  0.4985999800000016  0.0021100000000018  0.0714200000000034   F   F   F
  0.9987700320000030  0.0022099999999980  0.0714200000000034   F   F   F
  0.2487500120000021  0.5021200269999966  0.0714200000000034   F   F   F
  0.7486699880000032  0.5022699849999981  0.0714200000000034   F   F   F
  0.7485899979999999  0.0024500000000032  0.0714200000000034   F   F   F
  0.9987000519999967  0.7524499689999971  0.0714200000000034   F   F   F
  0.7486699279999982  0.7524300270000026  0.0714200000000034   F   F   F
  0.9986899559999998  0.5022000199999965  0.0714200000000034   F   F   F
 
  0.00000000E+00  0.00000000E+00  0.00000000E+00
  0.00000000E+00  0.00000000E+00  0.00000000E+00
  0.00000000E+00  0.00000000E+00  0.00000000E+00
  0.00000000E+00  0.00000000E+00  0.00000000E+00
  0.00000000E+00  0.00000000E+00  0.00000000E+00
  0.00000000E+00  0.00000000E+00  0.00000000E+00
  0.00000000E+00  0.00000000E+00  0.00000000E+00
  0.00000000E+00  0.00000000E+00  0.00000000E+00
  0.00000000E+00  0.00000000E+00  0.00000000E+00
  0.00000000E+00  0.00000000E+00  0.00000000E+00
  0.00000000E+00  0.00000000E+00  0.00000000E+00
  0.00000000E+00  0.00000000E+00  0.00000000E+00
  0.00000000E+00  0.00000000E+00  0.00000000E+00
  0.00000000E+00  0.00000000E+00  0.00000000E+00
  0.00000000E+00  0.00000000E+00  0.00000000E+00
  0.00000000E+00  0.00000000E+00  0.00000000E+00
  0.00000000E+00  0.00000000E+00  0.00000000E+00
  0.00000000E+00  0.00000000E+00  0.00000000E+00
  0.00000000E+00  0.00000000E+00  0.00000000E+00
  0.00000000E+00  0.00000000E+00  0.00000000E+00
  0.00000000E+00  0.00000000E+00  0.00000000E+00
  0.00000000E+00  0.00000000E+00  0.00000000E+00
  0.00000000E+00  0.00000000E+00  0.00000000E+00
  0.00000000E+00  0.00000000E+00  0.00000000E+00
  0.00000000E+00  0.00000000E+00  0.00000000E+00
  0.00000000E+00  0.00000000E+00  0.00000000E+00
  0.00000000E+00  0.00000000E+00  0.00000000E+00
  0.00000000E+00  0.00000000E+00  0.00000000E+00
  0.00000000E+00  0.00000000E+00  0.00000000E+00
  0.00000000E+00  0.00000000E+00  0.00000000E+00
  0.00000000E+00  0.00000000E+00  0.00000000E+00
  0.00000000E+00  0.00000000E+00  0.00000000E+00
  0.00000000E+00  0.00000000E+00  0.00000000E+00
  0.00000000E+00  0.00000000E+00  0.00000000E+00
  0.00000000E+00  0.00000000E+00  0.00000000E+00
  0.00000000E+00  0.00000000E+00  0.00000000E+00
  0.00000000E+00  0.00000000E+00  0.00000000E+00
  0.00000000E+00  0.00000000E+00  0.00000000E+00
  0.00000000E+00  0.00000000E+00  0.00000000E+00
  0.00000000E+00  0.00000000E+00  0.00000000E+00
  0.00000000E+00  0.00000000E+00  0.00000000E+00
  0.00000000E+00  0.00000000E+00  0.00000000E+00
  0.00000000E+00  0.00000000E+00  0.00000000E+00
  0.00000000E+00  0.00000000E+00  0.00000000E+00
  0.00000000E+00  0.00000000E+00  0.00000000E+00
  0.00000000E+00  0.00000000E+00  0.00000000E+00
  0.00000000E+00  0.00000000E+00  0.00000000E+00
  0.00000000E+00  0.00000000E+00  0.00000000E+00
  0.00000000E+00  0.00000000E+00  0.00000000E+00
  0.00000000E+00  0.00000000E+00  0.00000000E+00
  0.00000000E+00  0.00000000E+00  0.00000000E+00
  0.00000000E+00  0.00000000E+00  0.00000000E+00
  0.00000000E+00  0.00000000E+00  0.00000000E+00
  0.00000000E+00  0.00000000E+00  0.00000000E+00
  0.00000000E+00  0.00000000E+00  0.00000000E+00
  0.00000000E+00  0.00000000E+00  0.00000000E+00
  0.00000000E+00  0.00000000E+00  0.00000000E+00
  0.00000000E+00  0.00000000E+00  0.00000000E+00
  0.00000000E+00  0.00000000E+00  0.00000000E+00
  0.00000000E+00  0.00000000E+00  0.00000000E+00
  0.00000000E+00  0.00000000E+00  0.00000000E+00
  0.00000000E+00  0.00000000E+00  0.00000000E+00
  0.00000000E+00  0.00000000E+00  0.00000000E+00
  0.00000000E+00  0.00000000E+00  0.00000000E+00
