 CONTCAR                                
   1.00000000000000     
     9.8291997910000006    0.0000000000000000    0.0000000000000000
     4.9145998955000003    8.5123367178000002    0.0000000000000000
     0.0000000000000000    0.0000000000000000   33.0127983093000026
   Ni   O    C 
    64     5     2
Selective dynamics
Direct
  0.8335799449999968  0.5843900050000030  0.1209800009999995   F   F   F
  0.3341099760000006  0.0845199990000012  0.1203500040000023   F   F   F
  0.8336200780000027  0.0847300009999969  0.1206300010000021   F   F   F
  0.3342600100000013  0.5840200120000034  0.1207399999999978   F   F   F
  0.5841000189999974  0.8347400010000001  0.1206400040000020   F   F   F
  0.8339400750000010  0.8343999769999968  0.1206799989999965   F   F   F
  0.0838600120000024  0.3345899859999975  0.1204399969999983   F   F   F
  0.8330500599999979  0.3344699969999994  0.1211199999999977   F   F   F
  0.5838299839999976  0.5834299830000020  0.1214900049999983   F   F   F
  0.0841199990000021  0.5842999850000012  0.1207700000000003   F   F   F
  0.0832200030000010  0.0856100029999993  0.1202500010000023   F   F   F
  0.5841500080000017  0.0842600020000006  0.1214800090000026   F   F   F
  0.3350300150000010  0.8340000139999972  0.1204300019999991   F   F   F
  0.0840300189999965  0.8344799690000002  0.1205599979999974   F   F   F
  0.3339100029999997  0.3344200020000017  0.1215299999999999   F   F   F
  0.5837600480000020  0.3339199930000021  0.1217600069999989   F   F   F
  0.9169505096915410  0.6672010441628874  0.1808183559910659   T   T   T
  0.9152886780635487  0.4176483799057975  0.1816107406959607   T   T   T
  0.6673942958166593  0.6656989981720723  0.1816646903725714   T   T   T
  0.1666011733972855  0.1671441489496481  0.1808467794503491   T   T   T
  0.9152807309874177  0.1676553116187364  0.1818561026933522   T   T   T
  0.9171942924667987  0.9178097267164393  0.1810171959728089   T   T   T
  0.4167816149354018  0.9171410026824415  0.1809724393431279   T   T   T
  0.4161599970615000  0.1667288303980787  0.1812278542705029   T   T   T
  0.6678734263624782  0.1670519339261437  0.1820746548517500   T   T   T
  0.1674472424988296  0.6675230770597733  0.1810532841979703   T   T   T
  0.4170138963740435  0.6660055757754308  0.1820319054249712   T   T   T
  0.4166962306544134  0.4183561051991524  0.1820909928311489   T   T   T
  0.6664376724482731  0.9181467489697848  0.1822630930210414   T   T   T
  0.1675077340588810  0.4167192863934361  0.1821889340816092   T   T   T
  0.6661658264199224  0.4163280822788117  0.1839587238184820   T   T   T
  0.1673181901152813  0.9179517189553242  0.1819909589103769   T   T   T
 -0.0010153410682728  0.2536408097614779  0.2407036104142092   T   T   T
  0.4979986320782750  0.2482780813195535  0.2405396847951560   T   T   T
  0.9971714365782800  0.7474011922747762  0.2409747194154069   T   T   T
  0.5033588641708125  0.7495356187360674  0.2407948540663121   T   T   T
  0.7503751388415948  0.7501825204377226  0.2416363400736576   T   T   T
 -0.0003785366217023  0.5007431222944139  0.2416111010784029   T   T   T
  0.7540021742943183  0.5045261880274415  0.2453253187700284   T   T   T
  0.2486464402312728 -0.0011383267810168  0.2440418588625910   T   T   T
  0.0051697092936565  0.9974108641489642  0.2434276567901653   T   T   T
  0.5033708074898293 -0.0022653149806892  0.2444415036428274   T   T   T
  0.2471219016491103  0.7553841095553387  0.2434168836120173   T   T   T
  0.7494023534108105  0.9947034211861896  0.2441910739199680   T   T   T
  0.2470093011097182  0.2538236191859711  0.2444456519053763   T   T   T
  0.7475718644711113  0.2508191616043677  0.2492910109908123   T   T   T
  0.2443542014319630  0.4995479574192626  0.2441001907174829   T   T   T
  0.5005333057813292  0.4978734258222737  0.2493143625364589   T   T   T
  0.9970700049999976  0.2558600139999996  0.0591300029999999   F   F   F
  0.4999600129999990  0.2500899919999995  0.0594800000000006   F   F   F
  0.9968799869999998  0.7476999909999975  0.0595100000000031   F   F   F
  0.5054500629999978  0.7476900200000003  0.0599699979999997   F   F   F
  0.7507199779999993  0.7486400160000031  0.0599899999999991   F   F   F
  0.9979400389999995  0.5013999820000024  0.0599999980000021   F   F   F
  0.7507300440000009  0.5014399789999970  0.0601499989999965   F   F   F
  0.2484099879999988  0.9989599860000027  0.0601699970000027   F   F   F
  0.0026799950000012  0.9989400440000011  0.0602099999999979   F   F   F
  0.5037199309999991  0.9979199710000017  0.0602199989999974   F   F   F
  0.2483199950000028  0.7533800220000018  0.0603600009999994   F   F   F
  0.7484100030000036  0.9978799750000036  0.0604000000000013   F   F   F
  0.2473099790000006  0.2543799840000034  0.0604599999999991   F   F   F
  0.7483599740000031  0.2543500150000000  0.0604699989999986   F   F   F
  0.2472899979999994  0.4989500149999984  0.0606299989999997   F   F   F
  0.5037999600000020  0.4989199890000009  0.0606900000000010   F   F   F
  0.3332051177916174  0.0835975211806736  0.2786014260410215   T   T   T
  0.8443983351546369  0.0648826007300442  0.2794041865086342   T   T   T
  0.3144298167679508  0.5945011378579882  0.2793733595881042   T   T   T
  0.5328167031371714  0.2866896281811193  0.3368273111362010   T   T   T
  0.7305560288090375  0.4804598233765289  0.3037922242108215   T   T   T
  0.5899007875007040  0.3421867009713147  0.3165854679971434   T   T   T
  0.6569105988350451  0.4070683441584808  0.2920875553711645   T   T   T
 
  0.00000000E+00  0.00000000E+00  0.00000000E+00
  0.00000000E+00  0.00000000E+00  0.00000000E+00
  0.00000000E+00  0.00000000E+00  0.00000000E+00
  0.00000000E+00  0.00000000E+00  0.00000000E+00
  0.00000000E+00  0.00000000E+00  0.00000000E+00
  0.00000000E+00  0.00000000E+00  0.00000000E+00
  0.00000000E+00  0.00000000E+00  0.00000000E+00
  0.00000000E+00  0.00000000E+00  0.00000000E+00
  0.00000000E+00  0.00000000E+00  0.00000000E+00
  0.00000000E+00  0.00000000E+00  0.00000000E+00
  0.00000000E+00  0.00000000E+00  0.00000000E+00
  0.00000000E+00  0.00000000E+00  0.00000000E+00
  0.00000000E+00  0.00000000E+00  0.00000000E+00
  0.00000000E+00  0.00000000E+00  0.00000000E+00
  0.00000000E+00  0.00000000E+00  0.00000000E+00
  0.00000000E+00  0.00000000E+00  0.00000000E+00
  0.00000000E+00  0.00000000E+00  0.00000000E+00
  0.00000000E+00  0.00000000E+00  0.00000000E+00
  0.00000000E+00  0.00000000E+00  0.00000000E+00
  0.00000000E+00  0.00000000E+00  0.00000000E+00
  0.00000000E+00  0.00000000E+00  0.00000000E+00
  0.00000000E+00  0.00000000E+00  0.00000000E+00
  0.00000000E+00  0.00000000E+00  0.00000000E+00
  0.00000000E+00  0.00000000E+00  0.00000000E+00
  0.00000000E+00  0.00000000E+00  0.00000000E+00
  0.00000000E+00  0.00000000E+00  0.00000000E+00
  0.00000000E+00  0.00000000E+00  0.00000000E+00
  0.00000000E+00  0.00000000E+00  0.00000000E+00
  0.00000000E+00  0.00000000E+00  0.00000000E+00
  0.00000000E+00  0.00000000E+00  0.00000000E+00
  0.00000000E+00  0.00000000E+00  0.00000000E+00
  0.00000000E+00  0.00000000E+00  0.00000000E+00
  0.00000000E+00  0.00000000E+00  0.00000000E+00
  0.00000000E+00  0.00000000E+00  0.00000000E+00
  0.00000000E+00  0.00000000E+00  0.00000000E+00
  0.00000000E+00  0.00000000E+00  0.00000000E+00
  0.00000000E+00  0.00000000E+00  0.00000000E+00
  0.00000000E+00  0.00000000E+00  0.00000000E+00
  0.00000000E+00  0.00000000E+00  0.00000000E+00
  0.00000000E+00  0.00000000E+00  0.00000000E+00
  0.00000000E+00  0.00000000E+00  0.00000000E+00
  0.00000000E+00  0.00000000E+00  0.00000000E+00
  0.00000000E+00  0.00000000E+00  0.00000000E+00
  0.00000000E+00  0.00000000E+00  0.00000000E+00
  0.00000000E+00  0.00000000E+00  0.00000000E+00
  0.00000000E+00  0.00000000E+00  0.00000000E+00
  0.00000000E+00  0.00000000E+00  0.00000000E+00
  0.00000000E+00  0.00000000E+00  0.00000000E+00
  0.00000000E+00  0.00000000E+00  0.00000000E+00
  0.00000000E+00  0.00000000E+00  0.00000000E+00
  0.00000000E+00  0.00000000E+00  0.00000000E+00
  0.00000000E+00  0.00000000E+00  0.00000000E+00
  0.00000000E+00  0.00000000E+00  0.00000000E+00
  0.00000000E+00  0.00000000E+00  0.00000000E+00
  0.00000000E+00  0.00000000E+00  0.00000000E+00
  0.00000000E+00  0.00000000E+00  0.00000000E+00
  0.00000000E+00  0.00000000E+00  0.00000000E+00
  0.00000000E+00  0.00000000E+00  0.00000000E+00
  0.00000000E+00  0.00000000E+00  0.00000000E+00
  0.00000000E+00  0.00000000E+00  0.00000000E+00
  0.00000000E+00  0.00000000E+00  0.00000000E+00
  0.00000000E+00  0.00000000E+00  0.00000000E+00
  0.00000000E+00  0.00000000E+00  0.00000000E+00
  0.00000000E+00  0.00000000E+00  0.00000000E+00
  0.00000000E+00  0.00000000E+00  0.00000000E+00
  0.00000000E+00  0.00000000E+00  0.00000000E+00
  0.00000000E+00  0.00000000E+00  0.00000000E+00
  0.00000000E+00  0.00000000E+00  0.00000000E+00
  0.00000000E+00  0.00000000E+00  0.00000000E+00
  0.00000000E+00  0.00000000E+00  0.00000000E+00
  0.00000000E+00  0.00000000E+00  0.00000000E+00
