 Ni_O                                   
   1.00000000000000     
     9.8292000000000002    0.0000000000000000    0.0000000000000000
     4.9146000000000001    8.5123370000000005    0.0000000000000000
     0.0000000000000000    0.0000000000000000   30.7148000000000003
   Ni   O    H    C    O    H 
    64    30    60     1     1     1
Selective dynamics
Direct
  0.0792283199999986  0.0817630000000023  0.1186269600000003   F   F   F
  0.3261458200000007  0.0945059900000018  0.1218180300000000   F   F   F
  0.3333135000000027  0.8340758399999970  0.1222633900000005   F   F   F
  0.5853292299999993  0.3375219899999991  0.1220220000000012   F   F   F
  0.3372137499999965  0.5903115300000010  0.1199067900000017   F   F   F
  0.3372616199999996  0.3405483000000018  0.1218415900000025   F   F   F
  0.8334440200000017  0.0800302700000017  0.1204451199999994   F   F   F
  0.5765709699999988  0.0842646400000007  0.1201501899999968   F   F   F
  0.8393408900000026  0.3292407699999984  0.1215803500000021   F   F   F
  0.5901924599999973  0.5773147600000001  0.1221725899999981   F   F   F
  0.0832248299999989  0.8332026300000024  0.1214728500000035   F   F   F
  0.5743362899999980  0.8428757699999991  0.1194628200000025   F   F   F
  0.0847698600000015  0.3327511099999967  0.1229317199999969   F   F   F
  0.8318529100000021  0.5821238400000013  0.1219111999999996   F   F   F
  0.0778449199999969  0.5981744199999994  0.1186460799999978   F   F   F
  0.8302746000000027  0.8313213300000015  0.1207902900000022   F   F   F
  0.1547401279656454  0.1761466623843913  0.1916007748853764   T   T   T
  0.1695993062744631  0.9156429304109498  0.1860824577687722   T   T   T
  0.4199862607965194  0.1784129611869323  0.1867119093967857   T   T   T
  0.4100250381544163  0.9287720744195852  0.1872653506484797   T   T   T
  0.4252490536358390  0.4267490239947099  0.1852393403272244   T   T   T
  0.4164472908615222  0.6803905073394821  0.1869972847243800   T   T   T
  0.9201800350316162  0.1699846366482982  0.1888329375597567   T   T   T
  0.6643934423405427  0.1653914570933522  0.1832807017080659   T   T   T
  0.6664497850225628  0.4212829957473623  0.1884067730930467   T   T   T
  0.1703865669666436  0.6605173740069253  0.1861623349765455   T   T   T
  0.9100435719735416  0.4259825245151755  0.1880729061110480   T   T   T
  0.6604822263953242  0.6745188919891443  0.1863886306069785   T   T   T
  0.9132093487884770  0.9178881754729844  0.1852835484645819   T   T   T
  0.6615686519997281  0.9200125344520117  0.1870180097742308   T   T   T
  0.1690305318446470  0.4074437549754143  0.1836750379335339   T   T   T
  0.9145447346603149  0.6747140561146774  0.1854637008947621   T   T   T
  0.2428185861955244  0.0032769075305981  0.2512944095431600   T   T   T
  0.5008299359935759  0.2533557329713335  0.2506177301602723   T   T   T
  0.5044741193472327  0.5033584422467103  0.2537033688531370   T   T   T
  0.2660603815613002  0.2401185652206234  0.2505130820582529   T   T   T
 -0.0142798967356141  0.2620054529825287  0.2554444629512963   T   T   T
  0.7478762306645327  0.2621563213034315  0.2579840879300397   T   T   T
  0.4964032797899627  0.7649382762915431  0.2511171178908995   T   T   T
  0.2528434086135841  0.7486939410804412  0.2595512312863824   T   T   T
  0.4975654489032064  0.0086757368258577  0.2514038025907427   T   T   T
 -0.0022122473958902  1.0126508751433889  0.2516284929901418   T   T   T
  0.2295118279317163  0.5256070846351589  0.2524421096316536   T   T   T
  0.7431644274560151  0.5079301245839618  0.2534531506666268   T   T   T
  0.7455395448601385  0.0068616231714777  0.2535405394848866   T   T   T
  0.9950589641264994  0.7604756281940896  0.2536245728622351   T   T   T
  0.7450197917574292  0.7512625746203775  0.2641369307979426   T   T   T
  0.9990398398392155  0.5036206146167680  0.2530281870373376   T   T   T
  0.2488099899999980  0.0018900000000031  0.0530725899999993   F   F   F
  0.4986599900000002  0.2520299800000032  0.0530725899999993   F   F   F
  0.4987100700000013  0.5019500100000016  0.0530725899999993   F   F   F
  0.2486699900000033  0.2519600099999977  0.0530725899999993   F   F   F
  0.9988300199999998  0.2520000100000033  0.0530725899999993   F   F   F
  0.7487000499999965  0.2521199999999979  0.0530725899999993   F   F   F
  0.4986899700000009  0.7520999700000033  0.0530725899999993   F   F   F
  0.2487699599999971  0.7521200300000004  0.0530725899999993   F   F   F
  0.4985999800000016  0.0021100000000018  0.0530725899999993   F   F   F
  0.9987700300000029  0.0022099999999980  0.0530725899999993   F   F   F
  0.2487500100000020  0.5021200300000004  0.0530725899999993   F   F   F
  0.7486699900000033  0.5022699800000012  0.0530725899999993   F   F   F
  0.7485900000000001  0.0024500000000032  0.0530725899999993   F   F   F
  0.9987000499999965  0.7524499700000007  0.0530725899999993   F   F   F
  0.7486699299999984  0.7524300299999993  0.0530725899999993   F   F   F
  0.9986899600000001  0.5022000199999965  0.0530725899999993   F   F   F
  1.0030143863663239  0.9619026630786700  0.5545282368436997   T   T   T
  0.5637103578554947  1.0324098380406639  0.6062135184109887   T   T   T
  0.4783907601237836  0.7967344173856321  0.3703960276272096   T   T   T
  0.0170611205741857  0.2586868970465644  0.4044652344501267   T   T   T
  0.4774033380372903  0.0984684197676511  0.3635639678131285   T   T   T
 -0.0111397181550611  0.6718460681259187  0.5695878210532271   T   T   T
  0.7069424411510944  0.5206081043147877  0.4149378467993214   T   T   T
  0.1773024436447871  0.6193658981357324  0.3750984967498799   T   T   T
  0.7326668927457569  0.7263296271264770  0.3257558024176048   T   T   T
  0.4270947854357345  0.8638365038935537  0.4771313544684662   T   T   T
  0.9818496504460357  0.0463198934094673  0.3488846916381817   T   T   T
  0.2160721640219204  0.4202443680036949  0.5245608190467191   T   T   T
  0.2517538716278054  0.1983146332637619  0.5940896620829300   T   T   T
  0.6228772829921553  0.3753997320012148  0.4702002365687713   T   T   T
  0.5118667752034758  0.6532726737049499  0.5855681581275168   T   T   T
  0.3186618717223603  0.6854064358158812  0.4472750118291827   T   T   T
  0.7710355159276613  0.7249692514029085  0.4570172483287844   T   T   T
  0.7736157053539152  0.5983024211665093  0.5377487870824030   T   T   T
  0.9835263977488692  0.4219166719624783  0.6359422954273148   T   T   T
  0.4862253577694240  0.4065536304055359  0.5494768047918145   T   T   T
  0.7258038910592945  0.4138367622727125  0.6448411926777756   T   T   T
  0.2958088798788308  0.9305403282351006  0.5564232743046308   T   T   T
  0.8557106433894700  0.8307652549083786  0.3873413057012091   T   T   T
  0.7198947310800500  0.1841004298538086  0.5907771794679114   T   T   T
  0.3036198864398696  0.1797321382380817  0.4555790418667151   T   T   T
  1.0277643803251915  0.8626509055486759  0.4698788759333662   T   T   T
  0.6772413901515758  0.1516937017212669  0.4013007228990909   T   T   T
  0.9030127475634032  0.3038768276828801  0.5111535015039507   T   T   T
  0.2358421988045064  0.7942604167646646  0.3224377720297812   T   T   T
  0.1662736453533895  0.3666490943404284  0.3534688542276741   T   T   T
  0.1177463958032484  0.9259051417613453  0.5620559300103543   T   T   T
 -0.0005532896404442  0.8655074817228915  0.5618619401712942   T   T   T
  0.5943511733058682  0.9278670205512280  0.5920843957582334   T   T   T
  0.4470928575481011  0.1069893253328835  0.5996044454207305   T   T   T
  0.4483393106290288  0.9063668394508977  0.3779580277208751   T   T   T
  0.3978779707781743  0.7906627696207936  0.3521631794594830   T   T   T
  0.9090025941647334  0.3402939904596211  0.4111953303050906   T   T   T
  0.0624433713167919  0.3200156879099886  0.3921880321151759   T   T   T
  0.3659324651053092  0.1893079774044319  0.3696955521383473   T   T   T
  0.4884736803029299  1.0854007548863820  0.3325211574502123   T   T   T
  0.0006750851695004  0.5899607883973972  0.5894005568511268   T   T   T
  0.8823148567102060  0.6925223627332389  0.5589603875365865   T   T   T
  0.7491119896367935  0.5875529791282739  0.4242981533078335   T   T   T
  0.6302216270438085  0.5924058618834678  0.3936708453191210   T   T   T
  0.0652131665222748  0.6930476228466635  0.3785589577354588   T   T   T
  0.2319838726294375  0.6317540656989529  0.4010270956465328   T   T   T
  0.6251651620945970  0.7501076160875148  0.3344903361492378   T   T   T
  0.7748476808925802  0.7746217530412444  0.3470310024690922   T   T   T
  0.3866159417255133  0.9740590492163627  0.4663314085680001   T   T   T
  0.3880587385938278  0.8032872025275319  0.4618059113394043   T   T   T
  0.9120617523409003  0.0964320016252631  0.3239156537079066   T   T   T
  0.9892276248690048  0.1356232412794800  0.3663841580416424   T   T   T
  0.3008791531076218  0.4344498690073419  0.5397121288906906   T   T   T
  0.1221050608524715  0.5288042944787230  0.5264935980266764   T   T   T
  0.1692235034079829  0.2391878522007528  0.6158838868383706   T   T   T
  0.2145972577995495  0.2653814649489233  0.5682703558167141   T   T   T
  0.6437242100433376  0.4539993154237786  0.4551330808431940   T   T   T
  0.6365749015542521  0.3068189888163199  0.4450950712031747   T   T   T
  0.4309198031012649  0.7575412370354637  0.5794157382698237   T   T   T
  0.4799973788508583  0.5803747477188997  0.5725605054645716   T   T   T
  0.3563266923701255  0.5939629774041140  0.4646313707969913   T   T   T
  0.2134144998944443  0.7672299523246426  0.4572547351262926   T   T   T
  0.6581075132158718  0.7958809117086681  0.4597503465842704   T   T   T
  0.7910976645739132  0.6651136726143790  0.4849539834801783   T   T   T
  0.8276431440342512  0.4737932615362617  0.5313928896250700   T   T   T
  0.6671924510052933  0.6326093285447323  0.5495380293757397   T   T   T
 -0.0024306977868037  0.4528814443503416  0.6642149703127846   T   T   T
  0.8798147516053245  0.4180661968149207  0.6373581627166702   T   T   T
  0.5287280094292700  0.3998554555848780  0.5210516085181508   T   T   T
  0.5673154540239289  0.3100561623768469  0.5641394894318985   T   T   T
  0.7137839329278145  0.3308145436355094  0.6341075847765677   T   T   T
  0.6407580358348369  0.5193812189770670  0.6320533494167421   T   T   T
  0.3056921074344656  1.0176389434515496  0.5697538697601808   T   T   T
  0.3549353473192590  0.8906270887634703  0.5283349216968476   T   T   T
  0.8094454762839841  0.9465110727252904  0.3899135095125726   T   T   T
  0.8292276338557949  0.7934833685887100  0.4139159309649258   T   T   T
  0.8234991937825581  1.1197540836042768  0.5726590510687005   T   T   T
  0.6776417505667968  0.1119943880975416  0.5988097872893849   T   T   T
  0.1958085818140866  0.2149940952683212  0.4468642894544830   T   T   T
  0.3048442737887320  0.2410990466459853  0.4793661948408451   T   T   T
  0.9872084816154894  0.9340291395114956  0.4458061895608249   T   T   T
  1.0057256792837139  0.9289362576847173  0.4959713797264385   T   T   T
  0.6686162274869416  0.2382311455024444  0.3813856848794637   T   T   T
  0.5924213922659153  0.1368706841018383  0.3934757947724140   T   T   T
 -0.0217631514530650  0.1995114411166157  0.5245158913521505   T   T   T
  0.8216757242161101  0.2906068121867704  0.4945918148459734   T   T   T
  0.2131822678071577  0.7130732773696962  0.3339029722194923   T   T   T
  0.1294375298608829  0.9009784484411322  0.3270622578447789   T   T   T
  0.1554326720358292  0.3758901863044142  0.3217845960061971   T   T   T
  0.1721312736194520  0.4586761119058839  0.3676632643656547   T   T   T
  0.5807828539670482  0.3673299493681416  0.3074754358465653   T   T   T
  0.6505577898597059  0.4023772998279410  0.3359654304132672   T   T   T
  0.5286595382691163  0.3195284178518467  0.3206736661441699   T   T   T
 
  0.00000000E+00  0.00000000E+00  0.00000000E+00
  0.00000000E+00  0.00000000E+00  0.00000000E+00
  0.00000000E+00  0.00000000E+00  0.00000000E+00
  0.00000000E+00  0.00000000E+00  0.00000000E+00
  0.00000000E+00  0.00000000E+00  0.00000000E+00
  0.00000000E+00  0.00000000E+00  0.00000000E+00
  0.00000000E+00  0.00000000E+00  0.00000000E+00
  0.00000000E+00  0.00000000E+00  0.00000000E+00
  0.00000000E+00  0.00000000E+00  0.00000000E+00
  0.00000000E+00  0.00000000E+00  0.00000000E+00
  0.00000000E+00  0.00000000E+00  0.00000000E+00
  0.00000000E+00  0.00000000E+00  0.00000000E+00
  0.00000000E+00  0.00000000E+00  0.00000000E+00
  0.00000000E+00  0.00000000E+00  0.00000000E+00
  0.00000000E+00  0.00000000E+00  0.00000000E+00
  0.00000000E+00  0.00000000E+00  0.00000000E+00
  0.58479827E-03 -0.23774859E-02  0.46962554E-02
 -0.81442996E-03  0.42519514E-03 -0.57125311E-03
 -0.13526278E-02  0.77188970E-03 -0.52850584E-02
 -0.94801938E-03  0.10300416E-02 -0.58388624E-03
 -0.43325101E-02  0.13104780E-02  0.62883159E-03
  0.13154756E-02  0.99116012E-03  0.86025415E-03
 -0.30986731E-02  0.13392103E-02  0.57989470E-03
  0.18898657E-02  0.31686420E-03  0.35018238E-03
 -0.38554259E-02 -0.17930571E-02  0.13170633E-02
  0.18745427E-03 -0.18721543E-02  0.40608183E-03
 -0.58557172E-03  0.11243943E-02 -0.16798941E-02
 -0.30290380E-02 -0.25624532E-02  0.23729236E-02
 -0.34973837E-02 -0.26860853E-02  0.33349806E-02
 -0.33007420E-02 -0.64209107E-03  0.56786933E-03
  0.14950094E-02  0.29680641E-02  0.30989509E-03
 -0.17571105E-02  0.20349238E-02 -0.32028178E-03
  0.25765933E-02  0.49064938E-03  0.10717596E-03
 -0.26670183E-02 -0.21364391E-02 -0.62094821E-03
 -0.16923619E-02  0.32032979E-03  0.22175547E-02
  0.42292229E-03  0.99026151E-03 -0.11320953E-02
  0.23604489E-02  0.61067682E-03 -0.11280194E-02
 -0.29385998E-02  0.51469627E-03 -0.40339284E-03
  0.32599364E-03 -0.15083744E-02  0.25956348E-02
  0.72407396E-03  0.15107530E-02  0.58801638E-02
  0.15293252E-02  0.26712257E-02 -0.73567033E-03
 -0.36367071E-03  0.10263785E-02  0.15022744E-02
 -0.40313720E-03 -0.61164361E-03  0.85255164E-03
  0.93080316E-03 -0.11251863E-02  0.23226474E-02
  0.11479769E-02  0.28158000E-02  0.19010207E-02
  0.36675695E-03  0.25593374E-03  0.34605344E-02
  0.31384880E-02 -0.25438216E-02 -0.12786633E-02
 -0.97006985E-04 -0.74389234E-03 -0.37093919E-03
  0.00000000E+00  0.00000000E+00  0.00000000E+00
  0.00000000E+00  0.00000000E+00  0.00000000E+00
  0.00000000E+00  0.00000000E+00  0.00000000E+00
  0.00000000E+00  0.00000000E+00  0.00000000E+00
  0.00000000E+00  0.00000000E+00  0.00000000E+00
  0.00000000E+00  0.00000000E+00  0.00000000E+00
  0.00000000E+00  0.00000000E+00  0.00000000E+00
  0.00000000E+00  0.00000000E+00  0.00000000E+00
  0.00000000E+00  0.00000000E+00  0.00000000E+00
  0.00000000E+00  0.00000000E+00  0.00000000E+00
  0.00000000E+00  0.00000000E+00  0.00000000E+00
  0.00000000E+00  0.00000000E+00  0.00000000E+00
  0.00000000E+00  0.00000000E+00  0.00000000E+00
  0.00000000E+00  0.00000000E+00  0.00000000E+00
  0.00000000E+00  0.00000000E+00  0.00000000E+00
  0.00000000E+00  0.00000000E+00  0.00000000E+00
 -0.10580651E-01  0.52649951E-04  0.43424358E-02
  0.31166154E-02 -0.12855830E-02 -0.62818793E-03
 -0.23412673E-02  0.74863187E-02  0.59955043E-03
  0.11606402E-02 -0.40579585E-02 -0.14868129E-03
 -0.49393863E-02  0.96530185E-03  0.76318655E-02
 -0.33375867E-03  0.62861493E-03  0.44960563E-02
  0.24676314E-02 -0.12378856E-02  0.52501060E-04
  0.27351851E-04 -0.16558052E-02  0.22375313E-03
  0.56893019E-02  0.17096332E-02  0.12974030E-02
  0.54546757E-02 -0.60514880E-02 -0.40781163E-03
  0.25002343E-02 -0.33221805E-02 -0.70374532E-03
 -0.46162372E-02 -0.31184939E-02  0.10173867E-02
  0.25345688E-02 -0.15040522E-02 -0.25265260E-02
 -0.16545328E-02 -0.40304155E-02  0.29457632E-02
 -0.39763744E-02 -0.91124346E-02 -0.43282836E-02
 -0.26781235E-02  0.34191230E-02  0.46497820E-02
 -0.51249172E-03 -0.59496524E-03  0.27108273E-02
 -0.71963264E-03 -0.13396120E-02 -0.27470610E-02
 -0.23290227E-02  0.44853435E-02 -0.50697622E-02
  0.38129351E-02  0.41932956E-03 -0.21239726E-02
 -0.12705022E-02  0.15903036E-02  0.10391836E-02
  0.13573370E-02  0.60418601E-02 -0.28953038E-02
 -0.19403903E-02  0.15339063E-02 -0.16343437E-04
  0.33474516E-02  0.26191148E-02  0.52292807E-03
  0.31945181E-02  0.34411359E-03 -0.63920189E-02
 -0.16184974E-02 -0.16734098E-02 -0.42650208E-02
  0.83775034E-02  0.10003659E-02  0.62790376E-02
  0.27211846E-03 -0.51749500E-02  0.36115277E-02
  0.51726533E-02 -0.44759599E-02  0.12532577E-02
 -0.69874328E-02  0.38430392E-02  0.27888991E-02
 -0.14012961E-01  0.62979011E-02  0.12039824E-01
  0.12584633E-01 -0.28307813E-01 -0.14433816E-01
 -0.17373732E-01 -0.53125556E-02  0.56355911E-03
  0.30378027E-01  0.49544334E-02  0.73361949E-02
 -0.92479371E-02  0.21825582E-01  0.11012479E-01
  0.12960934E-01  0.32330332E-01  0.33846480E-01
  0.63213665E-02  0.22934323E-03  0.19344614E-01
 -0.19601923E-01 -0.23066346E-03  0.18998353E-01
  0.35709541E-01 -0.53703868E-02  0.17356540E-01
 -0.35252820E-01 -0.12901019E-01 -0.12480388E-01
  0.23730112E-02 -0.14166467E-03 -0.18392092E-01
  0.12921086E-01  0.26565678E-02 -0.20670753E-01
  0.17859265E-01  0.26696468E-01 -0.17434707E-01
  0.12553196E-01 -0.55176446E-02  0.22344121E-01
 -0.12699943E-01  0.17724737E-01 -0.10059325E-01
 -0.21297971E-02 -0.34558371E-02  0.49913225E-02
  0.99680754E-02 -0.93347467E-02  0.13678742E-01
  0.38539101E-01  0.30201743E-01  0.64442618E-02
  0.16709537E-02  0.30049430E-02  0.21561982E-01
 -0.19216528E-01 -0.27645489E-01 -0.12942576E-01
  0.57814567E-02  0.36162377E-02 -0.27201152E-01
  0.85426744E-02 -0.13082352E-01 -0.16855782E-01
 -0.52627670E-01 -0.29085251E-03 -0.28925730E-01
 -0.16571754E-01 -0.12809687E-01 -0.11594788E-01
 -0.15649646E-01  0.27806166E-02  0.13871331E-01
  0.20923767E-01  0.12317532E-01 -0.26206756E-02
  0.40045179E-02  0.15230543E-01 -0.41417905E-03
 -0.12981954E-01 -0.70616241E-02 -0.28765433E-02
  0.18433708E-01  0.52126840E-02  0.13110565E-01
  0.19303137E-01 -0.36749832E-02 -0.85429676E-02
  0.70493299E-02  0.78513516E-02 -0.11503921E-01
 -0.76860941E-02 -0.27568475E-01  0.67143959E-02
  0.18736515E-01 -0.71795303E-02  0.95059975E-02
  0.29269264E-01 -0.19160239E-01  0.12500245E-02
 -0.77881083E-02  0.24700335E-01 -0.36232255E-02
  0.21354449E-01  0.14706242E-01  0.89921981E-03
 -0.12215372E-01 -0.43869147E-02 -0.65073503E-02
  0.18226778E-02  0.10358977E-01 -0.74871835E-03
 -0.32821448E-01 -0.35482829E-01 -0.94587840E-02
  0.45259834E-02  0.14471574E-01 -0.10388760E-01
 -0.25278895E-01 -0.55844572E-02 -0.15311228E-01
  0.41814945E-02 -0.33870054E-02 -0.43001851E-02
 -0.80322857E-02 -0.14373520E-01 -0.93599001E-02
  0.17180809E-01 -0.18985131E-01 -0.89596041E-02
  0.78278044E-03  0.55038922E-02  0.18752985E-01
  0.63872821E-02 -0.43950930E-02 -0.23493198E-02
 -0.10692670E-01 -0.29410565E-02  0.29381303E-02
  0.24670185E-02 -0.17807176E-01  0.12419442E-01
 -0.21001505E-02 -0.17135795E-01 -0.94943096E-03
  0.58902246E-02  0.16893228E-01 -0.38248109E-02
 -0.17762214E-01 -0.88950937E-03 -0.74963277E-03
  0.17310890E-02  0.46214713E-02 -0.72998433E-02
 -0.11701126E-01 -0.16064821E-01  0.67839287E-02
 -0.25860666E-01  0.46284980E-03  0.23622114E-02
  0.91661004E-02  0.18902623E-01  0.16096590E-01
 -0.62939270E-02 -0.88855143E-02  0.33119429E-01
 -0.65856847E-02 -0.30493820E-02  0.38642442E-02
 -0.97638809E-02  0.17822802E-02 -0.12023788E-01
  0.47478877E-02  0.13086728E-02 -0.63140990E-02
  0.16421795E-01 -0.34393686E-02 -0.22190163E-01
  0.65095587E-02  0.44676166E-03 -0.19393794E-03
  0.49505257E-02 -0.24794099E-02  0.11180005E-02
 -0.11333823E-02  0.31943949E-01  0.13931983E-01
 
           1
   1.00000000000000     
  0.31610102E+00  0.60683247E-02  0.71390819E-02  0.30949732E+00
  0.79228320E-01  0.81763000E-01  0.11862696E+00
  0.32614582E+00  0.94505990E-01  0.12181803E+00
  0.33331350E+00  0.83407584E+00  0.12226339E+00
  0.58532923E+00  0.33752199E+00  0.12202200E+00
  0.33721375E+00  0.59031153E+00  0.11990679E+00
  0.33726162E+00  0.34054830E+00  0.12184159E+00
  0.83344402E+00  0.80030270E-01  0.12044512E+00
  0.57657097E+00  0.84264640E-01  0.12015019E+00
  0.83934089E+00  0.32924077E+00  0.12158035E+00
  0.59019246E+00  0.57731476E+00  0.12217259E+00
  0.83224830E-01  0.83320263E+00  0.12147285E+00
  0.57433629E+00  0.84287577E+00  0.11946282E+00
  0.84769860E-01  0.33275111E+00  0.12293172E+00
  0.83185291E+00  0.58212384E+00  0.12191120E+00
  0.77844920E-01  0.59817442E+00  0.11864608E+00
  0.83027460E+00  0.83132133E+00  0.12079029E+00
  0.15493927E+00  0.17586736E+00  0.19175367E+00
  0.16949147E+00  0.91569288E+00  0.18606386E+00
  0.41980331E+00  0.17850364E+00  0.18653984E+00
  0.40986809E+00  0.92889308E+00  0.18724634E+00
  0.42473130E+00  0.42690297E+00  0.18525981E+00
  0.41652291E+00  0.68050695E+00  0.18702529E+00
  0.91978612E+00  0.17014196E+00  0.18885182E+00
  0.66456710E+00  0.16542868E+00  0.18329210E+00
  0.66616286E+00  0.42107235E+00  0.18844965E+00
  0.17051561E+00  0.66029744E+00  0.18617556E+00
  0.90991795E+00  0.42611461E+00  0.18801821E+00
  0.66032457E+00  0.67421786E+00  0.18646589E+00
  0.91301131E+00  0.91757262E+00  0.18539213E+00
  0.66127056E+00  0.91993710E+00  0.18703650E+00
  0.16900829E+00  0.40779243E+00  0.18368513E+00
  0.91424644E+00  0.67495311E+00  0.18545327E+00
  0.24305190E+00  0.33345473E-02  0.25129790E+00
  0.50068409E+00  0.25310475E+00  0.25059751E+00
  0.50428313E+00  0.50339607E+00  0.25377557E+00
  0.26604524E+00  0.24023490E+00  0.25047622E+00
  0.98592438E+00  0.26207719E+00  0.25540774E+00
  0.74754703E+00  0.26221679E+00  0.25797095E+00
  0.49652504E+00  0.76476108E+00  0.25120163E+00
  0.25282834E+00  0.74887142E+00  0.25974268E+00
  0.49756414E+00  0.89895432E-02  0.25137985E+00
  0.99769047E+00  0.12771451E-01  0.25167740E+00
  0.22950674E+00  0.52553523E+00  0.25246987E+00
  0.74332522E+00  0.50779794E+00  0.25352877E+00
  0.74549094E+00  0.71924136E-02  0.25360243E+00
  0.99508124E+00  0.76050569E+00  0.25373724E+00
  0.74548851E+00  0.75096374E+00  0.26409530E+00
  0.99907367E+00  0.50353322E+00  0.25301611E+00
  0.24880999E+00  0.18900000E-02  0.53072590E-01
  0.49865999E+00  0.25202998E+00  0.53072590E-01
  0.49871007E+00  0.50195001E+00  0.53072590E-01
  0.24866999E+00  0.25196001E+00  0.53072590E-01
  0.99883002E+00  0.25200001E+00  0.53072590E-01
  0.74870005E+00  0.25212000E+00  0.53072590E-01
  0.49868997E+00  0.75209997E+00  0.53072590E-01
  0.24876996E+00  0.75212003E+00  0.53072590E-01
  0.49859998E+00  0.21100000E-02  0.53072590E-01
  0.99877003E+00  0.22100000E-02  0.53072590E-01
  0.24875001E+00  0.50212003E+00  0.53072590E-01
  0.74866999E+00  0.50226998E+00  0.53072590E-01
  0.74859000E+00  0.24500000E-02  0.53072590E-01
  0.99870005E+00  0.75244997E+00  0.53072590E-01
  0.74866993E+00  0.75243003E+00  0.53072590E-01
  0.99868996E+00  0.50220002E+00  0.53072590E-01
  0.19348429E-02  0.96190885E+00  0.55466962E+00
  0.56410295E+00  0.32258812E-01  0.60619307E+00
  0.47771283E+00  0.79761388E+00  0.37041555E+00
  0.17417559E-01  0.25821018E+00  0.40446039E+00
  0.47684412E+00  0.98581820E-01  0.36381244E+00
  0.98878940E+00  0.67191992E+00  0.56973420E+00
  0.70726620E+00  0.52046268E+00  0.41493956E+00
  0.17740249E+00  0.61917138E+00  0.37510578E+00
  0.73314529E+00  0.72653047E+00  0.32579804E+00
  0.42800519E+00  0.86312560E+00  0.47711808E+00
  0.98229916E+00  0.45929615E-01  0.34886178E+00
  0.21578569E+00  0.41987802E+00  0.52459394E+00
  0.25210008E+00  0.19813794E+00  0.59400740E+00
  0.62294569E+00  0.37492625E+00  0.47029614E+00
  0.51199748E+00  0.65220218E+00  0.58542724E+00
  0.31818857E+00  0.68580810E+00  0.44742640E+00
  0.77101832E+00  0.72489936E+00  0.45710551E+00
  0.77362118E+00  0.59814505E+00  0.53765935E+00
  0.98302599E+00  0.42244359E+00  0.63577724E+00
  0.48658865E+00  0.40660289E+00  0.54940765E+00
  0.72558122E+00  0.41402359E+00  0.64487503E+00
  0.29559208E+00  0.93125011E+00  0.55632901E+00
  0.85542313E+00  0.83094545E+00  0.38734077E+00
  0.72008145E+00  0.18440811E+00  0.59079420E+00
  0.30392468E+00  0.17977256E+00  0.45537093E+00
  0.27698011E-01  0.86245432E+00  0.46974002E+00
  0.67803494E+00  0.15181122E+00  0.40150515E+00
  0.90334440E+00  0.30326889E+00  0.51127108E+00
  0.23663136E+00  0.79373460E+00  0.32247858E+00
  0.16533703E+00  0.36710056E+00  0.35355965E+00
  0.11595082E+00  0.92664500E+00  0.56244792E+00
  0.23897938E-02  0.86218198E+00  0.56139201E+00
  0.59289566E+00  0.92724292E+00  0.59210274E+00
  0.44989243E+00  0.10757136E+00  0.59984329E+00
  0.44611645E+00  0.90893083E+00  0.37831657E+00
  0.39729756E+00  0.79446083E+00  0.35326514E+00
  0.90963224E+00  0.34032093E+00  0.41182514E+00
  0.60462666E-01  0.31998859E+00  0.39280657E+00
  0.36988092E+00  0.18867708E+00  0.37026064E+00
  0.48564492E+00  0.83885188E-01  0.33211483E+00
  0.92483096E-03  0.58994415E+00  0.58880175E+00
  0.88347338E+00  0.69283445E+00  0.55828740E+00
  0.74936085E+00  0.59068919E+00  0.42373052E+00
  0.63182286E+00  0.59175767E+00  0.39439832E+00
  0.62879983E-01  0.69512986E+00  0.37823145E+00
  0.23197018E+00  0.63134809E+00  0.40118960E+00
  0.62672760E+00  0.74901100E+00  0.33493568E+00
  0.77699456E+00  0.77816975E+00  0.34724081E+00
  0.38660944E+00  0.97441206E+00  0.46703341E+00
  0.38772754E+00  0.80003951E+00  0.46138453E+00
  0.91243753E+00  0.96856825E-01  0.32303005E+00
  0.99086517E+00  0.13408637E+00  0.36583537E+00
  0.29554202E+00  0.43441570E+00  0.53877038E+00
  0.12117151E+00  0.52729946E+00  0.52611610E+00
  0.16746802E+00  0.23951451E+00  0.61633550E+00
  0.21600248E+00  0.26682849E+00  0.56818503E+00
  0.64323700E+00  0.45578855E+00  0.45511960E+00
  0.63566894E+00  0.30598941E+00  0.44500142E+00
  0.43248902E+00  0.75815361E+00  0.57984259E+00
  0.48217710E+00  0.57994302E+00  0.57228237E+00
  0.35658270E+00  0.59488533E+00  0.46425683E+00
  0.21425186E+00  0.76399130E+00  0.45747334E+00
  0.66043544E+00  0.79503749E+00  0.46005984E+00
  0.79520089E+00  0.66286279E+00  0.48499468E+00
  0.82539994E+00  0.47669497E+00  0.53127493E+00
  0.66850118E+00  0.63433697E+00  0.54956731E+00
  0.99658422E+00  0.45236608E+00  0.66400311E+00
  0.87939172E+00  0.41928313E+00  0.63733379E+00
  0.52747303E+00  0.39568706E+00  0.52074365E+00
  0.56692588E+00  0.31175623E+00  0.56380126E+00
  0.71154014E+00  0.33015850E+00  0.63360909E+00
  0.64138240E+00  0.51898333E+00  0.63191335E+00
  0.30571920E+00  0.15950392E-01  0.56944913E+00
  0.35779844E+00  0.88839678E+00  0.52804322E+00
  0.80920183E+00  0.94715765E+00  0.39052406E+00
  0.83013562E+00  0.79296705E+00  0.41383944E+00
  0.82258410E+00  0.11940858E+00  0.57275471E+00
  0.67893870E+00  0.10990246E+00  0.59921413E+00
  0.19660144E+00  0.21298104E+00  0.44683338E+00
  0.30445125E+00  0.24308360E+00  0.47924167E+00
  0.98545364E+00  0.93392464E+00  0.44578178E+00
  0.56303390E-02  0.92947917E+00  0.49573371E+00
  0.66836940E+00  0.23634391E+00  0.38160655E+00
  0.58976320E+00  0.13692506E+00  0.39355270E+00
  0.97805908E+00  0.20173206E+00  0.52503996E+00
  0.82155731E+00  0.28956297E+00  0.49567010E+00
  0.21269137E+00  0.71271505E+00  0.33402878E+00
  0.12833949E+00  0.90118782E+00  0.32667079E+00
  0.15583884E+00  0.37604392E+00  0.32157902E+00
  0.17400401E+00  0.45827207E+00  0.36694081E+00
  0.58141888E+00  0.36738243E+00  0.30746912E+00
  0.65120708E+00  0.40208603E+00  0.33600183E+00
  0.52666790E+00  0.32328108E+00  0.32112726E+00
  0.00000000E+00  0.00000000E+00  0.00000000E+00
  0.00000000E+00  0.00000000E+00  0.00000000E+00
  0.00000000E+00  0.00000000E+00  0.00000000E+00
  0.00000000E+00  0.00000000E+00  0.00000000E+00
  0.00000000E+00  0.00000000E+00  0.00000000E+00
  0.00000000E+00  0.00000000E+00  0.00000000E+00
  0.00000000E+00  0.00000000E+00  0.00000000E+00
  0.00000000E+00  0.00000000E+00  0.00000000E+00
  0.00000000E+00  0.00000000E+00  0.00000000E+00
  0.00000000E+00  0.00000000E+00  0.00000000E+00
  0.00000000E+00  0.00000000E+00  0.00000000E+00
  0.00000000E+00  0.00000000E+00  0.00000000E+00
  0.00000000E+00  0.00000000E+00  0.00000000E+00
  0.00000000E+00  0.00000000E+00  0.00000000E+00
  0.00000000E+00  0.00000000E+00  0.00000000E+00
  0.00000000E+00  0.00000000E+00  0.00000000E+00
  0.00000000E+00  0.00000000E+00  0.00000000E+00
  0.00000000E+00  0.00000000E+00  0.00000000E+00
  0.00000000E+00  0.00000000E+00  0.00000000E+00
  0.00000000E+00  0.00000000E+00  0.00000000E+00
  0.00000000E+00  0.00000000E+00  0.00000000E+00
  0.00000000E+00  0.00000000E+00  0.00000000E+00
  0.00000000E+00  0.00000000E+00  0.00000000E+00
  0.00000000E+00  0.00000000E+00  0.00000000E+00
  0.00000000E+00  0.00000000E+00  0.00000000E+00
  0.00000000E+00  0.00000000E+00  0.00000000E+00
  0.00000000E+00  0.00000000E+00  0.00000000E+00
  0.00000000E+00  0.00000000E+00  0.00000000E+00
  0.00000000E+00  0.00000000E+00  0.00000000E+00
  0.00000000E+00  0.00000000E+00  0.00000000E+00
  0.00000000E+00  0.00000000E+00  0.00000000E+00
  0.00000000E+00  0.00000000E+00  0.00000000E+00
  0.00000000E+00  0.00000000E+00  0.00000000E+00
  0.00000000E+00  0.00000000E+00  0.00000000E+00
  0.00000000E+00  0.00000000E+00  0.00000000E+00
  0.00000000E+00  0.00000000E+00  0.00000000E+00
  0.00000000E+00  0.00000000E+00  0.00000000E+00
  0.00000000E+00  0.00000000E+00  0.00000000E+00
  0.00000000E+00  0.00000000E+00  0.00000000E+00
  0.00000000E+00  0.00000000E+00  0.00000000E+00
  0.00000000E+00  0.00000000E+00  0.00000000E+00
  0.00000000E+00  0.00000000E+00  0.00000000E+00
  0.00000000E+00  0.00000000E+00  0.00000000E+00
  0.00000000E+00  0.00000000E+00  0.00000000E+00
  0.00000000E+00  0.00000000E+00  0.00000000E+00
  0.00000000E+00  0.00000000E+00  0.00000000E+00
  0.00000000E+00  0.00000000E+00  0.00000000E+00
  0.00000000E+00  0.00000000E+00  0.00000000E+00
  0.00000000E+00  0.00000000E+00  0.00000000E+00
  0.00000000E+00  0.00000000E+00  0.00000000E+00
  0.00000000E+00  0.00000000E+00  0.00000000E+00
  0.00000000E+00  0.00000000E+00  0.00000000E+00
  0.00000000E+00  0.00000000E+00  0.00000000E+00
  0.00000000E+00  0.00000000E+00  0.00000000E+00