Ni_COCH
   1.00000000000000     
     9.8291997910000006    0.0000000000000000    0.0000000000000000
     4.9145998955000003    8.5123367178000002    0.0000000000000000
     0.0000000000000000    0.0000000000000000   19.0128002167000005
   Ni   O    C    H 
    64     1     2     1
Selective dynamics
Direct
      0.8371493557544952      0.5829612402389593      0.2732229031432203   T T T
      0.3375563022812645      0.0828847917209344      0.2731250977860152   T T T
      0.8367514425722122      0.0831175187034476      0.2737282027081698   T T T
      0.3373514749440868      0.5828468253490343      0.2740481479387156   T T T
      0.5870476193835271      0.8332279087895027      0.2728594336138522   T T T
      0.8371024953456586      0.8329449046881500      0.2729413925066974   T T T
      0.0874879320612267      0.3328198097921202      0.2730453298999346   T T T
      0.8371597856801459      0.3330135918155450      0.2736366293511308   T T T
      0.5871788318156508      0.5831465010357002      0.2740812052292985   T T T
      0.0873055449737023      0.5829965992064338      0.2730191606822572   T T T
      0.0873385400918959      0.0829711063215539      0.2733637342311251   T T T
      0.5869339808325269      0.0826628377722785      0.2728163603706940   T T T
      0.3374072967405685      0.8325488589101094      0.2736746544373894   T T T
      0.0869810290530333      0.8329025540413720      0.2735013864700100   T T T
      0.3375516105634814      0.3332021640783462      0.2733543910314431   T T T
      0.5871814140889338      0.3327990138543109      0.2741086562388089   T T T
      0.9204186183369644      0.6662213540115977      0.3783710210256971   T T T
      0.9201841156599297      0.4161241653743472      0.3786478248377109   T T T
      0.6712512874323658      0.6655156604935049      0.3791967959739104   T T T
      0.1686398126563128      0.1673108761731108      0.3788028913185933   T T T
      0.9202631824202161      0.1666965992544098      0.3789118244604964   T T T
      0.9200415620335783      0.9165058536415406      0.3786549020768622   T T T
      0.4201721125299576      0.9165082144529185      0.3782844171294004   T T T
      0.4201106010480369      0.1665520389868262      0.3782563102263192   T T T
      0.6710423197371586      0.1665587877431149      0.3793384686436803   T T T
      0.1707202984785168      0.6661501945242273      0.3785972556873770   T T T
      0.4219672690217217      0.6646378773553443      0.3799312807181665   T T T
      0.4217466714648859      0.4166584078389871      0.3798556938353393   T T T
      0.6703606064139941      0.9163651466629396      0.3782559630882819   T T T
      0.1706024292977436      0.4162135925562181      0.3782238082391839   T T T
      0.6709008524516225      0.4161237184767063      0.3794703876811824   T T T
      0.1703828247143208      0.9164381922450300      0.3784969673181378   T T T
      0.0042416607460137      0.2493839488328574      0.4867587236131996   T T T
      0.5017630327602851      0.2466910571917442      0.4833370261259726   T T T
      0.0045064471888316      0.7492453185406887      0.4844075042255498   T T T
      0.5021254875351978      0.7547488695479794      0.4832671232804048   T T T
      0.7538393565222444      0.7520968922831994      0.4841743964071522   T T T
      0.0056225717064942      0.5013376787335020      0.4839035132827038   T T T
      0.7551608805573984      0.5063564072855035      0.4873017301328301   T T T
      0.2532251158731467      0.0005903957586624      0.4837392757532791   T T T
      0.0057586854321234      0.9956053774526046      0.4843450683831303   T T T
      0.5033615816938627     -0.0000211570977610      0.4839736919332018   T T T
      0.2525365340659373      0.7509794844768022      0.4838793746133362   T T T
      0.7537945438466626      0.9971520647218169      0.4843885155010996   T T T
      0.2531952919725824      0.2493052079053179      0.4836254086639606   T T T
      0.7549585589412909      0.2414711177415522      0.4874907368582447   T T T
      0.2521746075985231      0.4994815492207534      0.4838906532339071   T T T
      0.5004344149205315      0.5014475933813916      0.4899450618918321   T T T
      0.0036653209484754      0.2490157084100111      0.1678937507205182   F F F
      0.5037063054223094      0.2496479787720961      0.1678662518747467   F F F
      0.0035576658168035      0.7492972406427634      0.1673042474134621   F F F
      0.5035889796074643      0.7487246395271553      0.1680154357530153   F F F
      0.7538583346802079      0.7487214612395144      0.1674790354482089   F F F
      0.0037780259376377      0.4993521894291771      0.1673333774782918   F F F
      0.7537388037775901      0.4986925244871169      0.1678718620788051   F F F
      0.2535745435034183     -0.0011012535810605      0.1679867913132188   F F F
      0.0036500723219049     -0.0011986647302645      0.1679794861003198   F F F
      0.5034044802640915     -0.0007178668204068      0.1671296972366314   F F F
      0.2534927426899872      0.7490963166199671      0.1680859400989642   F F F
      0.7537617072589795     -0.0006319570415437      0.1676539537036603   F F F
      0.2537451178943469      0.2493630824672898      0.1677248576140450   F F F
      0.7535119708982682      0.2493386140067486      0.1681390917357111   F F F
      0.2537732621424028      0.4992557820031039      0.1677061272680470   F F F
      0.5035419816084483      0.4992805870727420      0.1683271867058261   F F F
      0.5561798551037672      0.4751830598992497      0.5999464938560761   T T T
      0.6755401068779647      0.4146924482619261      0.5612571895818360   T T T
      0.8407857987476949      0.3307950276478284      0.5590480880465621   T T T
      0.9085656122573708      0.2963861166013375      0.6081871611731430   T T T
 
  0.00000000E+00  0.00000000E+00  0.00000000E+00
  0.00000000E+00  0.00000000E+00  0.00000000E+00
  0.00000000E+00  0.00000000E+00  0.00000000E+00
  0.00000000E+00  0.00000000E+00  0.00000000E+00
  0.00000000E+00  0.00000000E+00  0.00000000E+00
  0.00000000E+00  0.00000000E+00  0.00000000E+00
  0.00000000E+00  0.00000000E+00  0.00000000E+00
  0.00000000E+00  0.00000000E+00  0.00000000E+00
  0.00000000E+00  0.00000000E+00  0.00000000E+00
  0.00000000E+00  0.00000000E+00  0.00000000E+00
  0.00000000E+00  0.00000000E+00  0.00000000E+00
  0.00000000E+00  0.00000000E+00  0.00000000E+00
  0.00000000E+00  0.00000000E+00  0.00000000E+00
  0.00000000E+00  0.00000000E+00  0.00000000E+00
  0.00000000E+00  0.00000000E+00  0.00000000E+00
  0.00000000E+00  0.00000000E+00  0.00000000E+00
  0.00000000E+00  0.00000000E+00  0.00000000E+00
  0.00000000E+00  0.00000000E+00  0.00000000E+00
  0.00000000E+00  0.00000000E+00  0.00000000E+00
  0.00000000E+00  0.00000000E+00  0.00000000E+00
  0.00000000E+00  0.00000000E+00  0.00000000E+00
  0.00000000E+00  0.00000000E+00  0.00000000E+00
  0.00000000E+00  0.00000000E+00  0.00000000E+00
  0.00000000E+00  0.00000000E+00  0.00000000E+00
  0.00000000E+00  0.00000000E+00  0.00000000E+00
  0.00000000E+00  0.00000000E+00  0.00000000E+00
  0.00000000E+00  0.00000000E+00  0.00000000E+00
  0.00000000E+00  0.00000000E+00  0.00000000E+00
  0.00000000E+00  0.00000000E+00  0.00000000E+00
  0.00000000E+00  0.00000000E+00  0.00000000E+00
  0.00000000E+00  0.00000000E+00  0.00000000E+00
  0.00000000E+00  0.00000000E+00  0.00000000E+00
  0.00000000E+00  0.00000000E+00  0.00000000E+00
  0.00000000E+00  0.00000000E+00  0.00000000E+00
  0.00000000E+00  0.00000000E+00  0.00000000E+00
  0.00000000E+00  0.00000000E+00  0.00000000E+00
  0.00000000E+00  0.00000000E+00  0.00000000E+00
  0.00000000E+00  0.00000000E+00  0.00000000E+00
  0.00000000E+00  0.00000000E+00  0.00000000E+00
  0.00000000E+00  0.00000000E+00  0.00000000E+00
  0.00000000E+00  0.00000000E+00  0.00000000E+00
  0.00000000E+00  0.00000000E+00  0.00000000E+00
  0.00000000E+00  0.00000000E+00  0.00000000E+00
  0.00000000E+00  0.00000000E+00  0.00000000E+00
  0.00000000E+00  0.00000000E+00  0.00000000E+00
  0.00000000E+00  0.00000000E+00  0.00000000E+00
  0.00000000E+00  0.00000000E+00  0.00000000E+00
  0.00000000E+00  0.00000000E+00  0.00000000E+00
  0.00000000E+00  0.00000000E+00  0.00000000E+00
  0.00000000E+00  0.00000000E+00  0.00000000E+00
  0.00000000E+00  0.00000000E+00  0.00000000E+00
  0.00000000E+00  0.00000000E+00  0.00000000E+00
  0.00000000E+00  0.00000000E+00  0.00000000E+00
  0.00000000E+00  0.00000000E+00  0.00000000E+00
  0.00000000E+00  0.00000000E+00  0.00000000E+00
  0.00000000E+00  0.00000000E+00  0.00000000E+00
  0.00000000E+00  0.00000000E+00  0.00000000E+00
  0.00000000E+00  0.00000000E+00  0.00000000E+00
  0.00000000E+00  0.00000000E+00  0.00000000E+00
  0.00000000E+00  0.00000000E+00  0.00000000E+00
  0.00000000E+00  0.00000000E+00  0.00000000E+00
  0.00000000E+00  0.00000000E+00  0.00000000E+00
  0.00000000E+00  0.00000000E+00  0.00000000E+00
  0.00000000E+00  0.00000000E+00  0.00000000E+00
  0.00000000E+00  0.00000000E+00  0.00000000E+00
  0.00000000E+00  0.00000000E+00  0.00000000E+00
  0.00000000E+00  0.00000000E+00  0.00000000E+00
  0.00000000E+00  0.00000000E+00  0.00000000E+00
