Au                                      
   1.00000000000000     
    11.5838999999999999    0.0000000000000000    0.0000000000000007
    -5.7919499999999990   10.0319516748985595    0.0000000000000007
     0.0000000000000000    0.0000000000000000   17.0936999999999983
   Au   C    H 
    64     1     2
Selective dynamics
Direct
  0.0000000000000000  0.0000000000000000  0.0000000000000000   F   F   F
  0.3333332999999996  0.1666700000000034  0.1383300000000034   F   F   F
  0.1657695584632883  0.3374037169690300  0.2799776630546340   T   T   T
 -0.0039129644721392  0.0031486560699100  0.4242839975034379   T   T   T
  0.2500000000000000  0.0000000000000000  0.0000000000000000   F   F   F
  0.0833299999999966  0.1666700000000034  0.1383300000000034   F   F   F
  0.4129313836501323  0.3316843932963591  0.2749988407768260   T   T   T
  0.2456654939569018  0.0044246211258640  0.4238003691605409   T   T   T
  0.2500000000000000  0.2500000000000000  0.0000000000000000   F   F   F
  0.0833299999999966  0.4166700000000034  0.1383300000000034   F   F   F
  0.4139882066663730  0.0837574798239990  0.2759238628351957   T   T   T
  0.2464093874575438  0.2482378419419085  0.4217831189355149   T   T   T
  0.0000000000000000  0.2500000000000000  0.0000000000000000   F   F   F
  0.3333332999999996  0.4166700000000034  0.1383300000000034   F   F   F
  0.1630460643134151  0.0844987166686020  0.2762403860055795   T   T   T
 -0.0055865172932760  0.2510671974490668  0.4200143863582527   T   T   T
  0.5000000000000000  0.0000000000000000  0.0000000000000000   F   F   F
  0.8333299999999966  0.1666700000000034  0.1383300000000034   F   F   F
  0.6647943669335449  0.3343638960398674  0.2766995181711919   T   T   T
  0.4964464212097460  0.0040159327660548  0.4196320389621919   T   T   T
  0.7500000000000000  0.0000000000000000  0.0000000000000000   F   F   F
  0.5833299999999966  0.1666700000000034  0.1383300000000034   F   F   F
  0.9144541629804409  0.3342979492937030  0.2761479006106078   T   T   T
  0.7476321819081378  0.0046445524774176  0.4201346347147024   T   T   T
  0.7500000000000000  0.2500000000000000  0.0000000000000000   F   F   F
  0.5833299999999966  0.4166700000000034  0.1383300000000034   F   F   F
  0.9149075713798265  0.0842133776016149  0.2756971584043933   T   T   T
  0.7468313075605325  0.2522774493236534  0.4235621395757128   T   T   T
  0.5000000000000000  0.2500000000000000  0.0000000000000000   F   F   F
  0.8333299999999966  0.4166700000000034  0.1383300000000034   F   F   F
  0.6648519414374113  0.0848197121965184  0.2761405132850061   T   T   T
  0.4976279406388775  0.2497555474624628  0.4227036506165474   T   T   T
  0.0000000000000000  0.5000000000000000  0.0000000000000000   F   F   F
  0.3333332999999996  0.6666667000000004  0.1383300000000034   F   F   F
  0.1634428830464491  0.8357244963433021  0.2743557765620244   T   T   T
 -0.0051112247110036  0.5024068027071188  0.4198736708113556   T   T   T
  0.2500000000000000  0.5000000000000000  0.0000000000000000   F   F   F
  0.0833299999999966  0.6666667000000004  0.1383300000000034   F   F   F
  0.4156001688312759  0.8333363725527673  0.2765521832872215   T   T   T
  0.2415928732642812  0.4947233609768596  0.4299554264933355   T   T   T
  0.2500000000000000  0.7500000000000000  0.0000000000000000   F   F   F
  0.0833299999999966  0.9166700000000034  0.1383300000000034   F   F   F
  0.4153030549089185  0.5840458149159913  0.2766865456912979   T   T   T
  0.2405106018585790  0.7587327469125477  0.4135923015950930   T   T   T
  0.0000000000000000  0.7500000000000000  0.0000000000000000   F   F   F
  0.3333332999999996  0.9166700000000034  0.1383300000000034   F   F   F
  0.1656382573009295  0.5834616062733882  0.2764528877609713   T   T   T
 -0.0051783929526090  0.7534291931745078  0.4237350027287644   T   T   T
  0.5000000000000000  0.5000000000000000  0.0000000000000000   F   F   F
  0.8333299999999966  0.6666667000000004  0.1383300000000034   F   F   F
  0.6616191111303296  0.8333233312595182  0.2802770531230858   T   T   T
  0.5032521947056265  0.4962057826037605  0.4131501995322769   T   T   T
  0.7500000000000000  0.5000000000000000  0.0000000000000000   F   F   F
  0.5833299999999966  0.6666667000000004  0.1383300000000034   F   F   F
  0.9142979158167877  0.8358370044317146  0.2763841658106365   T   T   T
  0.7495114134752600  0.5017703307102933  0.4226948877855304   T   T   T
  0.7500000000000000  0.7500000000000000  0.0000000000000000   F   F   F
  0.5833299999999966  0.9166700000000034  0.1383300000000034   F   F   F
  0.9156521817179916  0.5851787225025176  0.2759778155955766   T   T   T
  0.7513599250456886  0.7530375531413754  0.4223095562496778   T   T   T
  0.5000000000000000  0.7500000000000000  0.0000000000000000   F   F   F
  0.8333299999999966  0.9166700000000034  0.1383300000000034   F   F   F
  0.6677065919013088  0.5863400818892963  0.2749755459797436   T   T   T
  0.5052747556837308  0.7571533777744502  0.4310565382250914   T   T   T
  0.3689835161927303  0.6290531160430062  0.5148380541857278   T   T   T
  0.4119486725838400  0.5835836003113363  0.5525632671106162   T   T   T
  0.3230263112933402  0.6754255036809229  0.5491822643302990   T   T   T
 
  0.00000000E+00  0.00000000E+00  0.00000000E+00
  0.00000000E+00  0.00000000E+00  0.00000000E+00
  0.00000000E+00  0.00000000E+00  0.00000000E+00
  0.00000000E+00  0.00000000E+00  0.00000000E+00
  0.00000000E+00  0.00000000E+00  0.00000000E+00
  0.00000000E+00  0.00000000E+00  0.00000000E+00
  0.00000000E+00  0.00000000E+00  0.00000000E+00
  0.00000000E+00  0.00000000E+00  0.00000000E+00
  0.00000000E+00  0.00000000E+00  0.00000000E+00
  0.00000000E+00  0.00000000E+00  0.00000000E+00
  0.00000000E+00  0.00000000E+00  0.00000000E+00
  0.00000000E+00  0.00000000E+00  0.00000000E+00
  0.00000000E+00  0.00000000E+00  0.00000000E+00
  0.00000000E+00  0.00000000E+00  0.00000000E+00
  0.00000000E+00  0.00000000E+00  0.00000000E+00
  0.00000000E+00  0.00000000E+00  0.00000000E+00
  0.00000000E+00  0.00000000E+00  0.00000000E+00
  0.00000000E+00  0.00000000E+00  0.00000000E+00
  0.00000000E+00  0.00000000E+00  0.00000000E+00
  0.00000000E+00  0.00000000E+00  0.00000000E+00
  0.00000000E+00  0.00000000E+00  0.00000000E+00
  0.00000000E+00  0.00000000E+00  0.00000000E+00
  0.00000000E+00  0.00000000E+00  0.00000000E+00
  0.00000000E+00  0.00000000E+00  0.00000000E+00
  0.00000000E+00  0.00000000E+00  0.00000000E+00
  0.00000000E+00  0.00000000E+00  0.00000000E+00
  0.00000000E+00  0.00000000E+00  0.00000000E+00
  0.00000000E+00  0.00000000E+00  0.00000000E+00
  0.00000000E+00  0.00000000E+00  0.00000000E+00
  0.00000000E+00  0.00000000E+00  0.00000000E+00
  0.00000000E+00  0.00000000E+00  0.00000000E+00
  0.00000000E+00  0.00000000E+00  0.00000000E+00
  0.00000000E+00  0.00000000E+00  0.00000000E+00
  0.00000000E+00  0.00000000E+00  0.00000000E+00
  0.00000000E+00  0.00000000E+00  0.00000000E+00
  0.00000000E+00  0.00000000E+00  0.00000000E+00
  0.00000000E+00  0.00000000E+00  0.00000000E+00
  0.00000000E+00  0.00000000E+00  0.00000000E+00
  0.00000000E+00  0.00000000E+00  0.00000000E+00
  0.00000000E+00  0.00000000E+00  0.00000000E+00
  0.00000000E+00  0.00000000E+00  0.00000000E+00
  0.00000000E+00  0.00000000E+00  0.00000000E+00
  0.00000000E+00  0.00000000E+00  0.00000000E+00
  0.00000000E+00  0.00000000E+00  0.00000000E+00
  0.00000000E+00  0.00000000E+00  0.00000000E+00
  0.00000000E+00  0.00000000E+00  0.00000000E+00
  0.00000000E+00  0.00000000E+00  0.00000000E+00
  0.00000000E+00  0.00000000E+00  0.00000000E+00
  0.00000000E+00  0.00000000E+00  0.00000000E+00
  0.00000000E+00  0.00000000E+00  0.00000000E+00
  0.00000000E+00  0.00000000E+00  0.00000000E+00
  0.00000000E+00  0.00000000E+00  0.00000000E+00
  0.00000000E+00  0.00000000E+00  0.00000000E+00
  0.00000000E+00  0.00000000E+00  0.00000000E+00
  0.00000000E+00  0.00000000E+00  0.00000000E+00
  0.00000000E+00  0.00000000E+00  0.00000000E+00
  0.00000000E+00  0.00000000E+00  0.00000000E+00
  0.00000000E+00  0.00000000E+00  0.00000000E+00
  0.00000000E+00  0.00000000E+00  0.00000000E+00
  0.00000000E+00  0.00000000E+00  0.00000000E+00
  0.00000000E+00  0.00000000E+00  0.00000000E+00
  0.00000000E+00  0.00000000E+00  0.00000000E+00
  0.00000000E+00  0.00000000E+00  0.00000000E+00
  0.00000000E+00  0.00000000E+00  0.00000000E+00
  0.00000000E+00  0.00000000E+00  0.00000000E+00
  0.00000000E+00  0.00000000E+00  0.00000000E+00
  0.00000000E+00  0.00000000E+00  0.00000000E+00
