Co                                      
   1.00000000000000     
     9.9456000000000007    0.0000000000000000    0.0000000000000006
    -4.9727999999999994    8.6131422558785147    0.0000000000000006
     0.0000000000000000    0.0000000000000000   15.9887999999999995
   Co   C    O 
    64     1     1
Selective dynamics
Direct
  0.0833299999999966  0.1666700000000034  0.0000000000000000   F   F   F
  0.0835971739111674  0.1672143205125107  0.2530596788593781   T   T   T
  0.1666700000000034  0.0833299999999966  0.1248500000000021   F   F   F
  0.1674221192397880  0.0837335082298753  0.3738351077802357   T   T   T
  0.3333332999999996  0.1666700000000034  0.0000000000000000   F   F   F
  0.3331146951486397  0.1666378452407880  0.2525903161002439   T   T   T
  0.4166700000000034  0.0833299999999966  0.1248500000000021   F   F   F
  0.4165181682404046  0.0833106275313834  0.3727769707379232   T   T   T
  0.5833299999999966  0.1666700000000034  0.0000000000000000   F   F   F
  0.5833756696471724  0.1667404947503699  0.2524246419299109   T   T   T
  0.6666667000000004  0.0833299999999966  0.1248500000000021   F   F   F
  0.6668743310915205  0.0833812378837464  0.3727809042317557   T   T   T
  0.8333299999999966  0.1666700000000034  0.0000000000000000   F   F   F
  0.8335212056505042  0.1666414029615858  0.2525778804215695   T   T   T
  0.9166700000000034  0.0833299999999966  0.1248500000000021   F   F   F
  0.9163154374207605  0.0837523731821040  0.3738304964340837   T   T   T
  0.0833299999999966  0.4166700000000034  0.0000000000000000   F   F   F
  0.0836901846670197  0.4163372648595695  0.2520983834168563   T   T   T
  0.1666700000000034  0.3333332999999996  0.1248500000000021   F   F   F
  0.1662625803887630  0.3325274670947327  0.3730582552183505   T   T   T
  0.3333332999999996  0.4166700000000034  0.0000000000000000   F   F   F
  0.3326452187974233  0.4163248596869371  0.2520671646061162   T   T   T
  0.4166700000000034  0.3333332999999996  0.1248500000000021   F   F   F
  0.4164679419320208  0.3337955446270931  0.3729031575820558   T   T   T
  0.5833299999999966  0.4166700000000034  0.0000000000000000   F   F   F
  0.5833185472507164  0.4167903272631345  0.2524745748810760   T   T   T
  0.6666667000000004  0.3333332999999996  0.1248500000000021   F   F   F
  0.6667967464927794  0.3335394052525014  0.3728044955826401   T   T   T
  0.8333299999999966  0.4166700000000034  0.0000000000000000   F   F   F
  0.8335743606225524  0.4168127113171380  0.2525065157784370   T   T   T
  0.9166700000000034  0.3333332999999996  0.1248500000000021   F   F   F
  0.9173907036881574  0.3338572234980866  0.3729476381473463   T   T   T
  0.0833299999999966  0.6666667000000004  0.0000000000000000   F   F   F
  0.0836768167800975  0.6673891300363880  0.2520672487737618   T   T   T
  0.1666700000000034  0.5833299999999966  0.1248500000000021   F   F   F
  0.1651989940142734  0.5827965025487806  0.3767201947610378   T   T   T
  0.3333332999999996  0.6666667000000004  0.0000000000000000   F   F   F
  0.3333829322318246  0.6666691537699303  0.2536634711154309   T   T   T
  0.4166700000000034  0.5833299999999966  0.1248500000000021   F   F   F
  0.4177089250877246  0.5826043165752305  0.3766482129257635   T   T   T
  0.5833299999999966  0.6666667000000004  0.0000000000000000   F   F   F
  0.5837918436986239  0.6673978383179254  0.2520375097778023   T   T   T
  0.6666667000000004  0.5833299999999966  0.1248500000000021   F   F   F
  0.6664179711992526  0.5836849072090605  0.3728846370300692   T   T   T
  0.8333299999999966  0.6666667000000004  0.0000000000000000   F   F   F
  0.8335194651136368  0.6669534123031396  0.2526185858050829   T   T   T
  0.9166700000000034  0.5833299999999966  0.1248500000000021   F   F   F
  0.9173073225373798  0.5836645127689379  0.3729308387460133   T   T   T
  0.0833299999999966  0.9166700000000034  0.0000000000000000   F   F   F
  0.0835856538759742  0.9164035228822714  0.2530581081880328   T   T   T
  0.1666700000000034  0.8333299999999966  0.1248500000000021   F   F   F
  0.1663163071970337  0.8339746854085972  0.3729765669373664   T   T   T
  0.3333332999999996  0.9166700000000034  0.0000000000000000   F   F   F
  0.3326076982703509  0.9165525625683991  0.2519387019206354   T   T   T
  0.4166700000000034  0.8333299999999966  0.1248500000000021   F   F   F
  0.4182375386007596  0.8364092333784069  0.3760355493441517   T   T   T
  0.5833299999999966  0.9166700000000034  0.0000000000000000   F   F   F
  0.5839335691620051  0.9165235610342505  0.2519482958473810   T   T   T
  0.6666667000000004  0.8333299999999966  0.1248500000000021   F   F   F
  0.6677009399668615  0.8339695922158235  0.3729518879187496   T   T   T
  0.8333299999999966  0.9166700000000034  0.0000000000000000   F   F   F
  0.8328884485120329  0.9164494814827190  0.2530603741638459   T   T   T
  0.9166700000000034  0.8333299999999966  0.1248500000000021   F   F   F
  0.9162882736251428  0.8325806648327092  0.3738584883407017   T   T   T
  0.3345602023957873  0.6685306712345057  0.4587458316476543   T   T   T
  0.3364238945795859  0.6719306256984984  0.5337710880292507   T   T   T
 
  0.00000000E+00  0.00000000E+00  0.00000000E+00
  0.00000000E+00  0.00000000E+00  0.00000000E+00
  0.00000000E+00  0.00000000E+00  0.00000000E+00
  0.00000000E+00  0.00000000E+00  0.00000000E+00
  0.00000000E+00  0.00000000E+00  0.00000000E+00
  0.00000000E+00  0.00000000E+00  0.00000000E+00
  0.00000000E+00  0.00000000E+00  0.00000000E+00
  0.00000000E+00  0.00000000E+00  0.00000000E+00
  0.00000000E+00  0.00000000E+00  0.00000000E+00
  0.00000000E+00  0.00000000E+00  0.00000000E+00
  0.00000000E+00  0.00000000E+00  0.00000000E+00
  0.00000000E+00  0.00000000E+00  0.00000000E+00
  0.00000000E+00  0.00000000E+00  0.00000000E+00
  0.00000000E+00  0.00000000E+00  0.00000000E+00
  0.00000000E+00  0.00000000E+00  0.00000000E+00
  0.00000000E+00  0.00000000E+00  0.00000000E+00
  0.00000000E+00  0.00000000E+00  0.00000000E+00
  0.00000000E+00  0.00000000E+00  0.00000000E+00
  0.00000000E+00  0.00000000E+00  0.00000000E+00
  0.00000000E+00  0.00000000E+00  0.00000000E+00
  0.00000000E+00  0.00000000E+00  0.00000000E+00
  0.00000000E+00  0.00000000E+00  0.00000000E+00
  0.00000000E+00  0.00000000E+00  0.00000000E+00
  0.00000000E+00  0.00000000E+00  0.00000000E+00
  0.00000000E+00  0.00000000E+00  0.00000000E+00
  0.00000000E+00  0.00000000E+00  0.00000000E+00
  0.00000000E+00  0.00000000E+00  0.00000000E+00
  0.00000000E+00  0.00000000E+00  0.00000000E+00
  0.00000000E+00  0.00000000E+00  0.00000000E+00
  0.00000000E+00  0.00000000E+00  0.00000000E+00
  0.00000000E+00  0.00000000E+00  0.00000000E+00
  0.00000000E+00  0.00000000E+00  0.00000000E+00
  0.00000000E+00  0.00000000E+00  0.00000000E+00
  0.00000000E+00  0.00000000E+00  0.00000000E+00
  0.00000000E+00  0.00000000E+00  0.00000000E+00
  0.00000000E+00  0.00000000E+00  0.00000000E+00
  0.00000000E+00  0.00000000E+00  0.00000000E+00
  0.00000000E+00  0.00000000E+00  0.00000000E+00
  0.00000000E+00  0.00000000E+00  0.00000000E+00
  0.00000000E+00  0.00000000E+00  0.00000000E+00
  0.00000000E+00  0.00000000E+00  0.00000000E+00
  0.00000000E+00  0.00000000E+00  0.00000000E+00
  0.00000000E+00  0.00000000E+00  0.00000000E+00
  0.00000000E+00  0.00000000E+00  0.00000000E+00
  0.00000000E+00  0.00000000E+00  0.00000000E+00
  0.00000000E+00  0.00000000E+00  0.00000000E+00
  0.00000000E+00  0.00000000E+00  0.00000000E+00
  0.00000000E+00  0.00000000E+00  0.00000000E+00
  0.00000000E+00  0.00000000E+00  0.00000000E+00
  0.00000000E+00  0.00000000E+00  0.00000000E+00
  0.00000000E+00  0.00000000E+00  0.00000000E+00
  0.00000000E+00  0.00000000E+00  0.00000000E+00
  0.00000000E+00  0.00000000E+00  0.00000000E+00
  0.00000000E+00  0.00000000E+00  0.00000000E+00
  0.00000000E+00  0.00000000E+00  0.00000000E+00
  0.00000000E+00  0.00000000E+00  0.00000000E+00
  0.00000000E+00  0.00000000E+00  0.00000000E+00
  0.00000000E+00  0.00000000E+00  0.00000000E+00
  0.00000000E+00  0.00000000E+00  0.00000000E+00
  0.00000000E+00  0.00000000E+00  0.00000000E+00
  0.00000000E+00  0.00000000E+00  0.00000000E+00
  0.00000000E+00  0.00000000E+00  0.00000000E+00
  0.00000000E+00  0.00000000E+00  0.00000000E+00
  0.00000000E+00  0.00000000E+00  0.00000000E+00
  0.00000000E+00  0.00000000E+00  0.00000000E+00
  0.00000000E+00  0.00000000E+00  0.00000000E+00
