 Layer\(9)                              
   1.00000000000000     
     9.8291997910000006    0.0000000000000000    0.0000000000000000
     4.9145998955000003    8.5123367178000002    0.0000000000000000
     0.0000000000000000    0.0000000000000000   30.7147998810000011
   Ni   O    H    C    H    C    O    O    H 
    64    30    60     1     1     1     1     1     1
Direct
  0.0847760396358936  0.0751672401724363  0.1190845525660759
  0.3298860812689822  0.0882616132887951  0.1142027951501455
  0.3196656612051001  0.8330633099604697  0.1225284889427781
  0.5872169352441681  0.3287263275047473  0.1198378103178213
  0.3389383000360722  0.5790309050015029  0.1268544905764463
  0.3275005454760672  0.3435610189074998  0.1205296174757159
  0.8407383656586682  0.0672026329593710  0.1182467512192785
  0.5787156431723011  0.0823303606911110  0.1257715233537132
  0.8301237691715712  0.3320062775379146  0.1150579337064587
  0.5743819781417606  0.5925229088155010  0.1224673232113608
  0.0787868892862474  0.8324172256971821  0.1218096795702409
  0.5788258104262373  0.8357698687359491  0.1178975969897356
  0.0791374610684211  0.3331089488033915  0.1180824771297451
  0.8191661299305903  0.5953986379791103  0.1222771942549991
  0.0860991867986356  0.5789663758200334  0.1248497997223144
  0.8331010823019702  0.8301478881632161  0.1213582368609248
  0.1514436117418319  0.1735308893294415  0.1874524099761629
  0.1591012522316449  0.9090717461541912  0.1874576562428868
  0.3995222229441905  0.1832432877036906  0.1825082171355062
  0.3997284918694827  0.9256037536768290  0.1810064140236239
  0.4090768611998216  0.4197953166909193  0.1894647018863557
  0.4038777779514857  0.6765698145534403  0.1895682884509688
  0.9145736250794935  0.1630469960921230  0.1821672115739617
  0.6665255150712283  0.1633921651769764  0.1861230437390248
  0.6468972987700724  0.4284032344695893  0.1864385006268784
  0.1678577964536362  0.6624419617178472  0.1915307429934194
  0.9008086764926374  0.4171928241046011  0.1857829703803943
  0.6582478277019363  0.6760370017210506  0.1877307722270533
  0.9103706644533521  0.9164043793940758  0.1879079585243972
  0.6679133379736489  0.9128647008944634  0.1866015798393045
  0.1615500995059103  0.4074472251414114  0.1857395924561594
  0.9133967451767445  0.6571717701473528  0.1899721625442743
  0.2443430598969210  0.0082413745618308  0.2475126075166336
  0.4942906337720311  0.2347224711621312  0.2503091864425718
  0.5056393516027289  0.4929215308860359  0.2577600294582698
  0.2467229478255160  0.2460564368931684  0.2561983894403818
  0.9954689780952884  0.2332561701792981  0.2493176153536656
  0.7507517149103481  0.2403684842360397  0.2504239996967583
  0.4897207762201962  0.7736312839599375  0.2514843885158667
  0.2479498518248209  0.7393129909730883  0.2606841928445532
  0.4901157811508469  0.0103717920529937  0.2433773924562460
  0.0052557270134190  0.9790837535516765  0.2521739938946986
  0.2482373449375722  0.4910179990858707  0.2541189532196215
  0.7459133189672476  0.4865324253683126  0.2518667069852484
  0.7422555829693730  0.9993286148449987  0.2542079762587697
  0.0009402846782973  0.7292980800033053  0.2552726151290534
  0.7458343906819352  0.7450766563677534  0.2570816165315338
  0.9909309401212810  0.4964512700837586  0.2566866095630131
  0.2355726188556024  0.9886169442140241  0.0514286119113800
  0.4984208459534838  0.2566377852293141  0.0553355335220690
  0.5108934512638120  0.4982541491916145  0.0534100676224707
  0.2413412005640388  0.2594601849930178  0.0506116549210513
  0.9896552248837512  0.2550036083306008  0.0514422067555873
  0.7383039231099872  0.2535010141266213  0.0535318321168422
  0.4971008904137492  0.7445125477184314  0.0518675853609104
  0.2483161183568967  0.7472819612880379  0.0605636597468445
  0.4888895198704567  0.0123499733472976  0.0551369299795929
  0.9868636463356697  0.0069251895555989  0.0524519574713616
  0.2428469262284517  0.5159681086242052  0.0540942695467078
  0.7410127516749239  0.5097395347088591  0.0541469339072731
  0.7364351735303136  0.9999919239073066  0.0563040533561766
  0.9838371282096671  0.7656955879641907  0.0555365409760434
  0.7436062019430465  0.7488298545692866  0.0483437363154036
  0.9917310851095830  0.5077053961218309  0.0552691258629153
  0.0381917665872149  0.9892034549081685  0.5953442212039854
  0.8089929200960440  0.9056059816700037  0.6282385970221488
  0.6036327752433248  0.0644739984559016  0.4171566494274773
  0.1990432403297797  0.2540318917289367  0.4221620601333624
  0.3790101068705090  0.4870425067510069  0.3660766940046032
  0.1319670089606754  0.5857054003483371  0.5872524966695691
  0.4299301768525074  0.7917889434025518  0.4007899287019718
  0.1112640242239776  0.5644654354549070  0.4124342634597265
  0.4582810241890181  0.0566029232965018  0.3417279280844769
  0.3192739967188673  0.7577296794655016  0.4797618485359760
  0.0099124802866263  0.9465089648261922  0.4586464526257783
  0.3863612967435593  0.3387104268961849  0.5626931458799765
  0.3660439425980838  0.1004414967528528  0.5386286233305559
  0.6432015921952928  0.3480923896036768  0.4306536095211146
  0.6341059371628078  0.5833265021720213  0.5863303583161807
  0.3752264778726923  0.4477990660421741  0.4810391081840947
  0.7378414477293308  0.5493190176374384  0.4507928199615617
  0.8735608099753160  0.6146799401672255  0.5290797171718159
  0.0010136697420469  0.5458238164066920  0.6615762667557681
  0.6936039406054721  0.3057804469968365  0.5673007443541610
  0.7686141637662696  0.5099723431336586  0.6666038448577010
  0.3525657997125968  0.8211571522687432  0.5657081435931686
  0.8179553848208633  0.8018780091184182  0.3694775730130717
  0.8323650854735654  0.2160939276995972  0.6461628812190977
  0.6194506523497897  0.8900615925618497  0.4883704148515966
  0.9329119366450936  0.1573671757834404  0.5169077184675670
  0.9855479964616873  0.9982580871701705  0.3701331524819604
  0.1135764926960893  0.2706841838260781  0.4982794276286514
  0.2531115498828763  0.7618738613233389  0.3242198261359961
  0.9921403027333262  0.2923071557677521  0.3542165201877773
  0.1565220066073960  0.9018176449513139  0.5887416062721290
  0.9727784064324053  0.9395370039165029  0.5983996813349370
  0.7515346584340267  0.8991208482841802  0.6031505471529413
  0.8697536877022384  0.7933102330653367  0.6376568976877997
  0.5164806152426111  0.0787592742426612  0.3966477828823943
  0.5842596988469099  0.1701417698827874  0.4254214737800160
  0.1588763430005375  0.2384103029507549  0.4642176561357953
  0.1583669256694503  0.3690494184607310  0.4208987522236145
  0.2997798528423155  0.4851349697600891  0.3870186987935419
  0.3842917913950014  0.4274467352315449  0.3402797987729721
  0.0885630784081657  0.5637839329853208  0.6155894313579174
  0.0726327587495470  0.5807574169665213  0.5617088086913136
  0.3609898564505444  0.8204784073168417  0.3751144422086909
  0.5309481622448392  0.7241147907697152  0.3880153515495796
  0.0026827227355854  0.6451022845185772  0.4045586891443413
  0.1340065092106656  0.5966462645176850  0.4398786793590684
  0.4735800527298819  0.1059433130137453  0.3139026598132669
  0.5106848595791927  0.9453678411155532  0.3313928451991378
  0.3676474050215550  0.7755192104250088  0.4562174345790846
  0.3342501904611312  0.6458262938028908  0.4792062710959278
  0.9769098593423002  0.9722872667255651  0.4284555064431418
  0.1252063903345859  0.8929713257491952  0.4595641269289130
  0.4882423040702777  0.3266106071661152  0.5701638707198914
  0.2893535234987898  0.4347196177530911  0.5767844436704908
  0.3942829472796241  0.1778116898515312  0.5519174578682862
  0.4547683983117202  0.0296874689225261  0.5200618405866916
  0.6647946682444781  0.4298969386638267  0.4440598559481669
  0.5698687245801171  0.4131061853296019  0.4063520029014621
  0.5228729899061649  0.6676274947691205  0.5776266862926346
  0.6465405406577133  0.4795993477840673  0.5772331696735103
  0.4720902959939552  0.3844973149781264  0.4631893350162540
  0.3886450915980830  0.3998055287872600  0.5106741725180770
  0.7476772134928881  0.5490227813746015  0.4189225058236596
  0.6495700681461224  0.6537838543022761  0.4583893626194353
  0.8770980370796682  0.5731731366785074  0.4992348315253903
  0.7767743092894458  0.6220449935049681  0.5420747479521524
  0.0513705714593757  0.5196962529899259  0.6905493123525803
  0.8951016086867210  0.5410508790235424  0.6668618456983920
  0.7669893010909187  0.2652554964574838  0.5435611569614470
  0.7473051250794372  0.2852049248886450  0.5958592324976747
  0.8020375457463009  0.3979804752561090  0.6671484472152475
  0.7154576462827903  0.5489361056330928  0.6386197503031921
  0.3617144726836274  0.9238687507766173  0.5641927851852481
  0.3434732064461418  0.7904308891265575  0.5353377150495903
  0.7665804544104552  0.7425343411096091  0.3582370614476748
  0.7404669020232406  0.9053931053912290  0.3825728606693290
  0.9335180866407086  0.1286418734767478  0.6289895524376964
  0.8054433658420975  0.1470299015714311  0.6609208134302421
  0.6402605240434964  0.9297322096647206  0.4616595349358940
  0.7215262252555241  0.8209395571639785  0.5028668788592230
  0.9582677560584635  0.0754039237680972  0.4925161188178932
  0.9809067083738291  0.0800027392783309  0.5419559583121389
  0.9501570497259538  0.1099267198899031  0.3607947512066225
  0.9227003555218506  0.9663485041218624  0.3509662284201195
  0.2135066848678470  0.2173956456585537  0.5165410301533220
  0.0369157771896598  0.2215597726313161  0.5043196985779393
  0.1536825036131677  0.8540933863119305  0.3359720208711601
  0.2751691447927385  0.6662825367163652  0.3408361828025075
  0.0075105799547131  0.2732676200454445  0.3223116872849062
  0.1666445122279739  0.2195985767586860  0.3947381822662646
  0.6288852122582251  0.4951144873895288  0.3077603564504885
  0.6492950068997058  0.3867847009343476  0.3225002216244982
  0.6464631965429066  0.5840393921125717  0.3229704566455243
  0.6038681923890902  0.7356316317831518  0.3041063127892033
  0.7112853816136748  0.5824732721817145  0.3611513767667863
  0.8864039566178862  0.3926071847636793  0.3567013757055105
 
  0.14076761E-02 -0.30619056E-02  0.74685256E-03
 -0.49845736E-03  0.22712862E-02 -0.21742582E-02
 -0.13521354E-03  0.67498180E-04  0.80944364E-03
  0.22641336E-02  0.11480285E-02  0.18955150E-02
 -0.68430803E-03 -0.85917805E-03  0.10453549E-02
  0.27765228E-02  0.13990138E-02 -0.17402280E-02
 -0.50961809E-02  0.68220272E-03  0.28786665E-02
 -0.20700500E-02 -0.16555245E-02  0.38422989E-03
 -0.18130289E-02  0.21341187E-02 -0.34210896E-02
  0.61851727E-03 -0.39988025E-03  0.17587769E-02
 -0.14293190E-04 -0.17654680E-02 -0.33440337E-02
 -0.13576613E-02  0.30856241E-02  0.66098034E-05
  0.25110118E-02 -0.90478797E-03 -0.11220580E-02
 -0.30451817E-02 -0.39387320E-02  0.36549772E-02
  0.32328499E-02  0.10722802E-02 -0.36660958E-02
 -0.27877506E-02 -0.26879860E-02  0.14664232E-02
 -0.98462511E-03 -0.17398982E-02 -0.19014943E-02
  0.12144385E-02  0.32529952E-03 -0.11511239E-03
  0.10370064E-02 -0.29602416E-02 -0.59775079E-05
  0.16980271E-02  0.23209474E-02  0.15911352E-02
  0.85501541E-03  0.11664128E-02 -0.64136607E-03
  0.21868758E-02 -0.33312696E-02 -0.14591937E-02
 -0.36747640E-02 -0.70056843E-03  0.25688550E-02
 -0.36750096E-02  0.81114723E-03  0.14241137E-02
 -0.14932289E-02  0.80893115E-03 -0.14157054E-02
  0.21956625E-02 -0.47165939E-02  0.19875384E-02
  0.56422261E-03 -0.25004487E-02  0.44273328E-02
  0.46769138E-02  0.10964856E-03 -0.34628029E-03
 -0.75135507E-03  0.34136827E-03  0.29945095E-02
  0.15443338E-02 -0.93066947E-03 -0.92361202E-03
 -0.38537790E-03 -0.39466057E-02 -0.17918596E-02
 -0.66540516E-03  0.12038083E-02 -0.13863801E-02
  0.26385525E-02  0.90643803E-03  0.35270640E-03
  0.19025921E-02 -0.18357857E-02 -0.53206420E-03
 -0.80123565E-03  0.43232653E-02 -0.50245985E-03
 -0.44905648E-03 -0.88332368E-03 -0.15513142E-03
 -0.10222914E-02  0.17671524E-02 -0.64725963E-03
  0.54489357E-03  0.90332428E-03 -0.51603976E-03
 -0.24225400E-03 -0.21003554E-02  0.26697738E-03
  0.30001341E-03 -0.95299081E-03  0.20881912E-02
  0.31604834E-03 -0.12729229E-02 -0.23567786E-02
 -0.16498892E-03  0.90220876E-03  0.33631609E-02
  0.79614771E-03  0.15870314E-02  0.78234679E-03
 -0.15610218E-02  0.33581777E-02 -0.45043639E-02
  0.35066615E-02 -0.10713306E-02  0.44493685E-04
  0.39715046E-02  0.10526566E-02  0.21824789E-02
 -0.79821102E-03  0.21576374E-02 -0.16541841E-02
 -0.71852647E-03  0.77834895E-03 -0.10605762E-02
 -0.33914828E-03 -0.21601661E-02  0.42258751E-03
 -0.11965926E-02 -0.36760762E-02 -0.38889598E-02
 -0.33368285E-02  0.48692357E-02  0.71348446E-04
  0.10639221E-02  0.15373300E-02  0.14722207E-02
 -0.18004828E-02  0.50223358E-03 -0.14993746E-02
 -0.38649970E-03  0.78059411E-03 -0.90943797E-03
  0.16709625E-02 -0.43265218E-02  0.16117070E-03
  0.25359558E-02  0.28772652E-02 -0.36510452E-02
 -0.26908881E-03  0.48814226E-03  0.19668787E-02
 -0.11038002E-02  0.16561685E-02  0.22142684E-02
  0.85423974E-03  0.23358213E-02 -0.11270355E-02
 -0.39188972E-02  0.98125211E-03  0.26711807E-02
  0.10737198E-02 -0.12619676E-02 -0.13686469E-02
  0.91414784E-03  0.12986050E-02 -0.16154629E-02
  0.13237651E-02 -0.12234587E-03 -0.24993606E-02
 -0.36145073E-02 -0.27727080E-02  0.36130296E-02
 -0.58824175E-02 -0.59232706E-02 -0.31432271E-02
  0.40355447E-02 -0.14740372E-02  0.70540075E-03
  0.29450619E-02  0.63607885E-04 -0.19357669E-02
  0.20379884E-02  0.77540882E-04  0.64399893E-03
 -0.51513223E-02 -0.25749975E-02  0.83581109E-03
 -0.17184703E-02  0.58523313E-02 -0.60128937E-03
 -0.75794895E-03 -0.20657667E-02  0.81028970E-02
  0.16927220E-02 -0.79987963E-03  0.63463944E-02
 -0.30376557E-02  0.67759506E-02  0.16235702E-03
  0.28529446E-02 -0.20034161E-02 -0.24048151E-02
 -0.47005565E-02  0.23279398E-02  0.25147215E-02
  0.59536498E-02  0.27732769E-02 -0.16534714E-02
  0.55344815E-02  0.57082524E-02  0.25999053E-02
  0.76515689E-02  0.87658455E-03  0.24465625E-02
 -0.41848003E-02 -0.63848810E-02 -0.11590690E-02
  0.10112909E-02  0.33155429E-03 -0.42597059E-02
  0.27996944E-02  0.65728149E-02 -0.10690694E-01
 -0.26939954E-02 -0.62521427E-02  0.37016177E-03
  0.90514973E-03  0.45188340E-02 -0.23424950E-02
 -0.48812726E-02  0.31055207E-02 -0.37745948E-02
  0.41647886E-02 -0.61377414E-03 -0.53989731E-02
 -0.99054477E-02  0.36641486E-03  0.14733757E-02
 -0.37569382E-02  0.22214680E-02 -0.30808176E-02
 -0.95691423E-02  0.55975589E-02  0.71912244E-02
 -0.20300032E-02 -0.40953973E-02 -0.24646353E-02
  0.31732579E-03  0.24384662E-02 -0.10021486E-02
  0.40607142E-02 -0.22556117E-02 -0.34245848E-04
  0.34536739E-02  0.10688850E-02  0.88797690E-02
  0.42013151E-03 -0.55716408E-02 -0.30624136E-02
 -0.10407132E-02  0.44631759E-02  0.41371961E-03
  0.30309933E-01 -0.58904789E-02 -0.70990055E-02
 -0.13187538E-01  0.46998160E-01  0.17266457E-02
  0.73875653E-02  0.13599731E-01 -0.15197714E-01
  0.13688399E-01  0.26979283E-03 -0.18923569E-02
 -0.45547446E-01  0.85482783E-02  0.22741449E-02
  0.14519619E-01  0.76084275E-02  0.22383177E-01
  0.46037600E-02 -0.33028063E-01  0.17118148E-02
 -0.18176135E-01 -0.30384732E-02 -0.10514964E-01
 -0.29669832E-01 -0.17620156E-01 -0.98161039E-02
  0.16687221E-01  0.85505494E-02 -0.15071912E-01
 -0.23704517E-01  0.27896102E-01  0.25444820E-01
 -0.11853097E-01 -0.33259089E-01 -0.11527996E-01
 -0.22838733E-01 -0.22224681E-01 -0.76020529E-02
 -0.13733358E-01 -0.10954887E-01  0.30753884E-02
  0.18433272E-01 -0.59917397E-02 -0.13630746E-01
  0.27597514E-01 -0.16899396E-01  0.54380439E-02
  0.20315391E-01  0.11819390E-01  0.21365624E-01
 -0.13650218E-01  0.16636665E-01 -0.29303459E-01
 -0.28701603E-01 -0.15806166E-01  0.35712809E-02
  0.19482385E-01 -0.39077901E-03 -0.43913971E-02
  0.12177880E-01 -0.33426060E-01  0.93547454E-02
  0.18584646E-01  0.20861067E-01  0.41130894E-02
  0.90615787E-02  0.79025715E-02  0.68358013E-02
  0.33340188E-02 -0.21820667E-01  0.15523660E-01
  0.23968170E-02 -0.54419612E-02  0.54956716E-02
 -0.76382323E-02  0.10592330E-01  0.78265882E-02
  0.11741532E-01 -0.46557223E-02  0.10751715E-01
  0.78103171E-02  0.93559162E-02 -0.23288161E-01
 -0.91540531E-02 -0.86945681E-02  0.10277059E-01
  0.30982781E-02  0.17469066E-02 -0.50938172E-02
 -0.10723115E-01 -0.35609980E-03 -0.14509054E-03
 -0.70206826E-02 -0.77005925E-02  0.16455159E-01
  0.58459070E-04  0.20061914E-01 -0.10765212E-01
  0.14393942E-01 -0.59441842E-02  0.99573102E-02
 -0.77170403E-02  0.97654419E-02 -0.49827768E-02
 -0.26943568E-01  0.64498571E-02 -0.77164895E-04
  0.11913170E-02 -0.23456975E-01 -0.22414440E-01
  0.44480566E-01  0.90219174E-02  0.24892078E-01
  0.30860357E-02  0.10458308E-01 -0.33333250E-02
 -0.48036053E-02  0.24980331E-03 -0.13432514E-01
  0.15421691E-01  0.81281210E-02 -0.12417855E-01
  0.10206321E-01  0.15886738E-01  0.28365333E-01
 -0.83068501E-02 -0.76098432E-02 -0.10219201E-01
 -0.74324768E-02  0.89313121E-02  0.19278581E-01
 -0.38769641E-01 -0.15345588E-01 -0.33846858E-02
  0.18610443E-01 -0.17455376E-02  0.21438348E-01
 -0.44971084E-02  0.31352047E-02  0.71409763E-02
  0.59879841E-02  0.11185823E-01 -0.48530588E-03
  0.20712158E-01  0.10332901E-01 -0.15709918E-01
 -0.71087493E-02  0.64442095E-02  0.15254499E-01
 -0.11239134E-02  0.38270767E-02  0.15797473E-01
  0.43274495E-03 -0.11118496E-02 -0.14240078E-01
  0.87749474E-02  0.14726332E-01 -0.27832172E-02
 -0.24933319E-01 -0.23535425E-01 -0.40215146E-02
  0.13539144E-01  0.17741605E-02 -0.16516677E-01
 -0.32687857E-01 -0.16935694E-02  0.11262043E-01
 -0.21287438E-01 -0.12187772E-01  0.23089731E-01
  0.23951036E-01 -0.11770544E-01  0.45976148E-02
  0.14821620E-01 -0.10291251E-01  0.65074131E-02
  0.19252904E-01 -0.13557424E-01 -0.21314993E-01
 -0.35888964E-02  0.11527840E-02  0.49117340E-02
 -0.44206123E-01 -0.22704089E-01  0.96625346E-03
  0.64604904E-02 -0.64836328E-02  0.34167021E-02
  0.38387777E-02  0.73310795E-03  0.77377649E-03
  0.46447719E-03  0.87856493E-02  0.37558092E-02
 -0.11987002E-02  0.72774379E-03 -0.52324786E-03
 
           1
   1.00000000000000     
 -0.59659711E-01 -0.22457643E-02 -0.26610978E-02 -0.57206280E-01
  0.84776040E-01  0.75167240E-01  0.11908455E+00
  0.32988608E+00  0.88261613E-01  0.11420280E+00
  0.31966566E+00  0.83306331E+00  0.12252849E+00
  0.58721694E+00  0.32872633E+00  0.11983781E+00
  0.33893830E+00  0.57903091E+00  0.12685449E+00
  0.32750055E+00  0.34356102E+00  0.12052962E+00
  0.84073837E+00  0.67202633E-01  0.11824675E+00
  0.57871564E+00  0.82330361E-01  0.12577152E+00
  0.83012377E+00  0.33200628E+00  0.11505793E+00
  0.57438198E+00  0.59252291E+00  0.12246732E+00
  0.78786889E-01  0.83241723E+00  0.12180968E+00
  0.57882581E+00  0.83576987E+00  0.11789760E+00
  0.79137461E-01  0.33310895E+00  0.11808248E+00
  0.81916613E+00  0.59539864E+00  0.12227719E+00
  0.86099187E-01  0.57896638E+00  0.12484980E+00
  0.83310108E+00  0.83014789E+00  0.12135824E+00
  0.15144361E+00  0.17353089E+00  0.18745241E+00
  0.15910125E+00  0.90907175E+00  0.18745766E+00
  0.39952222E+00  0.18324329E+00  0.18250822E+00
  0.39972849E+00  0.92560375E+00  0.18100641E+00
  0.40907686E+00  0.41979532E+00  0.18946470E+00
  0.40387778E+00  0.67656981E+00  0.18956829E+00
  0.91457363E+00  0.16304700E+00  0.18216721E+00
  0.66652552E+00  0.16339217E+00  0.18612304E+00
  0.64689730E+00  0.42840323E+00  0.18643850E+00
  0.16785780E+00  0.66244196E+00  0.19153074E+00
  0.90080868E+00  0.41719282E+00  0.18578297E+00
  0.65824783E+00  0.67603700E+00  0.18773077E+00
  0.91037066E+00  0.91640438E+00  0.18790796E+00
  0.66791334E+00  0.91286470E+00  0.18660158E+00
  0.16155010E+00  0.40744723E+00  0.18573959E+00
  0.91339675E+00  0.65717177E+00  0.18997216E+00
  0.24434306E+00  0.82413746E-02  0.24751261E+00
  0.49429063E+00  0.23472247E+00  0.25030919E+00
  0.50563935E+00  0.49292153E+00  0.25776003E+00
  0.24672295E+00  0.24605644E+00  0.25619839E+00
  0.99546898E+00  0.23325617E+00  0.24931762E+00
  0.75075171E+00  0.24036848E+00  0.25042400E+00
  0.48972078E+00  0.77363128E+00  0.25148439E+00
  0.24794985E+00  0.73931299E+00  0.26068419E+00
  0.49011578E+00  0.10371792E-01  0.24337739E+00
  0.52557270E-02  0.97908375E+00  0.25217399E+00
  0.24823734E+00  0.49101800E+00  0.25411895E+00
  0.74591332E+00  0.48653243E+00  0.25186671E+00
  0.74225558E+00  0.99932861E+00  0.25420798E+00
  0.94028468E-03  0.72929808E+00  0.25527262E+00
  0.74583439E+00  0.74507666E+00  0.25708162E+00
  0.99093094E+00  0.49645127E+00  0.25668661E+00
  0.23557262E+00  0.98861694E+00  0.51428612E-01
  0.49842085E+00  0.25663779E+00  0.55335534E-01
  0.51089345E+00  0.49825415E+00  0.53410068E-01
  0.24134120E+00  0.25946018E+00  0.50611655E-01
  0.98965522E+00  0.25500361E+00  0.51442207E-01
  0.73830392E+00  0.25350101E+00  0.53531832E-01
  0.49710089E+00  0.74451255E+00  0.51867585E-01
  0.24831612E+00  0.74728196E+00  0.60563660E-01
  0.48888952E+00  0.12349973E-01  0.55136930E-01
  0.98686365E+00  0.69251896E-02  0.52451957E-01
  0.24284693E+00  0.51596811E+00  0.54094270E-01
  0.74101275E+00  0.50973953E+00  0.54146934E-01
  0.73643517E+00  0.99999192E+00  0.56304053E-01
  0.98383713E+00  0.76569559E+00  0.55536541E-01
  0.74360620E+00  0.74882985E+00  0.48343736E-01
  0.99173109E+00  0.50770540E+00  0.55269126E-01
  0.38191767E-01  0.98920345E+00  0.59534422E+00
  0.80899292E+00  0.90560598E+00  0.62823860E+00
  0.60363278E+00  0.64473998E-01  0.41715665E+00
  0.19904324E+00  0.25403189E+00  0.42216206E+00
  0.37901011E+00  0.48704251E+00  0.36607669E+00
  0.13196701E+00  0.58570540E+00  0.58725250E+00
  0.42993018E+00  0.79178894E+00  0.40078993E+00
  0.11126402E+00  0.56446544E+00  0.41243426E+00
  0.45828102E+00  0.56602923E-01  0.34172793E+00
  0.31927400E+00  0.75772968E+00  0.47976185E+00
  0.99124803E-02  0.94650896E+00  0.45864645E+00
  0.38636130E+00  0.33871043E+00  0.56269315E+00
  0.36604394E+00  0.10044150E+00  0.53862862E+00
  0.64320159E+00  0.34809239E+00  0.43065361E+00
  0.63410594E+00  0.58332650E+00  0.58633036E+00
  0.37522648E+00  0.44779907E+00  0.48103911E+00
  0.73784145E+00  0.54931902E+00  0.45079282E+00
  0.87356081E+00  0.61467994E+00  0.52907972E+00
  0.10136697E-02  0.54582382E+00  0.66157627E+00
  0.69360394E+00  0.30578045E+00  0.56730074E+00
  0.76861416E+00  0.50997234E+00  0.66660384E+00
  0.35256580E+00  0.82115715E+00  0.56570814E+00
  0.81795538E+00  0.80187801E+00  0.36947757E+00
  0.83236509E+00  0.21609393E+00  0.64616288E+00
  0.61945065E+00  0.89006159E+00  0.48837041E+00
  0.93291194E+00  0.15736718E+00  0.51690772E+00
  0.98554800E+00  0.99825809E+00  0.37013315E+00
  0.11357649E+00  0.27068418E+00  0.49827943E+00
  0.25311155E+00  0.76187386E+00  0.32421983E+00
  0.99214030E+00  0.29230716E+00  0.35421652E+00
  0.15652201E+00  0.90181764E+00  0.58874161E+00
  0.97277841E+00  0.93953700E+00  0.59839968E+00
  0.75153466E+00  0.89912085E+00  0.60315055E+00
  0.86975369E+00  0.79331023E+00  0.63765690E+00
  0.51648062E+00  0.78759274E-01  0.39664778E+00
  0.58425970E+00  0.17014177E+00  0.42542147E+00
  0.15887634E+00  0.23841030E+00  0.46421766E+00
  0.15836693E+00  0.36904942E+00  0.42089875E+00
  0.29977985E+00  0.48513497E+00  0.38701870E+00
  0.38429179E+00  0.42744674E+00  0.34027980E+00
  0.88563078E-01  0.56378393E+00  0.61558943E+00
  0.72632759E-01  0.58075742E+00  0.56170881E+00
  0.36098986E+00  0.82047841E+00  0.37511444E+00
  0.53094816E+00  0.72411479E+00  0.38801535E+00
  0.26827227E-02  0.64510228E+00  0.40455869E+00
  0.13400651E+00  0.59664626E+00  0.43987868E+00
  0.47358005E+00  0.10594331E+00  0.31390266E+00
  0.51068486E+00  0.94536784E+00  0.33139285E+00
  0.36764741E+00  0.77551921E+00  0.45621743E+00
  0.33425019E+00  0.64582629E+00  0.47920627E+00
  0.97690986E+00  0.97228727E+00  0.42845551E+00
  0.12520639E+00  0.89297133E+00  0.45956413E+00
  0.48824230E+00  0.32661061E+00  0.57016387E+00
  0.28935352E+00  0.43471962E+00  0.57678444E+00
  0.39428295E+00  0.17781169E+00  0.55191746E+00
  0.45476840E+00  0.29687469E-01  0.52006184E+00
  0.66479467E+00  0.42989694E+00  0.44405986E+00
  0.56986872E+00  0.41310619E+00  0.40635200E+00
  0.52287299E+00  0.66762749E+00  0.57762669E+00
  0.64654054E+00  0.47959935E+00  0.57723317E+00
  0.47209030E+00  0.38449731E+00  0.46318934E+00
  0.38864509E+00  0.39980553E+00  0.51067417E+00
  0.74767721E+00  0.54902278E+00  0.41892251E+00
  0.64957007E+00  0.65378385E+00  0.45838936E+00
  0.87709804E+00  0.57317314E+00  0.49923483E+00
  0.77677431E+00  0.62204499E+00  0.54207475E+00
  0.51370571E-01  0.51969625E+00  0.69054931E+00
  0.89510161E+00  0.54105088E+00  0.66686185E+00
  0.76698930E+00  0.26525550E+00  0.54356116E+00
  0.74730513E+00  0.28520492E+00  0.59585923E+00
  0.80203755E+00  0.39798048E+00  0.66714845E+00
  0.71545765E+00  0.54893611E+00  0.63861975E+00
  0.36171447E+00  0.92386875E+00  0.56419279E+00
  0.34347321E+00  0.79043089E+00  0.53533772E+00
  0.76658045E+00  0.74253434E+00  0.35823706E+00
  0.74046690E+00  0.90539311E+00  0.38257286E+00
  0.93351809E+00  0.12864187E+00  0.62898955E+00
  0.80544337E+00  0.14702990E+00  0.66092081E+00
  0.64026052E+00  0.92973221E+00  0.46165953E+00
  0.72152623E+00  0.82093956E+00  0.50286688E+00
  0.95826776E+00  0.75403924E-01  0.49251612E+00
  0.98090671E+00  0.80002739E-01  0.54195596E+00
  0.95015705E+00  0.10992672E+00  0.36079475E+00
  0.92270036E+00  0.96634850E+00  0.35096623E+00
  0.21350668E+00  0.21739565E+00  0.51654103E+00
  0.36915777E-01  0.22155977E+00  0.50431970E+00
  0.15368250E+00  0.85409339E+00  0.33597202E+00
  0.27516914E+00  0.66628254E+00  0.34083618E+00
  0.75105800E-02  0.27326762E+00  0.32231169E+00
  0.16664451E+00  0.21959858E+00  0.39473818E+00
  0.62888521E+00  0.49511449E+00  0.30776036E+00
  0.64929501E+00  0.38678470E+00  0.32250022E+00
  0.64646320E+00  0.58403939E+00  0.32297046E+00
  0.60386819E+00  0.73563163E+00  0.30410631E+00
  0.71128538E+00  0.58247327E+00  0.36115138E+00
  0.88640396E+00  0.39260718E+00  0.35670138E+00
  0.00000000E+00  0.00000000E+00  0.00000000E+00
  0.00000000E+00  0.00000000E+00  0.00000000E+00
  0.00000000E+00  0.00000000E+00  0.00000000E+00
  0.00000000E+00  0.00000000E+00  0.00000000E+00
  0.00000000E+00  0.00000000E+00  0.00000000E+00
  0.00000000E+00  0.00000000E+00  0.00000000E+00
  0.00000000E+00  0.00000000E+00  0.00000000E+00
  0.00000000E+00  0.00000000E+00  0.00000000E+00
  0.00000000E+00  0.00000000E+00  0.00000000E+00
  0.00000000E+00  0.00000000E+00  0.00000000E+00
  0.00000000E+00  0.00000000E+00  0.00000000E+00
  0.00000000E+00  0.00000000E+00  0.00000000E+00
  0.00000000E+00  0.00000000E+00  0.00000000E+00
  0.00000000E+00  0.00000000E+00  0.00000000E+00
  0.00000000E+00  0.00000000E+00  0.00000000E+00
  0.00000000E+00  0.00000000E+00  0.00000000E+00
  0.00000000E+00  0.00000000E+00  0.00000000E+00
  0.00000000E+00  0.00000000E+00  0.00000000E+00
  0.00000000E+00  0.00000000E+00  0.00000000E+00
  0.00000000E+00  0.00000000E+00  0.00000000E+00
  0.00000000E+00  0.00000000E+00  0.00000000E+00
  0.00000000E+00  0.00000000E+00  0.00000000E+00
  0.00000000E+00  0.00000000E+00  0.00000000E+00
  0.00000000E+00  0.00000000E+00  0.00000000E+00
  0.00000000E+00  0.00000000E+00  0.00000000E+00
  0.00000000E+00  0.00000000E+00  0.00000000E+00
  0.00000000E+00  0.00000000E+00  0.00000000E+00
  0.00000000E+00  0.00000000E+00  0.00000000E+00
  0.00000000E+00  0.00000000E+00  0.00000000E+00
  0.00000000E+00  0.00000000E+00  0.00000000E+00
  0.00000000E+00  0.00000000E+00  0.00000000E+00
  0.00000000E+00  0.00000000E+00  0.00000000E+00
  0.00000000E+00  0.00000000E+00  0.00000000E+00
  0.00000000E+00  0.00000000E+00  0.00000000E+00
  0.00000000E+00  0.00000000E+00  0.00000000E+00
  0.00000000E+00  0.00000000E+00  0.00000000E+00
  0.00000000E+00  0.00000000E+00  0.00000000E+00
  0.00000000E+00  0.00000000E+00  0.00000000E+00
  0.00000000E+00  0.00000000E+00  0.00000000E+00
  0.00000000E+00  0.00000000E+00  0.00000000E+00
  0.00000000E+00  0.00000000E+00  0.00000000E+00
  0.00000000E+00  0.00000000E+00  0.00000000E+00
  0.00000000E+00  0.00000000E+00  0.00000000E+00
  0.00000000E+00  0.00000000E+00  0.00000000E+00
  0.00000000E+00  0.00000000E+00  0.00000000E+00
  0.00000000E+00  0.00000000E+00  0.00000000E+00
  0.00000000E+00  0.00000000E+00  0.00000000E+00
  0.00000000E+00  0.00000000E+00  0.00000000E+00
  0.00000000E+00  0.00000000E+00  0.00000000E+00
  0.00000000E+00  0.00000000E+00  0.00000000E+00
  0.00000000E+00  0.00000000E+00  0.00000000E+00
  0.00000000E+00  0.00000000E+00  0.00000000E+00
  0.00000000E+00  0.00000000E+00  0.00000000E+00
  0.00000000E+00  0.00000000E+00  0.00000000E+00
  0.00000000E+00  0.00000000E+00  0.00000000E+00
  0.00000000E+00  0.00000000E+00  0.00000000E+00
  0.00000000E+00  0.00000000E+00  0.00000000E+00
  0.00000000E+00  0.00000000E+00  0.00000000E+00
  0.00000000E+00  0.00000000E+00  0.00000000E+00
  0.00000000E+00  0.00000000E+00  0.00000000E+00
  0.00000000E+00  0.00000000E+00  0.00000000E+00
  0.00000000E+00  0.00000000E+00  0.00000000E+00
  0.00000000E+00  0.00000000E+00  0.00000000E+00
  0.00000000E+00  0.00000000E+00  0.00000000E+00
  0.00000000E+00  0.00000000E+00  0.00000000E+00
  0.00000000E+00  0.00000000E+00  0.00000000E+00
  0.00000000E+00  0.00000000E+00  0.00000000E+00
  0.00000000E+00  0.00000000E+00  0.00000000E+00
  0.00000000E+00  0.00000000E+00  0.00000000E+00
  0.00000000E+00  0.00000000E+00  0.00000000E+00
  0.00000000E+00  0.00000000E+00  0.00000000E+00
  0.00000000E+00  0.00000000E+00  0.00000000E+00
  0.00000000E+00  0.00000000E+00  0.00000000E+00
  0.00000000E+00  0.00000000E+00  0.00000000E+00
  0.00000000E+00  0.00000000E+00  0.00000000E+00
  0.00000000E+00  0.00000000E+00  0.00000000E+00
  0.00000000E+00  0.00000000E+00  0.00000000E+00
  0.00000000E+00  0.00000000E+00  0.00000000E+00
  0.00000000E+00  0.00000000E+00  0.00000000E+00
  0.00000000E+00  0.00000000E+00  0.00000000E+00
  0.00000000E+00  0.00000000E+00  0.00000000E+00
  0.00000000E+00  0.00000000E+00  0.00000000E+00
  0.00000000E+00  0.00000000E+00  0.00000000E+00