 Layer\(8)                              
   1.00000000000000     
    10.1184997559000003    0.0000000000000000    0.0000000000000000
    -5.0592498779000001    8.7628778367999995    0.0000000000000000
     0.0000000000000000    0.0000000000000000   30.4844000000000008
   Cu   O    H    C    O    C    O 
    64    30    60     1     1     1     1
Direct
  0.4023868133043911  0.0985347921310458  0.1175907265664305
  0.9095514398113913  0.5873307588198644  0.1120740540595900
  0.6661956451977817  0.3509656553557906  0.1159063634313847
  0.1492947116759167  0.8505304337099767  0.1151320269846198
  0.1512677706768414  0.5991882982392707  0.1136855925989633
  0.4221495959821128  0.3652531091978112  0.1136637023236202
  0.1660956241279289  0.1192224888326798  0.1119074658556548
  0.3878570958041921  0.8470894108480408  0.1173497550202616
  0.9019893933257750  0.3284404036500809  0.1155997061907387
  0.1617220524444605  0.3498353226552237  0.1151052287756820
  0.6459548346203232  0.0818609407526903  0.1153159478771004
  0.6506697188899855  0.8364946367071679  0.1195426318539980
  0.6607776237130840  0.5919061834141622  0.1163592418062515
  0.4057424242799714  0.6045003603291241  0.1154162916215848
  0.9102135249038213  0.8418983685061827  0.1172258556818371
  0.9065767045923576  0.0831934318713941  0.1150175186223738
  0.3116570119663210  0.1850381252239075  0.1837537986190485
  0.8273537615448902  0.4183945138650646  0.1803787632872744
  0.0706533694444188  0.6752498966921259  0.1782536842885777
  0.3078721652385893  0.9283436733255959  0.1811782010040722
  0.5717204744759389  0.1773895304307853  0.1792827842285896
  0.5690797959194428  0.4246823130979557  0.1803439124738441
  0.0839535836587618  0.4385631533215538  0.1801008125843864
  0.8267696738938689  0.6696698122777395  0.1780547474188293
  0.0671850776141100  0.9439650796855145  0.1818014008249007
  0.3260190006979362  0.4372149961298644  0.1842227107500777
  0.3197898448053209  0.6818308711429796  0.1837289450637734
  0.0723203503792205  0.1911349636707673  0.1794458220301272
  0.5782517065350808  0.9319097057080126  0.1846327758216545
  0.8244392671060522  0.1760147625624800  0.1818484213042945
  0.5822306533257526  0.6811418470809090  0.1823875652891407
  0.8126970106420813  0.9166398126414759  0.1837131701578946
  0.4797388660657184  0.2588727522163557  0.2447100937104656
  0.2354646989934275  0.0045895578898167  0.2533800738143956
  0.9947451245398651  0.7696028377076309  0.2441566150996076
  0.4911326424931655  0.0145161428363383  0.2467822345963432
  0.9924475652747642  0.5120034694411874  0.2480532689868851
  0.7445731014609985  0.5215076901536005  0.2452329080234952
  0.2498094401996650  0.7669311007846473  0.2481891951451745
  0.7388662745253255  0.2699381406131224  0.2449499160545026
  0.2351576755341599  0.2773692981252122  0.2510947594367346
  0.2393556833133615  0.5115054711456142  0.2562519271066204
  0.9793971074216448  0.2707166732509336  0.2456253268502568
  0.5018080995869122  0.5257115863620720  0.2497373164962531
  0.4999711335442266  0.7677383366154742  0.2468181767091510
  0.9772853184357010  0.0218467113552031  0.2472120223888019
  0.7317152304887065  0.0288224954563781  0.2589525589819360
  0.7397943119259590  0.7648633276278949  0.2485737084453067
  0.4885019448140616  0.2775143608181598  0.0475883980443063
  0.2326027382538047  0.0187084957709059  0.0460775259666609
  0.9808334385722118  0.7555158823453725  0.0523548423384381
  0.4743877738845129  0.0154434246031898  0.0489348686826665
  0.9803490900872472  0.5095198817286457  0.0480506740341820
  0.7404117341452893  0.5091399859352085  0.0456567020417699
  0.2284504154698982  0.7607171603134700  0.0463977387672329
  0.7258475540348240  0.2427559067745549  0.0477051243951238
  0.2355333988043704  0.2743971569853329  0.0468328303440665
  0.2398249617899486  0.5211383328378923  0.0529652765870877
  0.9915488132723115  0.2632778114381681  0.0458540964182779
  0.4781443174218601  0.5231007284609653  0.0454629105044626
  0.4914928799948042  0.7807049362480778  0.0530028868573428
  0.9851251150632878  0.0069723829613473  0.0479451338908657
  0.7341379728334155  0.0099433697863803  0.0501027379241750
  0.7227964251034508  0.7535417443032917  0.0468486103969242
  0.7031648639626678  0.9572478417858993  0.3208348148208734
  0.5749884356522664  0.3710232436497521  0.4779905292576246
  0.3308961851539626  0.0192993860437198  0.3215452269153257
  0.8543443565840224  0.5014830877747336  0.4037489275628116
  0.2417567701431925  0.0667319119630077  0.6049344235566054
  0.9470719608595730  0.3953972930009535  0.3324440250318625
  0.1647166825195168  0.7887265811256325  0.3733731303769201
  0.9047228373745656  0.7261227780989212  0.5814683653367353
  0.2464853425135169  0.1387324154446579  0.4677007531881442
  0.2934403431647768  0.4045730600972636  0.4123659158160456
  0.5098604465609247  0.8256126547628109  0.5832655652671191
  0.7594907699809557  0.0875131059010636  0.4433204583563481
  0.0093306720313861  0.3806265134406379  0.4646034805626787
  0.0393440132561891  0.8814917516250842  0.4402226655159672
  0.4468330186421318  0.3797893599590945  0.5897215584690335
  0.7426975066934095  0.7610999439939221  0.6557463958228145
  0.0787115930496417  0.1450249487399769  0.5422463487221397
  0.9717802153011363  0.9558971970277526  0.3412078003451345
  0.7813784653853804  0.9275788994329268  0.5295626392277507
  0.3709664137779103  0.8031719264586231  0.4407886890039135
  0.2977184942998352  0.8882416688282905  0.5498704403879657
  0.5485957580160246  0.3421114846709019  0.3340477648618821
  0.7458307062503025  0.8134531021018551  0.4239703221749501
  0.9867092823806997  0.1861171955160351  0.3765154782828558
  0.3860049583131405  0.5435625969531508  0.5454982997310509
  0.7930597358846579  0.6424857724364073  0.3349928509726064
  0.5782869074081481  0.1697798761548171  0.4100396791310716
  0.5017204568733900  0.5758420932326563  0.4665917087682328
  0.7202439046456708  0.4185522186664656  0.5594593141241522
  0.0960106827885756  0.5597626328154492  0.5426446254279106
  0.7584193113913819  0.9036407261953686  0.3293149968761589
  0.6054496557826171  0.8958927879407882  0.3365471866038388
  0.4713996140244679  0.3068441643246100  0.4864706426660975
  0.5771739590140262  0.4753420812261325  0.4742183084908433
  0.2588634357959351  0.9384106926083700  0.3450894103451728
  0.3915406790036531  0.1232006922206852  0.3340915059002660
  0.8249334865793613  0.5596329765587272  0.3833807649920609
  0.7552557757095689  0.4195474880753444  0.4167838794468285
  0.1500976436473787  0.9911353032966269  0.6195930512495371
  0.2757569269672847  0.0031395219519228  0.5877316437621856
  0.9498321785420025  0.4643396283044565  0.3561577294731361
  0.8336685914148547  0.3470971292552916  0.3222841600728166
  0.2401042335188104  0.7708599509740727  0.3902378207323448
  0.1224166591662411  0.8356201232414532  0.3906077507222809
  0.8665208010479959  0.7825683653998892  0.5634732715020974
  0.8645807306343286  0.7286068926918400  0.6107315750071378
  0.2403447684952936  0.2145083858778107  0.4486512006326920
  0.1838928413100604  0.0333471947309014  0.4518432184952949
  0.1863457691493599  0.3726443206992184  0.4219191691447355
  0.2883648833072062  0.3631917239578992  0.3804044975616823
  0.6061696988296839  0.8873850531779591  0.5671919267256305
  0.4536193276843174  0.7215430155350280  0.5716201328684126
  0.6942427048393900  0.1116501211579777  0.4248223267538208
  0.8088210343718609  0.1722996829410938  0.4636212147000826
  0.0303336359306993  0.4296945743191878  0.4944045656869530
  0.9883921254961860  0.4531936486660799  0.4484291175361408
  0.0121617567447328  0.7814630259090253  0.4528381528021572
  0.9435563923818812  0.8692356455059975  0.4270433675248109
  0.5342660140246588  0.3705618817123577  0.5777516367835550
  0.3594948935468855  0.2715568952265828  0.5959457071459834
  0.6855785195811646  0.7868604106016884  0.6356697384880359
  0.6669122475827600  0.6749385426177987  0.6710968098425013
  0.1241918669985993  0.1283886239878491  0.5163787436548712
  0.1234917971452156  0.1236328026885195  0.5684980033728027
  0.0587418797531952  0.9674963009891936  0.3260528988920409
  0.9902555623538194  0.0574165921076889  0.3550950903652092
  0.7631257253220758  0.9045311117056897  0.4990001703526909
  0.8885037336383043  0.0088140300029110  0.5360208922962548
  0.4089147899371395  0.7321813970455470  0.4377086856992526
  0.4513861063803978  0.9010514858596854  0.4287533913294352
  0.3481013323639349  0.9636105762956992  0.5253056979465863
  0.3819170336158770  0.8686604946274484  0.5622504171598184
  0.4364212066616533  0.3180291133285439  0.3301910148557214
  0.6130858716618166  0.4518895522936461  0.3399740156717314
  0.6835203348610647  0.7236750022364893  0.4427737067777680
  0.7219072288795065  0.8956381773477052  0.4286312730376262
  0.9264305483350067  0.1612301770162004  0.4046225965688254
  0.9764821326906256  0.2667086851277002  0.3596199316195037
  0.3988350389638105  0.4553093330298636  0.5629111424976276
  0.2748698372814311  0.5102425499215978  0.5467428951328909
  0.8456433016471683  0.7554951851167142  0.3439927071850579
  0.8598350437146122  0.6348256011981503  0.3122574075389356
  0.5661932780476965  0.2222205965023004  0.3845583894314781
  0.5644484735128796  0.2171013817299604  0.4362155201450079
  0.4396914911036963  0.5704309529919400  0.4927759620023134
  0.4298375892099215  0.5151372593503166  0.4422829232308167
  0.6903471397042311  0.4234171495472521  0.5289252376051299
  0.7926635895324995  0.5209131108413362  0.5687049547740406
  0.0128074787008033  0.5420524812872451  0.5634665920117939
  0.1520036146895041  0.6726566373900671  0.5406453182291043
  0.4012847298518027  0.5935832089645103  0.3277060863841781
  0.4421778150676005  0.7120662439868410  0.3452844943644778
  0.3481106678885559  0.4714385411037365  0.3127526294697070
  0.2938975889485272  0.3196279226640157  0.3229858621740207
 
 -0.68039840E-05  0.16542743E-03 -0.23964303E-02
  0.36265662E-02 -0.15693126E-02 -0.28915354E-02
 -0.29021370E-03 -0.19884748E-02  0.86303429E-03
  0.10858127E-02 -0.41152618E-03 -0.25786165E-03
 -0.28778722E-02 -0.17890696E-02 -0.23388953E-02
 -0.15552305E-02 -0.17434623E-02  0.23819760E-03
 -0.14136143E-02  0.12016303E-02  0.20354064E-02
 -0.11350179E-02  0.86227077E-03 -0.14213791E-02
 -0.33882130E-03 -0.21826934E-02  0.21665903E-04
 -0.16624829E-02  0.82821735E-03  0.90728963E-03
  0.17866324E-02 -0.12502342E-02 -0.21389413E-03
  0.19988154E-02  0.62892222E-03 -0.42172722E-02
  0.79724239E-03  0.15273276E-03  0.25766315E-03
 -0.95914531E-03  0.86359415E-03 -0.43308610E-03
  0.21488583E-02 -0.82837962E-03  0.32734920E-02
  0.64736634E-03 -0.19434072E-02  0.35959053E-02
 -0.81634235E-03 -0.29805590E-02 -0.77692431E-03
  0.32966223E-02 -0.24300537E-02 -0.16937848E-02
  0.83700258E-04  0.21268325E-02  0.37723398E-03
  0.13537068E-02  0.90902251E-03 -0.32727772E-02
 -0.45271238E-03 -0.50689629E-02  0.16617766E-03
 -0.16190686E-02 -0.53700533E-02  0.31035293E-02
 -0.31782490E-02  0.13479966E-02  0.69809436E-03
 -0.15646725E-02  0.33986698E-02  0.15834695E-02
  0.10571782E-02  0.12621523E-02  0.24410502E-02
 -0.56992100E-03  0.12583841E-02 -0.78463072E-03
  0.53196474E-02  0.50708391E-02 -0.83909383E-03
  0.13522846E-02  0.67906873E-03  0.35247663E-02
  0.41514664E-03  0.41192818E-02  0.27743042E-02
 -0.26670129E-02 -0.34992631E-02  0.19521769E-02
  0.35616945E-02 -0.55057844E-03  0.51560922E-03
 -0.83868022E-03 -0.26076325E-02  0.17713188E-03
 -0.91603564E-03  0.20761151E-02 -0.61150972E-03
 -0.45216923E-03  0.28929880E-02 -0.56046581E-03
  0.91752413E-03  0.36867061E-02 -0.15033031E-02
 -0.15228946E-02 -0.94896304E-03  0.18647878E-02
 -0.27839562E-02 -0.11946724E-02 -0.18095522E-02
 -0.10633059E-02  0.15074913E-02 -0.65038880E-03
 -0.51534274E-03 -0.56788039E-03 -0.39053801E-02
  0.11265906E-02 -0.14842412E-02 -0.19787561E-03
  0.96814083E-03 -0.26530508E-03  0.33835321E-02
  0.65959960E-03  0.36743316E-03 -0.43782904E-02
  0.13777893E-02  0.17351679E-02  0.30910392E-02
 -0.45825252E-02 -0.54931206E-02 -0.10337467E-02
 -0.81989779E-03 -0.23118927E-03  0.10528214E-02
 -0.11384918E-02  0.12624103E-02  0.77865763E-04
 -0.13403347E-02  0.20149729E-02 -0.17731007E-02
  0.15537904E-02  0.69214480E-03  0.84346494E-03
 -0.18406828E-02  0.78962187E-04  0.31294076E-02
 -0.31002453E-03 -0.12509999E-02  0.31513331E-02
 -0.90813106E-03 -0.25119656E-03  0.16041385E-02
 -0.38166042E-03  0.76664886E-03 -0.27631034E-02
 -0.17628882E-02  0.14946681E-02  0.82215491E-03
  0.21718353E-02 -0.38607762E-02  0.31099064E-02
 -0.14566987E-02  0.24799028E-03  0.20705164E-03
 -0.84308651E-03  0.22305044E-02  0.26436364E-03
 -0.39985416E-03  0.18384243E-03 -0.16285027E-02
  0.12472178E-02 -0.10314198E-03 -0.15557313E-02
 -0.52756334E-03 -0.10328267E-02  0.26885271E-03
  0.36320401E-02  0.13164013E-02 -0.71436287E-03
  0.94286348E-03  0.39602750E-02 -0.85387154E-03
  0.11074046E-03 -0.13505731E-02  0.31836107E-03
 -0.21381297E-02 -0.15020470E-02 -0.73044336E-03
 -0.31052074E-05  0.16471734E-02  0.22738576E-03
 -0.25165616E-02 -0.29423799E-02 -0.13247904E-02
 -0.45162722E-02  0.27291536E-02  0.41028547E-02
  0.28395314E-03  0.66572380E-02  0.10386152E-02
  0.38131005E-02  0.86508925E-02 -0.21623973E-02
  0.56033008E-02  0.36496707E-02  0.18037511E-02
  0.17583044E-02 -0.12114241E-03  0.54548002E-03
  0.71921590E-03 -0.40161979E-02 -0.43388864E-02
  0.10141491E-02  0.17477612E-02  0.39425471E-03
 -0.23071263E-02  0.55556697E-02 -0.96590537E-02
  0.36872985E-02  0.20736266E-02  0.55308318E-02
  0.43005959E-02 -0.55237451E-02 -0.72523185E-02
 -0.33239316E-03  0.18272630E-04 -0.75766919E-02
 -0.83868945E-03 -0.76400131E-02  0.66570839E-02
  0.24978414E-02 -0.94516644E-03 -0.60829459E-02
  0.22705281E-02 -0.98220090E-02  0.31104798E-02
 -0.60917738E-02  0.36200583E-02 -0.23115845E-02
 -0.29413152E-02  0.24547933E-02 -0.11641448E-02
 -0.24470275E-02  0.69843628E-02  0.10394100E-02
 -0.36594563E-02 -0.19589333E-02 -0.56111069E-02
  0.41825219E-02 -0.48129056E-02 -0.46339045E-02
  0.78171470E-02 -0.25536150E-02 -0.68487626E-02
  0.34689996E-02 -0.33442040E-02  0.10588933E-02
  0.15061528E-02 -0.71208718E-03 -0.88953971E-03
 -0.38489659E-03 -0.29008032E-02 -0.62990641E-02
  0.82385085E-02  0.50499923E-02 -0.54127320E-02
 -0.40684679E-02 -0.50128351E-02  0.62628997E-02
  0.73406014E-02  0.37486183E-02  0.65577077E-02
  0.82346306E-03  0.16629122E-02 -0.44774840E-02
 -0.29930869E-02 -0.11770388E-02  0.20103496E-02
  0.63620709E-02  0.36704199E-02 -0.29288601E-03
  0.43932062E-02 -0.12480452E-03  0.44847282E-02
 -0.13637435E-01  0.71212424E-02  0.62095278E-02
 -0.28772920E-01  0.23640719E-01 -0.32163035E-01
 -0.38011814E-01  0.49507601E-02 -0.13639960E-01
  0.23601939E-01 -0.30365299E-02  0.25769396E-01
 -0.24184792E-01  0.12920336E-01  0.14194456E-01
 -0.22584390E-01 -0.10163676E-01 -0.14339845E-01
  0.53494535E-02  0.21310100E-01  0.18735059E-01
  0.10075436E-01  0.14081518E-01 -0.13430866E-01
  0.13523970E-01 -0.46294317E-02  0.18777237E-01
  0.16790426E-01 -0.61732983E-02  0.57473334E-02
  0.74051696E-02  0.27201605E-01 -0.22318616E-01
  0.25883441E-01 -0.77550057E-02 -0.16212395E-01
  0.10491432E-01  0.14925515E-01 -0.78520725E-02
  0.78075015E-02  0.25813832E-01  0.17047279E-02
  0.12876068E-01  0.97559013E-03  0.20534690E-01
  0.10661554E-01  0.28746523E-01  0.81282191E-02
  0.39128553E-02 -0.27136473E-01  0.93663925E-02
  0.33032236E-01  0.11530916E-01  0.15822449E-01
 -0.27934405E-02  0.99398663E-03 -0.30380681E-01
 -0.16005735E-01  0.12735493E-01  0.97252913E-02
 -0.79531267E-02 -0.36648331E-02 -0.93244631E-02
 -0.15366540E-01 -0.21568894E-01  0.16307968E-01
 -0.52998130E-02 -0.87585586E-02 -0.12229773E-01
  0.26178104E-02 -0.82391394E-02  0.31810164E-01
 -0.19405252E-01  0.40989736E-02 -0.15798300E-01
 -0.34517012E-01  0.19623516E-01  0.14941772E-01
 -0.30522945E-01  0.83263420E-02 -0.17413116E-01
  0.11365929E-01  0.13999181E-01 -0.22681456E-02
  0.16003917E-02  0.55489031E-02 -0.89860126E-02
 -0.23910343E-02 -0.44327688E-02  0.13798873E-01
 -0.65517510E-02  0.14340265E-01 -0.36992305E-02
 -0.32974604E-01  0.25774953E-01 -0.15100993E-01
  0.57526557E-02 -0.10283391E-01  0.14392954E-02
 -0.13242987E-03  0.53662705E-02  0.12971380E-01
  0.28647362E-01  0.11103889E-01  0.39444377E-01
  0.18696515E-01  0.26974550E-02  0.44332862E-02
  0.97321479E-02 -0.23119313E-01  0.24825439E-01
 -0.16564808E-01 -0.10110008E-01 -0.50395553E-02
 -0.17796619E-01  0.74917557E-02 -0.18826216E-01
  0.23848188E-01  0.20130098E-02 -0.13622179E-01
  0.10007365E-01 -0.15452055E-01  0.47757885E-02
 -0.44686426E-02 -0.21744406E-01  0.48346000E-02
 -0.37378279E-01 -0.18618970E-01 -0.11150983E-01
  0.97947295E-03  0.42559023E-02 -0.12810937E-01
 -0.82295245E-02 -0.24411995E-01  0.17705576E-02
  0.21424153E-01 -0.10829530E-01 -0.46743863E-02
 -0.48228725E-02 -0.14873778E-01  0.21848778E-01
  0.52536368E-02 -0.42253756E-02 -0.90313078E-02
  0.13691146E-01 -0.23924302E-01  0.46024379E-02
  0.45536302E-02  0.15512442E-01  0.56906626E-03
 -0.92962484E-02  0.18516076E-01 -0.12628509E-01
 -0.23465621E-01 -0.19194004E-01 -0.86752409E-02
 -0.56743581E-02 -0.24447880E-02 -0.19996010E-01
  0.93902053E-02  0.23074624E-01  0.60784925E-02
  0.16784709E-01 -0.33160228E-01 -0.35200761E-01
  0.16712217E-01 -0.72321806E-02 -0.29091660E-02
 -0.12430382E-01  0.45799940E-02 -0.55365284E-02
 -0.18496012E-01  0.29475778E-01 -0.11746160E-01
  0.16800092E-01  0.12427466E-01 -0.12301135E-01
 -0.16202066E-01 -0.58940541E-02  0.39690169E-02
 -0.53052725E-02  0.68002167E-02  0.16073519E-02
  0.72069134E-02 -0.44239076E-02  0.50398553E-02
  0.49897338E-03  0.13159138E-02  0.86341986E-02
 
           1
   1.00000000000000     
  0.17253323E+00 -0.25981488E-02 -0.40248138E-02  0.17584471E+00
  0.40238681E+00  0.98534792E-01  0.11759073E+00
  0.90955144E+00  0.58733076E+00  0.11207405E+00
  0.66619565E+00  0.35096566E+00  0.11590636E+00
  0.14929471E+00  0.85053043E+00  0.11513203E+00
  0.15126777E+00  0.59918830E+00  0.11368559E+00
  0.42214960E+00  0.36525311E+00  0.11366370E+00
  0.16609562E+00  0.11922249E+00  0.11190747E+00
  0.38785710E+00  0.84708941E+00  0.11734976E+00
  0.90198939E+00  0.32844040E+00  0.11559971E+00
  0.16172205E+00  0.34983532E+00  0.11510523E+00
  0.64595483E+00  0.81860941E-01  0.11531595E+00
  0.65066972E+00  0.83649464E+00  0.11954263E+00
  0.66077762E+00  0.59190618E+00  0.11635924E+00
  0.40574242E+00  0.60450036E+00  0.11541629E+00
  0.91021352E+00  0.84189837E+00  0.11722586E+00
  0.90657670E+00  0.83193432E-01  0.11501752E+00
  0.31165701E+00  0.18503813E+00  0.18375380E+00
  0.82735376E+00  0.41839451E+00  0.18037876E+00
  0.70653369E-01  0.67524990E+00  0.17825368E+00
  0.30787217E+00  0.92834367E+00  0.18117820E+00
  0.57172047E+00  0.17738953E+00  0.17928278E+00
  0.56907980E+00  0.42468231E+00  0.18034391E+00
  0.83953584E-01  0.43856315E+00  0.18010081E+00
  0.82676967E+00  0.66966981E+00  0.17805475E+00
  0.67185078E-01  0.94396508E+00  0.18180140E+00
  0.32601900E+00  0.43721500E+00  0.18422271E+00
  0.31978984E+00  0.68183087E+00  0.18372895E+00
  0.72320350E-01  0.19113496E+00  0.17944582E+00
  0.57825171E+00  0.93190971E+00  0.18463278E+00
  0.82443927E+00  0.17601476E+00  0.18184842E+00
  0.58223065E+00  0.68114185E+00  0.18238757E+00
  0.81269701E+00  0.91663981E+00  0.18371317E+00
  0.47973887E+00  0.25887275E+00  0.24471009E+00
  0.23546470E+00  0.45895579E-02  0.25338007E+00
  0.99474512E+00  0.76960284E+00  0.24415662E+00
  0.49113264E+00  0.14516143E-01  0.24678223E+00
  0.99244757E+00  0.51200347E+00  0.24805327E+00
  0.74457310E+00  0.52150769E+00  0.24523291E+00
  0.24980944E+00  0.76693110E+00  0.24818920E+00
  0.73886627E+00  0.26993814E+00  0.24494992E+00
  0.23515768E+00  0.27736930E+00  0.25109476E+00
  0.23935568E+00  0.51150547E+00  0.25625193E+00
  0.97939711E+00  0.27071667E+00  0.24562533E+00
  0.50180810E+00  0.52571159E+00  0.24973732E+00
  0.49997113E+00  0.76773834E+00  0.24681818E+00
  0.97728532E+00  0.21846711E-01  0.24721202E+00
  0.73171523E+00  0.28822495E-01  0.25895256E+00
  0.73979431E+00  0.76486333E+00  0.24857371E+00
  0.48850194E+00  0.27751436E+00  0.47588398E-01
  0.23260274E+00  0.18708496E-01  0.46077526E-01
  0.98083344E+00  0.75551588E+00  0.52354842E-01
  0.47438777E+00  0.15443425E-01  0.48934869E-01
  0.98034909E+00  0.50951988E+00  0.48050674E-01
  0.74041173E+00  0.50913999E+00  0.45656702E-01
  0.22845042E+00  0.76071716E+00  0.46397739E-01
  0.72584755E+00  0.24275591E+00  0.47705124E-01
  0.23553340E+00  0.27439716E+00  0.46832830E-01
  0.23982496E+00  0.52113833E+00  0.52965277E-01
  0.99154881E+00  0.26327781E+00  0.45854096E-01
  0.47814432E+00  0.52310073E+00  0.45462911E-01
  0.49149288E+00  0.78070494E+00  0.53002887E-01
  0.98512512E+00  0.69723830E-02  0.47945134E-01
  0.73413797E+00  0.99433698E-02  0.50102738E-01
  0.72279643E+00  0.75354174E+00  0.46848610E-01
  0.70316486E+00  0.95724784E+00  0.32083481E+00
  0.57498844E+00  0.37102324E+00  0.47799053E+00
  0.33089619E+00  0.19299386E-01  0.32154523E+00
  0.85434436E+00  0.50148309E+00  0.40374893E+00
  0.24175677E+00  0.66731912E-01  0.60493442E+00
  0.94707196E+00  0.39539729E+00  0.33244403E+00
  0.16471668E+00  0.78872658E+00  0.37337313E+00
  0.90472284E+00  0.72612278E+00  0.58146837E+00
  0.24648534E+00  0.13873242E+00  0.46770075E+00
  0.29344034E+00  0.40457306E+00  0.41236592E+00
  0.50986045E+00  0.82561265E+00  0.58326557E+00
  0.75949077E+00  0.87513106E-01  0.44332046E+00
  0.93306720E-02  0.38062651E+00  0.46460348E+00
  0.39344013E-01  0.88149175E+00  0.44022267E+00
  0.44683302E+00  0.37978936E+00  0.58972156E+00
  0.74269751E+00  0.76109994E+00  0.65574640E+00
  0.78711593E-01  0.14502495E+00  0.54224635E+00
  0.97178022E+00  0.95589720E+00  0.34120780E+00
  0.78137847E+00  0.92757890E+00  0.52956264E+00
  0.37096641E+00  0.80317193E+00  0.44078869E+00
  0.29771849E+00  0.88824167E+00  0.54987044E+00
  0.54859576E+00  0.34211148E+00  0.33404776E+00
  0.74583071E+00  0.81345310E+00  0.42397032E+00
  0.98670928E+00  0.18611720E+00  0.37651548E+00
  0.38600496E+00  0.54356260E+00  0.54549830E+00
  0.79305974E+00  0.64248577E+00  0.33499285E+00
  0.57828691E+00  0.16977988E+00  0.41003968E+00
  0.50172046E+00  0.57584209E+00  0.46659171E+00
  0.72024390E+00  0.41855222E+00  0.55945931E+00
  0.96010683E-01  0.55976263E+00  0.54264463E+00
  0.75841931E+00  0.90364073E+00  0.32931500E+00
  0.60544966E+00  0.89589279E+00  0.33654719E+00
  0.47139961E+00  0.30684416E+00  0.48647064E+00
  0.57717396E+00  0.47534208E+00  0.47421831E+00
  0.25886344E+00  0.93841069E+00  0.34508941E+00
  0.39154068E+00  0.12320069E+00  0.33409151E+00
  0.82493349E+00  0.55963298E+00  0.38338076E+00
  0.75525578E+00  0.41954749E+00  0.41678388E+00
  0.15009764E+00  0.99113530E+00  0.61959305E+00
  0.27575693E+00  0.31395220E-02  0.58773164E+00
  0.94983218E+00  0.46433963E+00  0.35615773E+00
  0.83366859E+00  0.34709713E+00  0.32228416E+00
  0.24010423E+00  0.77085995E+00  0.39023782E+00
  0.12241666E+00  0.83562012E+00  0.39060775E+00
  0.86652080E+00  0.78256837E+00  0.56347327E+00
  0.86458073E+00  0.72860689E+00  0.61073158E+00
  0.24034477E+00  0.21450839E+00  0.44865120E+00
  0.18389284E+00  0.33347195E-01  0.45184322E+00
  0.18634577E+00  0.37264432E+00  0.42191917E+00
  0.28836488E+00  0.36319172E+00  0.38040450E+00
  0.60616970E+00  0.88738505E+00  0.56719193E+00
  0.45361933E+00  0.72154302E+00  0.57162013E+00
  0.69424270E+00  0.11165012E+00  0.42482233E+00
  0.80882103E+00  0.17229968E+00  0.46362121E+00
  0.30333636E-01  0.42969457E+00  0.49440457E+00
  0.98839213E+00  0.45319365E+00  0.44842912E+00
  0.12161757E-01  0.78146303E+00  0.45283815E+00
  0.94355639E+00  0.86923565E+00  0.42704337E+00
  0.53426601E+00  0.37056188E+00  0.57775164E+00
  0.35949489E+00  0.27155690E+00  0.59594571E+00
  0.68557852E+00  0.78686041E+00  0.63566974E+00
  0.66691225E+00  0.67493854E+00  0.67109681E+00
  0.12419187E+00  0.12838862E+00  0.51637874E+00
  0.12349180E+00  0.12363280E+00  0.56849800E+00
  0.58741880E-01  0.96749630E+00  0.32605290E+00
  0.99025556E+00  0.57416592E-01  0.35509509E+00
  0.76312573E+00  0.90453111E+00  0.49900017E+00
  0.88850373E+00  0.88140300E-02  0.53602089E+00
  0.40891479E+00  0.73218140E+00  0.43770869E+00
  0.45138611E+00  0.90105149E+00  0.42875339E+00
  0.34810133E+00  0.96361058E+00  0.52530570E+00
  0.38191703E+00  0.86866049E+00  0.56225042E+00
  0.43642121E+00  0.31802911E+00  0.33019101E+00
  0.61308587E+00  0.45188955E+00  0.33997402E+00
  0.68352033E+00  0.72367500E+00  0.44277371E+00
  0.72190723E+00  0.89563818E+00  0.42863127E+00
  0.92643055E+00  0.16123018E+00  0.40462260E+00
  0.97648213E+00  0.26670869E+00  0.35961993E+00
  0.39883504E+00  0.45530933E+00  0.56291114E+00
  0.27486984E+00  0.51024255E+00  0.54674290E+00
  0.84564330E+00  0.75549519E+00  0.34399271E+00
  0.85983504E+00  0.63482560E+00  0.31225741E+00
  0.56619328E+00  0.22222060E+00  0.38455839E+00
  0.56444847E+00  0.21710138E+00  0.43621552E+00
  0.43969149E+00  0.57043095E+00  0.49277596E+00
  0.42983759E+00  0.51513726E+00  0.44228292E+00
  0.69034714E+00  0.42341715E+00  0.52892524E+00
  0.79266359E+00  0.52091311E+00  0.56870495E+00
  0.12807479E-01  0.54205248E+00  0.56346659E+00
  0.15200361E+00  0.67265664E+00  0.54064532E+00
  0.40128473E+00  0.59358321E+00  0.32770609E+00
  0.44217782E+00  0.71206624E+00  0.34528449E+00
  0.34811067E+00  0.47143854E+00  0.31275263E+00
  0.29389759E+00  0.31962792E+00  0.32298586E+00
  0.00000000E+00  0.00000000E+00  0.00000000E+00
  0.00000000E+00  0.00000000E+00  0.00000000E+00
  0.00000000E+00  0.00000000E+00  0.00000000E+00
  0.00000000E+00  0.00000000E+00  0.00000000E+00
  0.00000000E+00  0.00000000E+00  0.00000000E+00
  0.00000000E+00  0.00000000E+00  0.00000000E+00
  0.00000000E+00  0.00000000E+00  0.00000000E+00
  0.00000000E+00  0.00000000E+00  0.00000000E+00
  0.00000000E+00  0.00000000E+00  0.00000000E+00
  0.00000000E+00  0.00000000E+00  0.00000000E+00
  0.00000000E+00  0.00000000E+00  0.00000000E+00
  0.00000000E+00  0.00000000E+00  0.00000000E+00
  0.00000000E+00  0.00000000E+00  0.00000000E+00
  0.00000000E+00  0.00000000E+00  0.00000000E+00
  0.00000000E+00  0.00000000E+00  0.00000000E+00
  0.00000000E+00  0.00000000E+00  0.00000000E+00
  0.00000000E+00  0.00000000E+00  0.00000000E+00
  0.00000000E+00  0.00000000E+00  0.00000000E+00
  0.00000000E+00  0.00000000E+00  0.00000000E+00
  0.00000000E+00  0.00000000E+00  0.00000000E+00
  0.00000000E+00  0.00000000E+00  0.00000000E+00
  0.00000000E+00  0.00000000E+00  0.00000000E+00
  0.00000000E+00  0.00000000E+00  0.00000000E+00
  0.00000000E+00  0.00000000E+00  0.00000000E+00
  0.00000000E+00  0.00000000E+00  0.00000000E+00
  0.00000000E+00  0.00000000E+00  0.00000000E+00
  0.00000000E+00  0.00000000E+00  0.00000000E+00
  0.00000000E+00  0.00000000E+00  0.00000000E+00
  0.00000000E+00  0.00000000E+00  0.00000000E+00
  0.00000000E+00  0.00000000E+00  0.00000000E+00
  0.00000000E+00  0.00000000E+00  0.00000000E+00
  0.00000000E+00  0.00000000E+00  0.00000000E+00
  0.00000000E+00  0.00000000E+00  0.00000000E+00
  0.00000000E+00  0.00000000E+00  0.00000000E+00
  0.00000000E+00  0.00000000E+00  0.00000000E+00
  0.00000000E+00  0.00000000E+00  0.00000000E+00
  0.00000000E+00  0.00000000E+00  0.00000000E+00
  0.00000000E+00  0.00000000E+00  0.00000000E+00
  0.00000000E+00  0.00000000E+00  0.00000000E+00
  0.00000000E+00  0.00000000E+00  0.00000000E+00
  0.00000000E+00  0.00000000E+00  0.00000000E+00
  0.00000000E+00  0.00000000E+00  0.00000000E+00
  0.00000000E+00  0.00000000E+00  0.00000000E+00
  0.00000000E+00  0.00000000E+00  0.00000000E+00
  0.00000000E+00  0.00000000E+00  0.00000000E+00
  0.00000000E+00  0.00000000E+00  0.00000000E+00
  0.00000000E+00  0.00000000E+00  0.00000000E+00
  0.00000000E+00  0.00000000E+00  0.00000000E+00
  0.00000000E+00  0.00000000E+00  0.00000000E+00
  0.00000000E+00  0.00000000E+00  0.00000000E+00
  0.00000000E+00  0.00000000E+00  0.00000000E+00
  0.00000000E+00  0.00000000E+00  0.00000000E+00
  0.00000000E+00  0.00000000E+00  0.00000000E+00
  0.00000000E+00  0.00000000E+00  0.00000000E+00
  0.00000000E+00  0.00000000E+00  0.00000000E+00
  0.00000000E+00  0.00000000E+00  0.00000000E+00
  0.00000000E+00  0.00000000E+00  0.00000000E+00
  0.00000000E+00  0.00000000E+00  0.00000000E+00
  0.00000000E+00  0.00000000E+00  0.00000000E+00
  0.00000000E+00  0.00000000E+00  0.00000000E+00
  0.00000000E+00  0.00000000E+00  0.00000000E+00
  0.00000000E+00  0.00000000E+00  0.00000000E+00
  0.00000000E+00  0.00000000E+00  0.00000000E+00
  0.00000000E+00  0.00000000E+00  0.00000000E+00
  0.00000000E+00  0.00000000E+00  0.00000000E+00
  0.00000000E+00  0.00000000E+00  0.00000000E+00
  0.00000000E+00  0.00000000E+00  0.00000000E+00
  0.00000000E+00  0.00000000E+00  0.00000000E+00
  0.00000000E+00  0.00000000E+00  0.00000000E+00
  0.00000000E+00  0.00000000E+00  0.00000000E+00
  0.00000000E+00  0.00000000E+00  0.00000000E+00
  0.00000000E+00  0.00000000E+00  0.00000000E+00
  0.00000000E+00  0.00000000E+00  0.00000000E+00
  0.00000000E+00  0.00000000E+00  0.00000000E+00
  0.00000000E+00  0.00000000E+00  0.00000000E+00
  0.00000000E+00  0.00000000E+00  0.00000000E+00
  0.00000000E+00  0.00000000E+00  0.00000000E+00
  0.00000000E+00  0.00000000E+00  0.00000000E+00
  0.00000000E+00  0.00000000E+00  0.00000000E+00
  0.00000000E+00  0.00000000E+00  0.00000000E+00
  0.00000000E+00  0.00000000E+00  0.00000000E+00
  0.00000000E+00  0.00000000E+00  0.00000000E+00
  0.00000000E+00  0.00000000E+00  0.00000000E+00
  0.00000000E+00  0.00000000E+00  0.00000000E+00
  0.00000000E+00  0.00000000E+00  0.00000000E+00
  0.00000000E+00  0.00000000E+00  0.00000000E+00
  0.00000000E+00  0.00000000E+00  0.00000000E+00
  0.00000000E+00  0.00000000E+00  0.00000000E+00
  0.00000000E+00  0.00000000E+00  0.00000000E+00
  0.00000000E+00  0.00000000E+00  0.00000000E+00