Ni_COCO
   1.00000000000000     
     9.8291997910000006    0.0000000000000000    0.0000000000000000
     4.9145998955000003    8.5123367178000002    0.0000000000000000
     0.0000000000000000    0.0000000000000000   30.7147998810000011
   Ni   C    O 
    64     2     2
Selective dynamics
Direct
      0.0804887084973463      0.0833917098520766      0.1185865714585961   F F F
      0.3300994169563023      0.0833085311875907      0.1186263019989559   F F F
      0.3305657006088470      0.8337996745743314      0.1182881036240991   F F F
      0.5804018456911415      0.3333088179886629      0.1183295391560632   F F F
      0.3306348291483480      0.5835900398762138      0.1182575032192887   F F F
      0.3299302333621156      0.3335774419748531      0.1182009384836863   F F F
      0.8304003953281214      0.0834906764897173      0.1185004232821650   F F F
      0.5803899375247235      0.0832268554149810      0.1182617380647785   F F F
      0.8308794216257663      0.3334225515463252      0.1184744678228799   F F F
      0.5807482090174959      0.5837474624240492      0.1183451910352382   F F F
      0.0803608687392625      0.8337205440193520      0.1183522273166688   F F F
      0.5804170605618324      0.8335601738576062      0.1183033141649297   F F F
      0.0800185923573659      0.3335036895826260      0.1183991406306866   F F F
      0.8303083888574911      0.5833703138680570      0.1184066108080208   F F F
      0.0801826764734448      0.5834571615442984      0.1183528677135673   F F F
      0.8300585412122286      0.8336820885607479      0.1181935066527714   F F F
      0.1630521631604673      0.1655796094582810      0.1837759683099005   F F F
      0.1635511198927321      0.9160886610108576      0.1836107132777127   F F F
      0.4133405842892788      0.1660308920346074      0.1832972786835894   F F F
      0.4125289331707828      0.9159234182268804      0.1838721056177300   F F F
      0.4140416468697771      0.4160436542766357      0.1834826083077994   F F F
      0.4141268383529925      0.6657312512527800      0.1833842962405448   F F F
      0.9130243194091336      0.1662738482603015      0.1839630828753357   F F F
      0.6639342081059527      0.1663990065453105      0.1834838473678329   F F F
      0.6641424053510905      0.4156578260222593      0.1832504792118449   F F F
      0.1637345138358604      0.6662578113135150      0.1832455191730647   F F F
      0.9131507511359114      0.4147615221458820      0.1840931126445044   F F F
      0.6637719435734484      0.6649446013106283      0.1838058488323084   F F F
      0.9135895925154669      0.9167214852132375      0.1835719521388758   F F F
      0.6635002620890461      0.9158505621764248      0.1834694876556571   F F F
      0.1630772106113391      0.4157496276884022      0.1834010614597514   F F F
      0.9131208471928712      0.6656625300319167      0.1834435419347981   F F F
      0.2472969926792682     -0.0014751563651596      0.2514943531795358   T T T
      0.4957501635216636      0.2472078164769024      0.2484635779106433   T T T
      0.4959916730327920      0.4994240508184760      0.2507243827285067   T T T
      0.2486175256503332      0.2506840392128065      0.2486371703725245   T T T
      0.9998445931255991      0.2472799048222061      0.2513297987172178   T T T
      0.7445856325599910      0.2496444230968680      0.2507011248378619   T T T
      0.4955515802291922      0.7518009439964664      0.2485769790389876   T T T
      0.2488475379760616      0.7453584111891741      0.2485285155347556   T T T
      0.4970133916966156     -0.0011800611389731      0.2487806160282590   T T T
      0.9971768818254616     -0.0022187514334535      0.2509914449307086   T T T
      0.2464599035436315      0.4992769758815565      0.2486253899429542   T T T
      0.7470618838694894      0.4991249766084576      0.2510074525438833   T T T
      0.7476958590620042     -0.0015238061237832      0.2486574088170799   T T T
      0.9971736041726754      0.7487089698677933      0.2485888577624081   T T T
      0.7473456895617642      0.7488196796963006      0.2487766221382256   T T T
      0.9966923106145633      0.4989402614077924      0.2488519949279656   T T T
      0.2488099899999980      0.0018900000000031      0.0530725899999993   F F F
      0.4986599900000002      0.2520299800000032      0.0530725899999993   F F F
      0.4987100700000013      0.5019500100000016      0.0530725899999993   F F F
      0.2486699900000033      0.2519600099999977      0.0530725899999993   F F F
      0.9988300199999998      0.2520000100000033      0.0530725899999993   F F F
      0.7487000499999965      0.2521199999999979      0.0530725899999993   F F F
      0.4986899700000009      0.7520999700000033      0.0530725899999993   F F F
      0.2487699599999971      0.7521200300000004      0.0530725899999993   F F F
      0.4985999800000016      0.0021100000000018      0.0530725899999993   F F F
      0.9987700300000029      0.0022099999999980      0.0530725899999993   F F F
      0.2487500100000020      0.5021200300000004      0.0530725899999993   F F F
      0.7486699900000033      0.5022699800000012      0.0530725899999993   F F F
      0.7485900000000001      0.0024500000000032      0.0530725899999993   F F F
      0.9987000499999965      0.7524499700000007      0.0530725899999993   F F F
      0.7486699299999984      0.7524300299999993      0.0530725899999993   F F F
      0.9986899600000001      0.5022000199999965      0.0530725899999993   F F F
      0.6613810959516151      0.4164971868478613      0.2940344273698211   T T T
      0.0811992232342451      0.0793780072361226      0.2946082082754833   T T T
      0.6608009195191206      0.4158604722222367      0.3328569895067178   T T T
      0.0781338536106336      0.0799868307616071      0.3334083210811426   T T T
 
  0.00000000E+00  0.00000000E+00  0.00000000E+00
  0.00000000E+00  0.00000000E+00  0.00000000E+00
  0.00000000E+00  0.00000000E+00  0.00000000E+00
  0.00000000E+00  0.00000000E+00  0.00000000E+00
  0.00000000E+00  0.00000000E+00  0.00000000E+00
  0.00000000E+00  0.00000000E+00  0.00000000E+00
  0.00000000E+00  0.00000000E+00  0.00000000E+00
  0.00000000E+00  0.00000000E+00  0.00000000E+00
  0.00000000E+00  0.00000000E+00  0.00000000E+00
  0.00000000E+00  0.00000000E+00  0.00000000E+00
  0.00000000E+00  0.00000000E+00  0.00000000E+00
  0.00000000E+00  0.00000000E+00  0.00000000E+00
  0.00000000E+00  0.00000000E+00  0.00000000E+00
  0.00000000E+00  0.00000000E+00  0.00000000E+00
  0.00000000E+00  0.00000000E+00  0.00000000E+00
  0.00000000E+00  0.00000000E+00  0.00000000E+00
  0.00000000E+00  0.00000000E+00  0.00000000E+00
  0.00000000E+00  0.00000000E+00  0.00000000E+00
  0.00000000E+00  0.00000000E+00  0.00000000E+00
  0.00000000E+00  0.00000000E+00  0.00000000E+00
  0.00000000E+00  0.00000000E+00  0.00000000E+00
  0.00000000E+00  0.00000000E+00  0.00000000E+00
  0.00000000E+00  0.00000000E+00  0.00000000E+00
  0.00000000E+00  0.00000000E+00  0.00000000E+00
  0.00000000E+00  0.00000000E+00  0.00000000E+00
  0.00000000E+00  0.00000000E+00  0.00000000E+00
  0.00000000E+00  0.00000000E+00  0.00000000E+00
  0.00000000E+00  0.00000000E+00  0.00000000E+00
  0.00000000E+00  0.00000000E+00  0.00000000E+00
  0.00000000E+00  0.00000000E+00  0.00000000E+00
  0.00000000E+00  0.00000000E+00  0.00000000E+00
  0.00000000E+00  0.00000000E+00  0.00000000E+00
  0.00000000E+00  0.00000000E+00  0.00000000E+00
  0.00000000E+00  0.00000000E+00  0.00000000E+00
  0.00000000E+00  0.00000000E+00  0.00000000E+00
  0.00000000E+00  0.00000000E+00  0.00000000E+00
  0.00000000E+00  0.00000000E+00  0.00000000E+00
  0.00000000E+00  0.00000000E+00  0.00000000E+00
  0.00000000E+00  0.00000000E+00  0.00000000E+00
  0.00000000E+00  0.00000000E+00  0.00000000E+00
  0.00000000E+00  0.00000000E+00  0.00000000E+00
  0.00000000E+00  0.00000000E+00  0.00000000E+00
  0.00000000E+00  0.00000000E+00  0.00000000E+00
  0.00000000E+00  0.00000000E+00  0.00000000E+00
  0.00000000E+00  0.00000000E+00  0.00000000E+00
  0.00000000E+00  0.00000000E+00  0.00000000E+00
  0.00000000E+00  0.00000000E+00  0.00000000E+00
  0.00000000E+00  0.00000000E+00  0.00000000E+00
  0.00000000E+00  0.00000000E+00  0.00000000E+00
  0.00000000E+00  0.00000000E+00  0.00000000E+00
  0.00000000E+00  0.00000000E+00  0.00000000E+00
  0.00000000E+00  0.00000000E+00  0.00000000E+00
  0.00000000E+00  0.00000000E+00  0.00000000E+00
  0.00000000E+00  0.00000000E+00  0.00000000E+00
  0.00000000E+00  0.00000000E+00  0.00000000E+00
  0.00000000E+00  0.00000000E+00  0.00000000E+00
  0.00000000E+00  0.00000000E+00  0.00000000E+00
  0.00000000E+00  0.00000000E+00  0.00000000E+00
  0.00000000E+00  0.00000000E+00  0.00000000E+00
  0.00000000E+00  0.00000000E+00  0.00000000E+00
  0.00000000E+00  0.00000000E+00  0.00000000E+00
  0.00000000E+00  0.00000000E+00  0.00000000E+00
  0.00000000E+00  0.00000000E+00  0.00000000E+00
  0.00000000E+00  0.00000000E+00  0.00000000E+00
  0.00000000E+00  0.00000000E+00  0.00000000E+00
  0.00000000E+00  0.00000000E+00  0.00000000E+00
  0.00000000E+00  0.00000000E+00  0.00000000E+00
  0.00000000E+00  0.00000000E+00  0.00000000E+00
