Ni_Pol_CO2COH
   1.00000000000000     
     9.8291997910000006    0.0000000000000000    0.0000000000000000
     4.9145998955000003    8.5123367178000002    0.0000000000000000
     0.0000000000000000    0.0000000000000000   19.0128002167000005
   Ni   O    C    O    C    O    H 
    64     3     1     2     1     1     1
Selective dynamics
Direct
  0.8362740435047339  0.5830418136634784  0.2717383712083314   T   T   T
  0.3357387568716764  0.0829818487196493  0.2699847967007967   T   T   T
  0.8362480399156825  0.0828938688315017  0.2711382892153912   T   T   T
  0.3352278168653074  0.5830116117808494  0.2700832833455212   T   T   T
  0.5865202841128586  0.8332346571270355  0.2702751626020761   T   T   T
  0.8363071933867356  0.8326091491303677  0.2711422344202806   T   T   T
  0.0857345631891814  0.3330146698020497  0.2711222393432431   T   T   T
  0.8370671269911306  0.3318938460325925  0.2716793822897025   T   T   T
  0.5868374885481893  0.5820785615426450  0.2711246029250025   T   T   T
  0.0852413256491056  0.5829403100962969  0.2714850583093607   T   T   T
  0.0853090624939888  0.0834528059698272  0.2708355038616061   T   T   T
  0.5866650592076055  0.0827272154521733  0.2714408147137984   T   T   T
  0.3358338753427848  0.8336335123986595  0.2702889733337848   T   T   T
  0.0853099585352880  0.8331782859463537  0.2707996787813567   T   T   T
  0.3347047011167399  0.3328519314960844  0.2711923858806304   T   T   T
  0.5863201704702719  0.3321282911223704  0.2712489574437610   T   T   T
  0.9205085200991654  0.6643723921921373  0.3774473371944665   T   T   T
  0.9192718113014392  0.4169352001526703  0.3766892683156121   T   T   T
  0.6699149463113451  0.6664322565470954  0.3752221964603003   T   T   T
  0.1703337406240073  0.1660856167221602  0.3758187083553657   T   T   T
  0.9208095636369256  0.1661856416056441  0.3787049945328732   T   T   T
  0.9203501489536521  0.9167362315366711  0.3762627356229341   T   T   T
  0.4197995343767388  0.9172358629891866  0.3749504580437814   T   T   T
  0.4201433977577183  0.1659332363308723  0.3755661779254266   T   T   T
  0.6721083766843751  0.1666971438830289  0.3773489520390088   T   T   T
  0.1700435196896180  0.6664537534492041  0.3761410571864974   T   T   T
  0.4188625757584378  0.6676446556764450  0.3740410227999708   T   T   T
  0.4190051745075488  0.4158065007251970  0.3743801479410250   T   T   T
  0.6707256835489845  0.9171159956225526  0.3774580202179693   T   T   T
  0.1690372402292831  0.4167583979588654  0.3789092596958062   T   T   T
  0.6715128594465918  0.4136004372920303  0.3775023517285193   T   T   T
  0.1700195429019951  0.9164485808017776  0.3782268060330310   T   T   T
  0.0058515312351462  0.2512889605316115  0.4809353578754254   T   T   T
  0.5057450326099787  0.2506557399649459  0.4792964037020830   T   T   T
  0.0008901353655396  0.7460380209072456  0.4804341569939268   T   T   T
  0.5057430118622206  0.7503894728505195  0.4785087789577210   T   T   T
  0.7521916277011502  0.7510678957172356  0.4806365509159221   T   T   T
 -0.0016671382521741  0.5011453681942717  0.4872638776672814   T   T   T
  0.7426985154102326  0.5065526553384143  0.4836630721689443   T   T   T
  0.2545290181532124 -0.0041864050274420  0.4848577988430606   T   T   T
  0.0079067224791376  0.9966658055260676  0.4857500754866539   T   T   T
  0.5101800730333874 -0.0032641273434057  0.4851695309248664   T   T   T
  0.2518862924821772  0.7527310052420645  0.4854317614034375   T   T   T
  0.7528755675114728  0.9997743482700816  0.4856754334322133   T   T   T
  0.2597108917450661  0.2495249311860544  0.4841563965893749   T   T   T
  0.7500246025517336  0.2640918540864084  0.5017497932154436   T   T   T
  0.2513369866754552  0.4989546907691043  0.4856942715752675   T   T   T
  0.4997059248356527  0.5021149790701054  0.4778605624141362   T   T   T
  0.9970724670000024  0.2558556729999992  0.1637003960000030   F   F   F
  0.4999617989999976  0.2500875830000027  0.1643123180000003   F   F   F
  0.9968841629999972  0.7476992069999966  0.1643590660000029   F   F   F
  0.5054474789999972  0.7476858750000019  0.1651548480000002   F   F   F
  0.7507219769999978  0.7486395119999969  0.1651830500000031   F   F   F
  0.9979410790000003  0.5014025589999989  0.1651978470000017   F   F   F
  0.7507272960000009  0.5014379059999996  0.1654730480000026   F   F   F
  0.2484077359999972  0.9989653640000000  0.1655050250000016   F   F   F
  0.0026835399999996  0.9989392600000002  0.1655775309999967   F   F   F
  0.5037179199999997  0.9979203070000011  0.1655856309999990   F   F   F
  0.2483221529999966  0.7533767729999994  0.1658259459999982   F   F   F
  0.7484137009999969  0.9978805350000002  0.1658943890000018   F   F   F
  0.2473094730000014  0.2543786680000011  0.1660089160000027   F   F   F
  0.7483561820000020  0.2543461500000035  0.1660180820000008   F   F   F
  0.2472921950000000  0.4989472700000022  0.1662971330000005   F   F   F
  0.5037960519999984  0.4989156760000029  0.1664085250000014   F   F   F
  0.3406610366887209  0.0789740194511529  0.5439122471679674   T   T   T
  0.8429658505370071  0.0731537231649741  0.5474089762519448   T   T   T
  0.3409096883253246  0.5812513357117161  0.5462303165139152   T   T   T
  0.8898336810944404  0.3753506651806861  0.6111327734032708   T   T   T
  0.0038626612274084  0.3656498349137337  0.5669973551797186   T   T   T
 -0.0887228571391231  0.3483185189248373  0.6733915943140817   T   T   T
  0.7342383998767742  0.4214535919279152  0.5735772349098019   T   T   T
  0.6191481305895270  0.4706161673378653  0.6208420569027006   T   T   T
  0.5134328989590804  0.5083908959053948  0.5985496476352328   T   T   T
 
  0.00000000E+00  0.00000000E+00  0.00000000E+00
  0.00000000E+00  0.00000000E+00  0.00000000E+00
  0.00000000E+00  0.00000000E+00  0.00000000E+00
  0.00000000E+00  0.00000000E+00  0.00000000E+00
  0.00000000E+00  0.00000000E+00  0.00000000E+00
  0.00000000E+00  0.00000000E+00  0.00000000E+00
  0.00000000E+00  0.00000000E+00  0.00000000E+00
  0.00000000E+00  0.00000000E+00  0.00000000E+00
  0.00000000E+00  0.00000000E+00  0.00000000E+00
  0.00000000E+00  0.00000000E+00  0.00000000E+00
  0.00000000E+00  0.00000000E+00  0.00000000E+00
  0.00000000E+00  0.00000000E+00  0.00000000E+00
  0.00000000E+00  0.00000000E+00  0.00000000E+00
  0.00000000E+00  0.00000000E+00  0.00000000E+00
  0.00000000E+00  0.00000000E+00  0.00000000E+00
  0.00000000E+00  0.00000000E+00  0.00000000E+00
  0.00000000E+00  0.00000000E+00  0.00000000E+00
  0.00000000E+00  0.00000000E+00  0.00000000E+00
  0.00000000E+00  0.00000000E+00  0.00000000E+00
  0.00000000E+00  0.00000000E+00  0.00000000E+00
  0.00000000E+00  0.00000000E+00  0.00000000E+00
  0.00000000E+00  0.00000000E+00  0.00000000E+00
  0.00000000E+00  0.00000000E+00  0.00000000E+00
  0.00000000E+00  0.00000000E+00  0.00000000E+00
  0.00000000E+00  0.00000000E+00  0.00000000E+00
  0.00000000E+00  0.00000000E+00  0.00000000E+00
  0.00000000E+00  0.00000000E+00  0.00000000E+00
  0.00000000E+00  0.00000000E+00  0.00000000E+00
  0.00000000E+00  0.00000000E+00  0.00000000E+00
  0.00000000E+00  0.00000000E+00  0.00000000E+00
  0.00000000E+00  0.00000000E+00  0.00000000E+00
  0.00000000E+00  0.00000000E+00  0.00000000E+00
  0.00000000E+00  0.00000000E+00  0.00000000E+00
  0.00000000E+00  0.00000000E+00  0.00000000E+00
  0.00000000E+00  0.00000000E+00  0.00000000E+00
  0.00000000E+00  0.00000000E+00  0.00000000E+00
  0.00000000E+00  0.00000000E+00  0.00000000E+00
  0.00000000E+00  0.00000000E+00  0.00000000E+00
  0.00000000E+00  0.00000000E+00  0.00000000E+00
  0.00000000E+00  0.00000000E+00  0.00000000E+00
  0.00000000E+00  0.00000000E+00  0.00000000E+00
  0.00000000E+00  0.00000000E+00  0.00000000E+00
  0.00000000E+00  0.00000000E+00  0.00000000E+00
  0.00000000E+00  0.00000000E+00  0.00000000E+00
  0.00000000E+00  0.00000000E+00  0.00000000E+00
  0.00000000E+00  0.00000000E+00  0.00000000E+00
  0.00000000E+00  0.00000000E+00  0.00000000E+00
  0.00000000E+00  0.00000000E+00  0.00000000E+00
  0.00000000E+00  0.00000000E+00  0.00000000E+00
  0.00000000E+00  0.00000000E+00  0.00000000E+00
  0.00000000E+00  0.00000000E+00  0.00000000E+00
  0.00000000E+00  0.00000000E+00  0.00000000E+00
  0.00000000E+00  0.00000000E+00  0.00000000E+00
  0.00000000E+00  0.00000000E+00  0.00000000E+00
  0.00000000E+00  0.00000000E+00  0.00000000E+00
  0.00000000E+00  0.00000000E+00  0.00000000E+00
  0.00000000E+00  0.00000000E+00  0.00000000E+00
  0.00000000E+00  0.00000000E+00  0.00000000E+00
  0.00000000E+00  0.00000000E+00  0.00000000E+00
  0.00000000E+00  0.00000000E+00  0.00000000E+00
  0.00000000E+00  0.00000000E+00  0.00000000E+00
  0.00000000E+00  0.00000000E+00  0.00000000E+00
  0.00000000E+00  0.00000000E+00  0.00000000E+00
  0.00000000E+00  0.00000000E+00  0.00000000E+00
  0.00000000E+00  0.00000000E+00  0.00000000E+00
  0.00000000E+00  0.00000000E+00  0.00000000E+00
  0.00000000E+00  0.00000000E+00  0.00000000E+00
  0.00000000E+00  0.00000000E+00  0.00000000E+00
  0.00000000E+00  0.00000000E+00  0.00000000E+00
  0.00000000E+00  0.00000000E+00  0.00000000E+00
  0.00000000E+00  0.00000000E+00  0.00000000E+00
  0.00000000E+00  0.00000000E+00  0.00000000E+00
  0.00000000E+00  0.00000000E+00  0.00000000E+00
