Ag                                      
   1.00000000000000     
    11.6089000000000002    0.0000000000000000    0.0000000000000007
    -5.8044499999999992   10.0536023099931704    0.0000000000000007
     0.0000000000000000    0.0000000000000000   17.1090000000000018
   Ag   C    H 
    64     1     2
Selective dynamics
Direct
  0.0000000000000000  0.0000000000000000  0.0000000000000000   F   F   F
  0.1666700000000034  0.0833299999999966  0.1385000000000005   F   F   F
  0.0831237458437225  0.1667820586761391  0.2734755085760061   T   T   T
  0.0000316161950105 -0.0004710756711623  0.4117499254912246   T   T   T
  0.2500000000000000  0.0000000000000000  0.0000000000000000   F   F   F
  0.4166700000000034  0.0833299999999966  0.1385000000000005   F   F   F
  0.3332343436388578  0.1669238673880265  0.2731944875018807   T   T   T
  0.2500271103940339 -0.0010252779023928  0.4110754306124335   T   T   T
  0.5000000000000000  0.0000000000000000  0.0000000000000000   F   F   F
  0.6666667000000004  0.0833299999999966  0.1385000000000005   F   F   F
  0.5831213016902910  0.1664824431087981  0.2730042420084178   T   T   T
  0.5015781334090351  0.0041581124726627  0.4119047185918218   T   T   T
  0.7500000000000000  0.0000000000000000  0.0000000000000000   F   F   F
  0.9166700000000034  0.0833299999999966  0.1385000000000005   F   F   F
  0.8328781296405632  0.1671499862401581  0.2732497108215383   T   T   T
  0.7512482552737986  0.0007992849856515  0.4112790268426119   T   T   T
  0.0000000000000000  0.2500000000000000  0.0000000000000000   F   F   F
  0.1666700000000034  0.3333332999999996  0.1385000000000005   F   F   F
  0.0841922165647009  0.4169795108000754  0.2740790100290063   T   T   T
 -0.0013563632386867  0.2481303096787229  0.4113972953757337   T   T   T
  0.2500000000000000  0.2500000000000000  0.0000000000000000   F   F   F
  0.4166700000000034  0.3333332999999996  0.1385000000000005   F   F   F
  0.3321335145129659  0.4174138917641533  0.2738180887931637   T   T   T
  0.2491881278926254  0.2488569574551364  0.4111400678453105   T   T   T
  0.5000000000000000  0.2500000000000000  0.0000000000000000   F   F   F
  0.6666667000000004  0.3333332999999996  0.1385000000000005   F   F   F
  0.5828220092006128  0.4173551618007617  0.2726809987826496   T   T   T
  0.4994745655109692  0.2502544575928864  0.4112670418288465   T   T   T
  0.7500000000000000  0.2500000000000000  0.0000000000000000   F   F   F
  0.9166700000000034  0.3333332999999996  0.1385000000000005   F   F   F
  0.8334794874406403  0.4168445690101251  0.2729925920147546   T   T   T
  0.7501526345895567  0.2498322018340441  0.4117259353058872   T   T   T
  0.0000000000000000  0.5000000000000000  0.0000000000000000   F   F   F
  0.1666700000000034  0.5833299999999966  0.1385000000000005   F   F   F
  0.0842916703694997  0.6666008581034100  0.2733244463763876   T   T   T
 -0.0037604884866811  0.4982614550052502  0.4116329835949112   T   T   T
  0.2500000000000000  0.5000000000000000  0.0000000000000000   F   F   F
  0.4166700000000034  0.5833299999999966  0.1385000000000005   F   F   F
  0.3336046859041644  0.6660581575990704  0.2726665563474951   T   T   T
  0.2430152126604178  0.4950964699493772  0.4168978829351775   T   T   T
  0.5000000000000000  0.5000000000000000  0.0000000000000000   F   F   F
  0.6666667000000004  0.5833299999999966  0.1385000000000005   F   F   F
  0.5823845512711046  0.6679998251194907  0.2739467149316072   T   T   T
  0.5013965611631159  0.4982069157763686  0.4097607341432269   T   T   T
  0.7500000000000000  0.5000000000000000  0.0000000000000000   F   F   F
  0.9166700000000034  0.5833299999999966  0.1385000000000005   F   F   F
  0.8331322112276599  0.6667757074740800  0.2731129918864124   T   T   T
  0.7496444098051042  0.5004517564340270  0.4111904872001353   T   T   T
  0.0000000000000000  0.7500000000000000  0.0000000000000000   F   F   F
  0.1666700000000034  0.8333299999999966  0.1385000000000005   F   F   F
  0.0828364162433977  0.9170321907860832  0.2733152006479793   T   T   T
  0.0011439395196144  0.7498079453440145  0.4109813959509465   T   T   T
  0.2500000000000000  0.7500000000000000  0.0000000000000000   F   F   F
  0.4166700000000034  0.8333299999999966  0.1385000000000005   F   F   F
  0.3334660534564564  0.9160191024763216  0.2731959793037790   T   T   T
  0.2501821831149872  0.7505411518531997  0.4106026286714523   T   T   T
  0.5000000000000000  0.7500000000000000  0.0000000000000000   F   F   F
  0.6666667000000004  0.8333299999999966  0.1385000000000005   F   F   F
  0.5829642029720058  0.9159420407469743  0.2739149980490288   T   T   T
  0.5030597628595775  0.7576280714131995  0.4165496293914583   T   T   T
  0.7500000000000000  0.7500000000000000  0.0000000000000000   F   F   F
  0.9166700000000034  0.8333299999999966  0.1385000000000005   F   F   F
  0.8332787266750763  0.9169839806448155  0.2734056810645040   T   T   T
  0.7503246312533842  0.7505095688419636  0.4109272598387233   T   T   T
  0.3516074926398212  0.6468323047892937  0.5044130476293023   T   T   T
  0.3990915457588596  0.6093965098924945  0.5449660901987974   T   T   T
  0.3021459388107164  0.6889232982240334  0.5398094570781844   T   T   T
 
  0.00000000E+00  0.00000000E+00  0.00000000E+00
  0.00000000E+00  0.00000000E+00  0.00000000E+00
  0.00000000E+00  0.00000000E+00  0.00000000E+00
  0.00000000E+00  0.00000000E+00  0.00000000E+00
  0.00000000E+00  0.00000000E+00  0.00000000E+00
  0.00000000E+00  0.00000000E+00  0.00000000E+00
  0.00000000E+00  0.00000000E+00  0.00000000E+00
  0.00000000E+00  0.00000000E+00  0.00000000E+00
  0.00000000E+00  0.00000000E+00  0.00000000E+00
  0.00000000E+00  0.00000000E+00  0.00000000E+00
  0.00000000E+00  0.00000000E+00  0.00000000E+00
  0.00000000E+00  0.00000000E+00  0.00000000E+00
  0.00000000E+00  0.00000000E+00  0.00000000E+00
  0.00000000E+00  0.00000000E+00  0.00000000E+00
  0.00000000E+00  0.00000000E+00  0.00000000E+00
  0.00000000E+00  0.00000000E+00  0.00000000E+00
  0.00000000E+00  0.00000000E+00  0.00000000E+00
  0.00000000E+00  0.00000000E+00  0.00000000E+00
  0.00000000E+00  0.00000000E+00  0.00000000E+00
  0.00000000E+00  0.00000000E+00  0.00000000E+00
  0.00000000E+00  0.00000000E+00  0.00000000E+00
  0.00000000E+00  0.00000000E+00  0.00000000E+00
  0.00000000E+00  0.00000000E+00  0.00000000E+00
  0.00000000E+00  0.00000000E+00  0.00000000E+00
  0.00000000E+00  0.00000000E+00  0.00000000E+00
  0.00000000E+00  0.00000000E+00  0.00000000E+00
  0.00000000E+00  0.00000000E+00  0.00000000E+00
  0.00000000E+00  0.00000000E+00  0.00000000E+00
  0.00000000E+00  0.00000000E+00  0.00000000E+00
  0.00000000E+00  0.00000000E+00  0.00000000E+00
  0.00000000E+00  0.00000000E+00  0.00000000E+00
  0.00000000E+00  0.00000000E+00  0.00000000E+00
  0.00000000E+00  0.00000000E+00  0.00000000E+00
  0.00000000E+00  0.00000000E+00  0.00000000E+00
  0.00000000E+00  0.00000000E+00  0.00000000E+00
  0.00000000E+00  0.00000000E+00  0.00000000E+00
  0.00000000E+00  0.00000000E+00  0.00000000E+00
  0.00000000E+00  0.00000000E+00  0.00000000E+00
  0.00000000E+00  0.00000000E+00  0.00000000E+00
  0.00000000E+00  0.00000000E+00  0.00000000E+00
  0.00000000E+00  0.00000000E+00  0.00000000E+00
  0.00000000E+00  0.00000000E+00  0.00000000E+00
  0.00000000E+00  0.00000000E+00  0.00000000E+00
  0.00000000E+00  0.00000000E+00  0.00000000E+00
  0.00000000E+00  0.00000000E+00  0.00000000E+00
  0.00000000E+00  0.00000000E+00  0.00000000E+00
  0.00000000E+00  0.00000000E+00  0.00000000E+00
  0.00000000E+00  0.00000000E+00  0.00000000E+00
  0.00000000E+00  0.00000000E+00  0.00000000E+00
  0.00000000E+00  0.00000000E+00  0.00000000E+00
  0.00000000E+00  0.00000000E+00  0.00000000E+00
  0.00000000E+00  0.00000000E+00  0.00000000E+00
  0.00000000E+00  0.00000000E+00  0.00000000E+00
  0.00000000E+00  0.00000000E+00  0.00000000E+00
  0.00000000E+00  0.00000000E+00  0.00000000E+00
  0.00000000E+00  0.00000000E+00  0.00000000E+00
  0.00000000E+00  0.00000000E+00  0.00000000E+00
  0.00000000E+00  0.00000000E+00  0.00000000E+00
  0.00000000E+00  0.00000000E+00  0.00000000E+00
  0.00000000E+00  0.00000000E+00  0.00000000E+00
  0.00000000E+00  0.00000000E+00  0.00000000E+00
  0.00000000E+00  0.00000000E+00  0.00000000E+00
  0.00000000E+00  0.00000000E+00  0.00000000E+00
  0.00000000E+00  0.00000000E+00  0.00000000E+00
  0.00000000E+00  0.00000000E+00  0.00000000E+00
  0.00000000E+00  0.00000000E+00  0.00000000E+00
  0.00000000E+00  0.00000000E+00  0.00000000E+00
