 Ni\(1\1\1)                             
   1.00000000000000     
     9.8291997910000006    0.0000000000000000    0.0000000000000000
     4.9145998955000003    8.5123367178000002    0.0000000000000000
     0.0000000000000000    0.0000000000000000   33.0128002167000005
   Ni   O    O    H    C    O    C    O 
    64     3    30    60     1     1     1     1
Selective dynamics
Direct
  0.8498262388409702  0.5840272582352999  0.1257067472639520   T   T   T
  0.3353662326039727  0.0753838064184222  0.1227700121428336   T   T   T
  0.8395281435584432  0.1010766313074063  0.1208986112068752   T   T   T
  0.3301128990310210  0.5869602536262114  0.1243709983198642   T   T   T
  0.5826811994550228  0.8315126149234695  0.1225487289865169   T   T   T
  0.8238952683361606  0.8469961212882676  0.1222139224895290   T   T   T
  0.0892404938941367  0.3335939958572358  0.1220964586221126   T   T   T
  0.8414630074199030  0.3324153039730174  0.1240104561208292   T   T   T
  0.5891165480966749  0.5973945876172343  0.1219055882036548   T   T   T
  0.0853479984358144  0.5899079606955340  0.1211731635099727   T   T   T
  0.0952515896360161  0.0761897778675410  0.1236549665833566   T   T   T
  0.5823351633772376  0.0927159778667764  0.1213408708044588   T   T   T
  0.3326545115094774  0.8342412189593715  0.1206530958334227   T   T   T
  0.0795426291351427  0.8337190027247532  0.1205220428506720   T   T   T
  0.3275012975387118  0.3336308129369797  0.1214540682897865   T   T   T
  0.5895778256736318  0.3376715463184387  0.1204567694419472   T   T   T
  0.9083750006083285  0.6735241904445503  0.1863144963202320   T   T   T
  0.9202393017418354  0.4220663013576268  0.1869199907813041   T   T   T
  0.6617843074569060  0.6724310153873031  0.1865249066499090   T   T   T
  0.1618474017369885  0.1659947372198597  0.1833734249199796   T   T   T
  0.9206695832222943  0.1678257375985989  0.1849549754862056   T   T   T
  0.9252726263655966  0.9069506735871421  0.1860051365498057   T   T   T
  0.4162363499165394  0.9178268478504614  0.1847108649905591   T   T   T
  0.4157444081342682  0.1665580450569032  0.1834592148480982   T   T   T
  0.6746206618492210  0.1438732302815695  0.1803985434198833   T   T   T
  0.1660194814903204  0.6698643962789245  0.1823535168139840   T   T   T
  0.4156264014760152  0.6717920260810516  0.1845605845576708   T   T   T
  0.4245821584802862  0.4086047396748584  0.1834078813261188   T   T   T
  0.6659317159511734  0.9136829876511269  0.1852563430489657   T   T   T
  0.1679572153789656  0.4076913492498407  0.1873500595700081   T   T   T
  0.6731832198656591  0.4133323304300194  0.1849842108817679   T   T   T
  0.1708127207938703  0.9107063117793932  0.1842075767954462   T   T   T
  0.9733923859707310  0.2591848206617869  0.2493099370525908   T   T   T
  0.4888261075033407  0.2451025932658524  0.2410851151455581   T   T   T
  0.9978441632090044  0.7488622855822629  0.2510908065587963   T   T   T
  0.4989133015907928  0.7473753273653239  0.2483501536646256   T   T   T
  0.7321854206542256  0.7689453500155603  0.2515285083546869   T   T   T
  0.9907832658062340  0.4975316147258903  0.2492006706546260   T   T   T
  0.7438217066860210  0.4934745758639145  0.2487752716599004   T   T   T
  0.2437741825343242  0.0036187328316997  0.2456936789663524   T   T   T
  0.9988098011619717  0.9961351107549185  0.2483038016990471   T   T   T
  0.4897128677993099  0.0025409097981567  0.2472388318708984   T   T   T
  0.2394943286612678  0.7496629169299519  0.2475756996579311   T   T   T
  0.7432422192346781  0.0115230272460516  0.2469809908566520   T   T   T
  0.2515074775207184  0.2556679901328164  0.2556120582550497   T   T   T
  0.7422571052407584  0.2509959817799152  0.2434636385046028   T   T   T
  0.2479669869248932  0.4989363361811143  0.2461292463434152   T   T   T
  0.4964812168396796  0.4990576691046751  0.2439530330320507   T   T   T
  0.9970724666754620  0.2558556730310926  0.0591330299999981   F   F   F
  0.4999617994073233  0.2500875833011236  0.0594854499999968   F   F   F
  0.9968841634502041  0.7476992072800570  0.0595123729999969   F   F   F
  0.5054474787370111  0.7476858751006858  0.0599706819999994   F   F   F
  0.7507219768486166  0.7486395117188209  0.0599869240000004   F   F   F
  0.9979410792479300  0.5014025590734690  0.0599954460000021   F   F   F
  0.7507272959160147  0.5014379058895102  0.0601539399999993   F   F   F
  0.2484077360003596  0.9989653641424212  0.0601723560000025   F   F   F
  0.0026835401693219  0.9989392601468481  0.0602141139999972   F   F   F
  0.5037179195970367  0.9979203075034633  0.0602187790000031   F   F   F
  0.2483221526645849  0.7533767732178518  0.0603571819999971   F   F   F
  0.7484137013454841  0.9978805352280915  0.0603965990000006   F   F   F
  0.2473094733631029  0.2543786677836692  0.0604625579999976   F   F   F
  0.7483561822084468  0.2543461498031050  0.0604678369999974   F   F   F
  0.2472921951577476  0.4989472698041553  0.0606285479999968   F   F   F
  0.5037960521228442  0.4989156761291298  0.0606927010000007   F   F   F
  0.3346618383490205  0.0687207704736748  0.2866339084194639   T   T   T
  0.8311050783259134  0.0921769427699722  0.2818462597373574   T   T   T
  0.3356043395691889  0.5753465108923679  0.2834818547552387   T   T   T
  0.4441856018999568  0.9063958628485986  0.6019056969365132   T   T   T
  0.9421090582756735  0.3810752929248200  0.4111771599509821   T   T   T
  0.2594722019242532  0.9334305555503288  0.3515773785401951   T   T   T
  0.9303770763879068  0.0330160402110965  0.4890844877504261   T   T   T
  0.6111463623166269  0.0566589042916684  0.3504153965323021   T   T   T
  0.0124716537383207  0.3693198834278886  0.5393893551806521   T   T   T
  0.0088647881465640  0.7385348322588940  0.3094297694570661   T   T   T
  0.9636714005393050  0.8500610427976385  0.4264010887205973   T   T   T
  0.4966732372075507  0.7102529113701500  0.3144836822754364   T   T   T
  0.8716851929880352  0.0499472747641205  0.5699279207683019   T   T   T
  0.4100741323145447  0.8864595817711497  0.4245070232788763   T   T   T
  0.4136471381990097  0.6301898616716912  0.6073034209561669   T   T   T
  0.4214544577568583  0.9963895763166376  0.5235077991533928   T   T   T
  0.7053778731614212  0.8009470994457413  0.3127358763720370   T   T   T
  0.7721936429448638  0.6931180787530338  0.6202252037266939   T   T   T
  0.2343624058892673  0.8968427776785278  0.4926083650670381   T   T   T
  0.2583978039069421  0.5851657810698592  0.4112328511064042   T   T   T
  0.4635327492752873  0.3976001563973871  0.4594255767828681   T   T   T
  0.7102208266001458  0.8389420982923682  0.4946057417945305   T   T   T
  0.2343640274961191  0.2082834453651571  0.4274402530020215   T   T   T
  0.5442691526997970  0.2683417868199842  0.5773043130593120   T   T   T
  0.1122796137814208  0.0888161904093202  0.5870607898733807   T   T   T
  0.8017025208990003  0.3528632355467278  0.4818502934727180   T   T   T
  0.9330404233234529  0.7481419823756019  0.5620003821661628   T   T   T
  0.6082600745305701  0.1013982612187258  0.4341322442537229   T   T   T
  0.3200458095413641  0.3345104559676421  0.5244168292717554   T   T   T
  0.7808255821809676  0.7161834650256561  0.4184910269319648   T   T   T
  0.2310624589132877  0.6688702259054110  0.5447835710014866   T   T   T
  0.9602521545274781  0.9879295852788141  0.3538977794272030   T   T   T
  0.3496065191523425  0.3661344833340693  0.3491755126356285   T   T   T
  0.4411633977515368  0.9404725537057790  0.5742759090655075   T   T   T
  0.5567975488896332  0.8324480540840608  0.6113499041806878   T   T   T
  0.0583270135951654  0.3133579114622602  0.4162185648141807   T   T   T
  0.9210009577451793  0.3339446756683731  0.3874107681024282   T   T   T
  0.2505151197655515  0.0149388820878354  0.3332227260434409   T   T   T
  0.1411982787236266  0.9568516296634546  0.3541575210619033   T   T   T
  0.0418617374450931  0.0037665034878518  0.4855088324265916   T   T   T
  0.8671142227882784  0.1426900445380991  0.4809389578692966   T   T   T
  0.6182862846067233  0.0612237200669316  0.3809274096623237   T   T   T
  0.5419239471679789  0.1670563159464774  0.3452276273707939   T   T   T
  0.9788932817999199  0.4716907956316985  0.5497531883873249   T   T   T
  0.1237200623661054  0.3457733914672880  0.5330165537937996   T   T   T
  0.9087474208157533  0.7406499791795109  0.3180589878095209   T   T   T
  0.0189926021967105  0.8252009995929318  0.3216147102028979   T   T   T
  0.9264395583702060  0.9235039353583333  0.4501273411116230   T   T   T
  0.8895736849526197  0.8124758982059246  0.4184678981393578   T   T   T
  0.5123638622139014  0.5973623843518970  0.3140157481124655   T   T   T
  0.3829273303578606  0.7863024790226711  0.3260602244449977   T   T   T
  0.9405720038661672  0.0824160774543623  0.5847936045023642   T   T   T
  0.9105254299296668  0.0337180442430448  0.5420449722065284   T   T   T
  0.5225735486718560  0.8255155701722978  0.4168704168827942   T   T   T
  0.3610164378387477  0.9029947556053342  0.3974673610811366   T   T   T
  0.4192569726940368  0.7252514995948699  0.6028244866035177   T   T   T
  0.5251711718824391  0.5448323996973339  0.6045930548721914   T   T   T
  0.3848439024246049  0.1088857789610253  0.5147722376613876   T   T   T
  0.3614630116353829  0.9581071772053923  0.5085084014192296   T   T   T
  0.6168500006161441  0.7817751634041167  0.3206757309757318   T   T   T
  0.6758836547338063  0.9041040561767186  0.3232991487170762   T   T   T
  0.8382445682470057  0.7045427007153298  0.6000561465911488   T   T   T
  0.8155697949779702  0.7000674857912057  0.6466176039906188   T   T   T
  0.2298912395191293  0.8118685183315789  0.5069075139092921   T   T   T
  0.2844832324263031  0.8402941030066190  0.4675372784519813   T   T   T
  0.2641690943954635  0.5184902640163219  0.3873815046358458   T   T   T
  0.1465728670989759  0.6789936099408972  0.4185303485478126   T   T   T
  0.3849599798566053  0.4874112878052742  0.4425635230232974   T   T   T
  0.5561967691531233  0.4095792726658184  0.4663032280521546   T   T   T
  0.7776592079376413  0.7938477635777954  0.5180447236244545   T   T   T
  0.6046358843063000  0.8892876456375043  0.5045211816567889   T   T   T
  0.2879060459704524  0.0964729746568016  0.4346107045659529   T   T   T
  0.3085863628267338  0.2425883180862865  0.4180490773991193   T   T   T
  0.5291919635617520  0.2259237818815808  0.6027784005433979   T   T   T
  0.6554737638869074  0.1908130928822396  0.5704396420612817   T   T   T
  0.0981015977690518  0.1853721372589769  0.5743859112741097   T   T   T
  0.2124626256574303  0.0312233894604540  0.6012541243828483   T   T   T
  0.8712932620090993  0.3704430764043773  0.5016780111061082   T   T   T
  0.8403798556077856  0.3581690468606301  0.4542432889477400   T   T   T
  0.0416479907787850  0.7169119777064421  0.5584324554644994   T   T   T
  0.8939807423581055  0.8645204115793138  0.5646529719430426   T   T   T
  0.6603524413957369  0.0203539663481807  0.4552857710082586   T   T   T
  0.5623579054956430  0.2125223908365343  0.4425582950501501   T   T   T
  0.3415214086286088  0.3594052147785228  0.4953739430800843   T   T   T
  0.4126850176368747  0.3071281775876838  0.5415435348871642   T   T   T
  0.7555718469315870  0.7275323467135471  0.4483454127723413   T   T   T
  0.8368026750049882  0.6017809349042317  0.4098343399662098   T   T   T
  0.2755848293277134  0.5594392725137776  0.5346393765325775   T   T   T
  0.3033755636771991  0.6540019047798337  0.5680858489123410   T   T   T
  0.9371625658955614  0.9525519690900176  0.3799975143967891   T   T   T
  0.8645330131035387  0.0621913146648969  0.3424436166719405   T   T   T
  0.3564866770186452  0.4415411215858014  0.3287957929490151   T   T   T
  0.2612814035549918  0.3604039480006141  0.3392947376454573   T   T   T
  0.8615352268540007  0.3851499827660103  0.3003079780671376   T   T   T
  0.7759335862804212  0.3760293706293300  0.3265161265608026   T   T   T
  0.9812926042814417  0.3953768303374723  0.2990412974376429   T   T   T
  0.0676670412281202  0.3856727417598925  0.3280454033682896   T   T   T
 
  0.26709615E-02 -0.20602204E-02 -0.55373284E-02
  0.29601333E-02  0.13418154E-03  0.21091830E-03
  0.30408179E-02 -0.50491355E-03 -0.16370281E-03
 -0.46687704E-04 -0.17516316E-03 -0.33256266E-03
  0.53285472E-03  0.13450600E-02 -0.62420498E-03
  0.14981098E-04 -0.21990496E-03 -0.23318247E-02
  0.62569663E-03  0.37134321E-02  0.78115917E-03
 -0.88788160E-03  0.23684864E-03 -0.88350207E-03
  0.39195268E-02  0.28640288E-03 -0.15402626E-03
  0.25144486E-02  0.17006582E-02 -0.33900428E-03
 -0.20209908E-02  0.21611969E-02 -0.76328944E-03
 -0.11817718E-02 -0.22981810E-02 -0.25507357E-02
  0.23010675E-02 -0.62635765E-03 -0.28691021E-02
  0.20641850E-02  0.98842831E-03 -0.34558252E-03
  0.44000865E-02 -0.17980870E-03  0.17970509E-02
 -0.16809546E-02  0.10591396E-02  0.21313893E-02
 -0.21663161E-03 -0.17444381E-02 -0.41132629E-02
  0.19930811E-02 -0.14591195E-02 -0.26218182E-02
  0.86211026E-03 -0.25684547E-03  0.38290520E-02
 -0.14671731E-02  0.18684767E-02  0.20769490E-02
  0.23028336E-02 -0.29400804E-02  0.40031651E-03
  0.77254282E-03 -0.16435496E-02  0.27316469E-02
 -0.14108478E-02  0.10758222E-02 -0.16339070E-02
 -0.67139561E-03  0.22456432E-02 -0.27153986E-02
  0.11057077E-02  0.68848473E-02 -0.12111797E-03
  0.48957661E-03 -0.11413727E-03  0.74749360E-03
 -0.16763586E-02 -0.12341052E-02  0.12627043E-02
 -0.24096610E-02  0.21119316E-02 -0.44035704E-02
 -0.54174657E-03  0.20481325E-02 -0.49866024E-04
  0.63510288E-03 -0.19455629E-02 -0.18691087E-02
  0.14687605E-02 -0.16339165E-02 -0.11935824E-02
 -0.91225333E-04  0.42060322E-04  0.83499679E-03
 -0.26925671E-02  0.79184597E-03 -0.19392611E-02
 -0.30704890E-02  0.15122847E-02  0.13214925E-02
  0.41802914E-03  0.14495147E-02 -0.48025350E-03
  0.19695083E-02  0.57515475E-04  0.25801685E-02
 -0.10353664E-02 -0.45860815E-02 -0.38159180E-02
  0.24558712E-02 -0.10885954E-02  0.20215887E-02
  0.11763933E-02  0.18384295E-02 -0.84193859E-03
  0.31885777E-02 -0.45171705E-02  0.19115690E-02
  0.13065711E-03 -0.14511479E-02  0.17288550E-02
 -0.26250648E-02  0.83796276E-04  0.25974872E-02
 -0.48713049E-03 -0.29895158E-03  0.11035749E-02
 -0.22462021E-02  0.14103858E-02  0.25939080E-02
 -0.40014584E-02 -0.24145940E-02  0.32552258E-02
  0.33324925E-02  0.26253595E-02  0.91675640E-03
 -0.47092311E-03  0.18470805E-02 -0.92158700E-03
 -0.12825169E-02 -0.32287250E-03  0.99567624E-03
  0.00000000E+00  0.00000000E+00  0.00000000E+00
  0.00000000E+00  0.00000000E+00  0.00000000E+00
  0.00000000E+00  0.00000000E+00  0.00000000E+00
  0.00000000E+00  0.00000000E+00  0.00000000E+00
  0.00000000E+00  0.00000000E+00  0.00000000E+00
  0.00000000E+00  0.00000000E+00  0.00000000E+00
  0.00000000E+00  0.00000000E+00  0.00000000E+00
  0.00000000E+00  0.00000000E+00  0.00000000E+00
  0.00000000E+00  0.00000000E+00  0.00000000E+00
  0.00000000E+00  0.00000000E+00  0.00000000E+00
  0.00000000E+00  0.00000000E+00  0.00000000E+00
  0.00000000E+00  0.00000000E+00  0.00000000E+00
  0.00000000E+00  0.00000000E+00  0.00000000E+00
  0.00000000E+00  0.00000000E+00  0.00000000E+00
  0.00000000E+00  0.00000000E+00  0.00000000E+00
  0.00000000E+00  0.00000000E+00  0.00000000E+00
 -0.85339926E-02  0.57298586E-02  0.46993372E-03
  0.73337993E-02 -0.46621400E-03  0.64561622E-03
 -0.40250371E-02  0.22418087E-02  0.87435150E-03
  0.59192090E-02 -0.48518256E-02 -0.56472106E-02
  0.34496337E-02 -0.77740931E-02 -0.56521031E-02
  0.20482256E-02  0.13894894E-02  0.35763425E-02
  0.26524870E-02 -0.91111291E-02 -0.67930771E-03
  0.24005533E-02  0.16965584E-02 -0.24496645E-02
 -0.34514878E-02 -0.41246873E-02  0.34628166E-02
  0.45794984E-02 -0.68073982E-02 -0.20712674E-02
 -0.81123090E-03  0.71607243E-03  0.18465300E-02
 -0.12895172E-02 -0.78652262E-03  0.11453269E-02
 -0.26301119E-02 -0.50682223E-02 -0.41882433E-02
  0.36942672E-02 -0.55835132E-02  0.40047031E-04
  0.36078009E-03  0.16816707E-02  0.87962922E-02
  0.75608204E-02 -0.26815374E-02  0.25729767E-02
 -0.16048024E-02 -0.46267984E-02 -0.59801010E-02
  0.37857557E-02  0.59971173E-03 -0.37117814E-02
  0.48022120E-02 -0.91606088E-03 -0.59074281E-03
 -0.12127818E-02  0.89838086E-03  0.18633029E-02
 -0.47835078E-02  0.76319364E-03  0.31648535E-02
 -0.43925126E-02 -0.26651514E-02 -0.12683408E-02
  0.83612466E-03 -0.91412937E-03 -0.76413217E-03
  0.23952387E-02 -0.25070239E-03 -0.17123455E-02
 -0.15836591E-02 -0.57552657E-02  0.48860454E-02
  0.45678886E-03 -0.84693257E-02  0.30501240E-03
  0.45903388E-02 -0.42236039E-02 -0.83409259E-02
 -0.44209539E-03 -0.12084077E-02  0.26744483E-02
  0.16897859E-02 -0.37141951E-02  0.16750142E-02
 -0.58216422E-02  0.44276750E-03  0.34511647E-02
  0.34655482E-03 -0.72658392E-02 -0.40656723E-02
 -0.76480699E-02 -0.40241220E-02 -0.20836114E-02
  0.13159239E-02 -0.49937659E-03  0.32214620E-02
  0.69341200E-02 -0.34096191E-02  0.14030521E-01
 -0.18281596E-01 -0.57976547E-02 -0.16061650E-01
 -0.37265866E-02  0.63334754E-02 -0.11407985E-02
  0.13690297E-02 -0.47651593E-02 -0.10044348E-01
  0.10927595E-01 -0.10419704E-02 -0.11168277E-01
 -0.20773845E-01 -0.35421363E-02 -0.93388186E-02
  0.26334970E-01  0.57320267E-02 -0.11862650E-01
 -0.17383561E-01  0.40610246E-02  0.21844563E-01
  0.12975339E-01  0.23597768E-01  0.45821728E-01
 -0.39210636E-02 -0.10828423E-01  0.10583526E-01
  0.20883983E-01 -0.15639274E-01 -0.32967353E-01
 -0.81329351E-02 -0.34454501E-02  0.76112232E-02
  0.18689761E-01 -0.47237043E-02 -0.29042829E-01
  0.74854798E-02  0.12858723E-01 -0.46997749E-02
 -0.38668974E-02  0.17275947E-01 -0.19850422E-01
  0.67044855E-02  0.25666727E-02 -0.23000176E-01
 -0.12528502E-01 -0.17140913E-02  0.58171179E-02
 -0.72622359E-02  0.18925599E-02  0.54758746E-02
 -0.30231009E-01  0.35220612E-01 -0.90134672E-02
 -0.20096785E-01 -0.11919854E-01 -0.21009925E-01
  0.54890938E-02 -0.16945565E-01 -0.12726030E-01
 -0.40518945E-02  0.22160008E-01  0.27651503E-01
 -0.95222902E-02 -0.90398933E-02 -0.11372070E-01
  0.19457571E-01 -0.75040803E-02  0.13702454E-01
  0.13139396E-02  0.12016362E-01  0.33313092E-02
  0.42871180E-01 -0.16874697E-01 -0.34588746E-03
  0.72648615E-02  0.54513125E-03  0.26598874E-01
 -0.10295418E-01 -0.27029693E-02 -0.13296468E-01
  0.67318288E-03  0.12091155E-01 -0.30957828E-01
  0.92593004E-02 -0.16462222E-01  0.76394018E-03
 -0.36627016E-01  0.17827387E-01 -0.10780979E-01
 -0.98340234E-02  0.26182606E-02  0.21594088E-01
 -0.22924747E-01  0.13506910E-01  0.12963053E-02
 -0.98280876E-02  0.15750258E-01 -0.86675212E-02
 -0.29912260E-02 -0.21451096E-01 -0.15599808E-01
  0.25295281E-01  0.30802482E-02  0.83439763E-02
  0.23296635E-01 -0.12273039E-01 -0.29293234E-01
 -0.22159526E-02  0.16396299E-01  0.98577033E-02
  0.89370426E-02  0.10162352E-01 -0.42409392E-02
  0.15396909E-01  0.17564942E-01 -0.92578375E-02
 -0.26836319E-01  0.74353980E-02  0.11213994E-01
 -0.45192338E-02  0.57429922E-02 -0.11009456E-01
  0.38552843E-02 -0.24073962E-01  0.34651377E-01
  0.94859088E-02  0.18372105E-01  0.38350687E-02
  0.17596986E-02  0.90292556E-02  0.24609346E-01
  0.23406634E-01 -0.88718886E-02 -0.16550309E-01
 -0.84625236E-02  0.27833175E-01  0.14225895E-01
 -0.17586245E-01  0.75855213E-02  0.82091274E-02
 -0.17927245E-01  0.18649938E-01  0.15662501E-02
  0.20124949E-02  0.12182925E-02 -0.82299194E-02
  0.14266472E-01  0.85050782E-02 -0.98190528E-02
 -0.18007668E-01  0.73220910E-02 -0.18413309E-01
 -0.16060001E-01 -0.28030494E-01  0.24004097E-02
 -0.22124986E-01  0.24240962E-01 -0.19398294E-01
 -0.18346658E-01  0.24202884E-01  0.88398261E-02
 -0.26362889E-01 -0.18382790E-01  0.20767253E-01
  0.22058989E-01 -0.54157887E-02 -0.11404551E-01
  0.14891762E-01 -0.15840279E-01  0.88099257E-02
  0.72799860E-02  0.51874164E-02 -0.18337653E-01
 -0.41041331E-02  0.20871267E-02 -0.68793416E-02
  0.33013038E-05  0.54968331E-02  0.40369657E-02
  0.57854912E-02  0.23370655E-02 -0.48914195E-02
  0.62442205E-04  0.71549305E-03  0.72044270E-02
 -0.21330907E-02  0.38808976E-02 -0.72060842E-02
 
           1
   1.00000000000000     
  0.83017050E-01  0.43545954E-03  0.43758077E-03  0.82580530E-01
  0.84982624E+00  0.58402726E+00  0.12570675E+00
  0.33536623E+00  0.75383806E-01  0.12277001E+00
  0.83952814E+00  0.10107663E+00  0.12089861E+00
  0.33011290E+00  0.58696025E+00  0.12437100E+00
  0.58268120E+00  0.83151261E+00  0.12254873E+00
  0.82389527E+00  0.84699612E+00  0.12221392E+00
  0.89240494E-01  0.33359400E+00  0.12209646E+00
  0.84146301E+00  0.33241530E+00  0.12401046E+00
  0.58911655E+00  0.59739459E+00  0.12190559E+00
  0.85347998E-01  0.58990796E+00  0.12117316E+00
  0.95251590E-01  0.76189778E-01  0.12365497E+00
  0.58233516E+00  0.92715978E-01  0.12134087E+00
  0.33265451E+00  0.83424122E+00  0.12065310E+00
  0.79542629E-01  0.83371900E+00  0.12052204E+00
  0.32750130E+00  0.33363081E+00  0.12145407E+00
  0.58957783E+00  0.33767155E+00  0.12045677E+00
  0.90837500E+00  0.67352419E+00  0.18631450E+00
  0.92023930E+00  0.42206630E+00  0.18691999E+00
  0.66178431E+00  0.67243102E+00  0.18652491E+00
  0.16184740E+00  0.16599474E+00  0.18337342E+00
  0.92066958E+00  0.16782574E+00  0.18495498E+00
  0.92527263E+00  0.90695067E+00  0.18600514E+00
  0.41623635E+00  0.91782685E+00  0.18471086E+00
  0.41574441E+00  0.16655805E+00  0.18345921E+00
  0.67462066E+00  0.14387323E+00  0.18039854E+00
  0.16601948E+00  0.66986440E+00  0.18235352E+00
  0.41562640E+00  0.67179203E+00  0.18456058E+00
  0.42458216E+00  0.40860474E+00  0.18340788E+00
  0.66593172E+00  0.91368299E+00  0.18525634E+00
  0.16795722E+00  0.40769135E+00  0.18735006E+00
  0.67318322E+00  0.41333233E+00  0.18498421E+00
  0.17081272E+00  0.91070631E+00  0.18420758E+00
  0.97339239E+00  0.25918482E+00  0.24930994E+00
  0.48882611E+00  0.24510259E+00  0.24108512E+00
  0.99784416E+00  0.74886229E+00  0.25109081E+00
  0.49891330E+00  0.74737533E+00  0.24835015E+00
  0.73218542E+00  0.76894535E+00  0.25152851E+00
  0.99078327E+00  0.49753161E+00  0.24920067E+00
  0.74382171E+00  0.49347458E+00  0.24877527E+00
  0.24377418E+00  0.36187328E-02  0.24569368E+00
  0.99880980E+00  0.99613511E+00  0.24830380E+00
  0.48971287E+00  0.25409098E-02  0.24723883E+00
  0.23949433E+00  0.74966292E+00  0.24757570E+00
  0.74324222E+00  0.11523027E-01  0.24698099E+00
  0.25150748E+00  0.25566799E+00  0.25561206E+00
  0.74225711E+00  0.25099598E+00  0.24346364E+00
  0.24796699E+00  0.49893634E+00  0.24612925E+00
  0.49648122E+00  0.49905767E+00  0.24395303E+00
  0.99707247E+00  0.25585567E+00  0.59133030E-01
  0.49996180E+00  0.25008758E+00  0.59485450E-01
  0.99688416E+00  0.74769921E+00  0.59512373E-01
  0.50544748E+00  0.74768588E+00  0.59970682E-01
  0.75072198E+00  0.74863951E+00  0.59986924E-01
  0.99794108E+00  0.50140256E+00  0.59995446E-01
  0.75072730E+00  0.50143791E+00  0.60153940E-01
  0.24840774E+00  0.99896536E+00  0.60172356E-01
  0.26835402E-02  0.99893926E+00  0.60214114E-01
  0.50371792E+00  0.99792031E+00  0.60218779E-01
  0.24832215E+00  0.75337677E+00  0.60357182E-01
  0.74841370E+00  0.99788054E+00  0.60396599E-01
  0.24730947E+00  0.25437867E+00  0.60462558E-01
  0.74835618E+00  0.25434615E+00  0.60467837E-01
  0.24729220E+00  0.49894727E+00  0.60628548E-01
  0.50379605E+00  0.49891568E+00  0.60692701E-01
  0.33466184E+00  0.68720770E-01  0.28663391E+00
  0.83110508E+00  0.92176943E-01  0.28184626E+00
  0.33560434E+00  0.57534651E+00  0.28348185E+00
  0.44418560E+00  0.90639586E+00  0.60190570E+00
  0.94210906E+00  0.38107529E+00  0.41117716E+00
  0.25947220E+00  0.93343056E+00  0.35157738E+00
  0.93037708E+00  0.33016040E-01  0.48908449E+00
  0.61114636E+00  0.56658904E-01  0.35041540E+00
  0.12471654E-01  0.36931988E+00  0.53938936E+00
  0.88647881E-02  0.73853483E+00  0.30942977E+00
  0.96367140E+00  0.85006104E+00  0.42640109E+00
  0.49667324E+00  0.71025291E+00  0.31448368E+00
  0.87168519E+00  0.49947275E-01  0.56992792E+00
  0.41007413E+00  0.88645958E+00  0.42450702E+00
  0.41364714E+00  0.63018986E+00  0.60730342E+00
  0.42145446E+00  0.99638958E+00  0.52350780E+00
  0.70537787E+00  0.80094710E+00  0.31273588E+00
  0.77219364E+00  0.69311808E+00  0.62022520E+00
  0.23436241E+00  0.89684278E+00  0.49260837E+00
  0.25839780E+00  0.58516578E+00  0.41123285E+00
  0.46353275E+00  0.39760016E+00  0.45942558E+00
  0.71022083E+00  0.83894210E+00  0.49460574E+00
  0.23436403E+00  0.20828345E+00  0.42744025E+00
  0.54426915E+00  0.26834179E+00  0.57730431E+00
  0.11227961E+00  0.88816190E-01  0.58706079E+00
  0.80170252E+00  0.35286324E+00  0.48185029E+00
  0.93304042E+00  0.74814198E+00  0.56200038E+00
  0.60826007E+00  0.10139826E+00  0.43413224E+00
  0.32004581E+00  0.33451046E+00  0.52441683E+00
  0.78082558E+00  0.71618347E+00  0.41849103E+00
  0.23106246E+00  0.66887023E+00  0.54478357E+00
  0.96025215E+00  0.98792959E+00  0.35389778E+00
  0.34960652E+00  0.36613448E+00  0.34917551E+00
  0.44116340E+00  0.94047255E+00  0.57427591E+00
  0.55679755E+00  0.83244805E+00  0.61134990E+00
  0.58327014E-01  0.31335791E+00  0.41621856E+00
  0.92100096E+00  0.33394468E+00  0.38741077E+00
  0.25051512E+00  0.14938882E-01  0.33322273E+00
  0.14119828E+00  0.95685163E+00  0.35415752E+00
  0.41861737E-01  0.37665035E-02  0.48550883E+00
  0.86711422E+00  0.14269004E+00  0.48093896E+00
  0.61828628E+00  0.61223720E-01  0.38092741E+00
  0.54192395E+00  0.16705632E+00  0.34522763E+00
  0.97889328E+00  0.47169080E+00  0.54975319E+00
  0.12372006E+00  0.34577339E+00  0.53301655E+00
  0.90874742E+00  0.74064998E+00  0.31805899E+00
  0.18992602E-01  0.82520100E+00  0.32161471E+00
  0.92643956E+00  0.92350394E+00  0.45012734E+00
  0.88957368E+00  0.81247590E+00  0.41846790E+00
  0.51236386E+00  0.59736238E+00  0.31401575E+00
  0.38292733E+00  0.78630248E+00  0.32606022E+00
  0.94057200E+00  0.82416077E-01  0.58479360E+00
  0.91052543E+00  0.33718044E-01  0.54204497E+00
  0.52257355E+00  0.82551557E+00  0.41687042E+00
  0.36101644E+00  0.90299476E+00  0.39746736E+00
  0.41925697E+00  0.72525150E+00  0.60282449E+00
  0.52517117E+00  0.54483240E+00  0.60459305E+00
  0.38484390E+00  0.10888578E+00  0.51477224E+00
  0.36146301E+00  0.95810718E+00  0.50850840E+00
  0.61685000E+00  0.78177516E+00  0.32067573E+00
  0.67588365E+00  0.90410406E+00  0.32329915E+00
  0.83824457E+00  0.70454270E+00  0.60005615E+00
  0.81556979E+00  0.70006749E+00  0.64661760E+00
  0.22989124E+00  0.81186852E+00  0.50690751E+00
  0.28448323E+00  0.84029410E+00  0.46753728E+00
  0.26416909E+00  0.51849026E+00  0.38738150E+00
  0.14657287E+00  0.67899361E+00  0.41853035E+00
  0.38495998E+00  0.48741129E+00  0.44256352E+00
  0.55619677E+00  0.40957927E+00  0.46630323E+00
  0.77765921E+00  0.79384776E+00  0.51804472E+00
  0.60463588E+00  0.88928765E+00  0.50452118E+00
  0.28790605E+00  0.96472975E-01  0.43461070E+00
  0.30858636E+00  0.24258832E+00  0.41804908E+00
  0.52919196E+00  0.22592378E+00  0.60277840E+00
  0.65547376E+00  0.19081309E+00  0.57043964E+00
  0.98101598E-01  0.18537214E+00  0.57438591E+00
  0.21246263E+00  0.31223389E-01  0.60125412E+00
  0.87129326E+00  0.37044308E+00  0.50167801E+00
  0.84037986E+00  0.35816905E+00  0.45424329E+00
  0.41647991E-01  0.71691198E+00  0.55843246E+00
  0.89398074E+00  0.86452041E+00  0.56465297E+00
  0.66035244E+00  0.20353966E-01  0.45528577E+00
  0.56235791E+00  0.21252239E+00  0.44255830E+00
  0.34152141E+00  0.35940521E+00  0.49537394E+00
  0.41268502E+00  0.30712818E+00  0.54154353E+00
  0.75557185E+00  0.72753235E+00  0.44834541E+00
  0.83680268E+00  0.60178093E+00  0.40983434E+00
  0.27558483E+00  0.55943927E+00  0.53463938E+00
  0.30337556E+00  0.65400190E+00  0.56808585E+00
  0.93716257E+00  0.95255197E+00  0.37999751E+00
  0.86453301E+00  0.62191315E-01  0.34244362E+00
  0.35648668E+00  0.44154112E+00  0.32879579E+00
  0.26128140E+00  0.36040395E+00  0.33929474E+00
  0.86153523E+00  0.38514998E+00  0.30030798E+00
  0.77593359E+00  0.37602937E+00  0.32651613E+00
  0.98129260E+00  0.39537683E+00  0.29904130E+00
  0.67667041E-01  0.38567274E+00  0.32804540E+00
  0.00000000E+00  0.00000000E+00  0.00000000E+00
  0.00000000E+00  0.00000000E+00  0.00000000E+00
  0.00000000E+00  0.00000000E+00  0.00000000E+00
  0.00000000E+00  0.00000000E+00  0.00000000E+00
  0.00000000E+00  0.00000000E+00  0.00000000E+00
  0.00000000E+00  0.00000000E+00  0.00000000E+00
  0.00000000E+00  0.00000000E+00  0.00000000E+00
  0.00000000E+00  0.00000000E+00  0.00000000E+00
  0.00000000E+00  0.00000000E+00  0.00000000E+00
  0.00000000E+00  0.00000000E+00  0.00000000E+00
  0.00000000E+00  0.00000000E+00  0.00000000E+00
  0.00000000E+00  0.00000000E+00  0.00000000E+00
  0.00000000E+00  0.00000000E+00  0.00000000E+00
  0.00000000E+00  0.00000000E+00  0.00000000E+00
  0.00000000E+00  0.00000000E+00  0.00000000E+00
  0.00000000E+00  0.00000000E+00  0.00000000E+00
  0.00000000E+00  0.00000000E+00  0.00000000E+00
  0.00000000E+00  0.00000000E+00  0.00000000E+00
  0.00000000E+00  0.00000000E+00  0.00000000E+00
  0.00000000E+00  0.00000000E+00  0.00000000E+00
  0.00000000E+00  0.00000000E+00  0.00000000E+00
  0.00000000E+00  0.00000000E+00  0.00000000E+00
  0.00000000E+00  0.00000000E+00  0.00000000E+00
  0.00000000E+00  0.00000000E+00  0.00000000E+00
  0.00000000E+00  0.00000000E+00  0.00000000E+00
  0.00000000E+00  0.00000000E+00  0.00000000E+00
  0.00000000E+00  0.00000000E+00  0.00000000E+00
  0.00000000E+00  0.00000000E+00  0.00000000E+00
  0.00000000E+00  0.00000000E+00  0.00000000E+00
  0.00000000E+00  0.00000000E+00  0.00000000E+00
  0.00000000E+00  0.00000000E+00  0.00000000E+00
  0.00000000E+00  0.00000000E+00  0.00000000E+00
  0.00000000E+00  0.00000000E+00  0.00000000E+00
  0.00000000E+00  0.00000000E+00  0.00000000E+00
  0.00000000E+00  0.00000000E+00  0.00000000E+00
  0.00000000E+00  0.00000000E+00  0.00000000E+00
  0.00000000E+00  0.00000000E+00  0.00000000E+00
  0.00000000E+00  0.00000000E+00  0.00000000E+00
  0.00000000E+00  0.00000000E+00  0.00000000E+00
  0.00000000E+00  0.00000000E+00  0.00000000E+00