Ni_Pol_COOHCOH
   1.00000000000000     
     9.8291997910000006    0.0000000000000000    0.0000000000000000
     4.9145998955000003    8.5123367178000002    0.0000000000000000
     0.0000000000000000    0.0000000000000000   19.0128002167000005
   Ni   O    C    O    H    C    O    H 
    64     3     1     2     1     1     1     1
Selective dynamics
Direct
  0.8327824720293419  0.5825509022080529  0.2716984173932537   T   T   T
  0.3337543200037693  0.0815564550577510  0.2702524485931333   T   T   T
  0.8335089460708751  0.0812340814763431  0.2707953969381308   T   T   T
  0.3326980919053260  0.5820314905267756  0.2706580366673220   T   T   T
  0.5833987285099169  0.8319894197845475  0.2706089936834576   T   T   T
  0.8331577879430285  0.8314536417762575  0.2712195641354843   T   T   T
  0.0829840968520622  0.3321612833862738  0.2708564101174974   T   T   T
  0.8335360525978830  0.3314672827570651  0.2712113893241275   T   T   T
  0.5836957305071782  0.5811598249342180  0.2718926077815722   T   T   T
  0.0824583573646961  0.5819871691014705  0.2715451458517094   T   T   T
  0.0831096123341133  0.0818777670352145  0.2703420825830767   T   T   T
  0.5837355726854581  0.0813359198302807  0.2716944426625064   T   T   T
  0.3336956054284095  0.8318395538655067  0.2705105357872832   T   T   T
  0.0829523641262757  0.8313362773145784  0.2708550608037516   T   T   T
  0.3323120825133862  0.3318007576408191  0.2714889311353831   T   T   T
  0.5832385138409962  0.3307829391653792  0.2714188348274877   T   T   T
  0.9170864538476783  0.6625310033610460  0.3774563145366145   T   T   T
  0.9153685387317864  0.4153387669356662  0.3758787262736328   T   T   T
  0.6660807502308744  0.6640675156621404  0.3760330790276036   T   T   T
  0.1667364513946044  0.1645686497821807  0.3750757126304453   T   T   T
  0.9163814077287527  0.1636094564345930  0.3761884133757287   T   T   T
  0.9166118467520801  0.9143773140434066  0.3759446147035113   T   T   T
  0.4159284115432441  0.9153461359081507  0.3757722068972687   T   T   T
  0.4168022870838439  0.1640702302914844  0.3761991270361572   T   T   T
  0.6685647979627010  0.1644773350659350  0.3775014282872838   T   T   T
  0.1670601357238156  0.6640693082689147  0.3764326778850024   T   T   T
  0.4155845683046666  0.6649713698538877  0.3754355010995986   T   T   T
  0.4159322884747762  0.4139841599978681  0.3755635175980281   T   T   T
  0.6661141673839815  0.9151344312907537  0.3780987716899631   T   T   T
  0.1654877236332203  0.4149790126545427  0.3790006924477801   T   T   T
  0.6674205000578007  0.4119063564371142  0.3780919071517199   T   T   T
  0.1665129574078078  0.9143388693594192  0.3781131826597137   T   T   T
 -0.0001959555485581  0.2478297024907738  0.4777120847316040   T   T   T
  0.5028388033744229  0.2474722077896405  0.4798297307490058   T   T   T
  0.9971649250933401  0.7452686387539842  0.4802193982297920   T   T   T
  0.5027874203998278  0.7471148887796799  0.4795142263699540   T   T   T
  0.7482600969345408  0.7480294446654042  0.4807668957852677   T   T   T
  0.9991017826325751  0.4975545201455459  0.4870844513643782   T   T   T
  0.7441641826768093  0.5021427313658940  0.4835270253246958   T   T   T
  0.2479730297379358 -0.0041252620852281  0.4849826603553531   T   T   T
  0.0039773407031725  0.9933939010350434  0.4850907470437099   T   T   T
  0.5029115606951726 -0.0041849306212115  0.4869321197936092   T   T   T
  0.2486873926740189  0.7501618694197418  0.4861795686219860   T   T   T
  0.7478923045986839  0.9960325501922888  0.4854494496004028   T   T   T
  0.2521910396138420  0.2483775258498513  0.4843918461598561   T   T   T
  0.7522230450256120  0.2559766307170698  0.4982560118612444   T   T   T
  0.2490598702664684  0.4961091885437742  0.4859069499046585   T   T   T
  0.4982563743146297  0.4985582247644746  0.4817481147666350   T   T   T
  0.9970724670000024  0.2558556729999992  0.1637003960000030   F   F   F
  0.4999617989999976  0.2500875830000027  0.1643123180000003   F   F   F
  0.9968841629999972  0.7476992069999966  0.1643590660000029   F   F   F
  0.5054474789999972  0.7476858750000019  0.1651548480000002   F   F   F
  0.7507219769999978  0.7486395119999969  0.1651830500000031   F   F   F
  0.9979410790000003  0.5014025589999989  0.1651978470000017   F   F   F
  0.7507272960000009  0.5014379059999996  0.1654730480000026   F   F   F
  0.2484077359999972  0.9989653640000000  0.1655050250000016   F   F   F
  0.0026835399999996  0.9989392600000002  0.1655775309999967   F   F   F
  0.5037179199999997  0.9979203070000011  0.1655856309999990   F   F   F
  0.2483221529999966  0.7533767729999994  0.1658259459999982   F   F   F
  0.7484137009999969  0.9978805350000002  0.1658943890000018   F   F   F
  0.2473094730000014  0.2543786680000011  0.1660089160000027   F   F   F
  0.7483561820000020  0.2543461500000035  0.1660180820000008   F   F   F
  0.2472921950000000  0.4989472700000022  0.1662971330000005   F   F   F
  0.5037960519999984  0.4989156760000029  0.1664085250000014   F   F   F
  0.3306052366050433  0.0806251289826211  0.5464204935076479   T   T   T
  0.8391036927857141  0.0675720337491615  0.5469955230924827   T   T   T
  0.3362802239574346  0.5790743557360783  0.5466809470744207   T   T   T
  0.9446750126262120  0.3401991021785461  0.5972660022047895   T   T   T
  0.0122651703925821  0.4197711085653487  0.5859130679435649   T   T   T
  0.0086344692504712  0.2179732001309415  0.6411325225331438   T   T   T
  0.1192474620465559  0.1889650615854248  0.6484377826747751   T   T   T
  0.7824823993895932  0.3913768216242700  0.5690731832483075   T   T   T
  0.6819812758133250  0.4274844318514324  0.6243065950225508   T   T   T
  0.5740875716661630  0.4675852406383674  0.6062724097277421   T   T   T
 
  0.00000000E+00  0.00000000E+00  0.00000000E+00
  0.00000000E+00  0.00000000E+00  0.00000000E+00
  0.00000000E+00  0.00000000E+00  0.00000000E+00
  0.00000000E+00  0.00000000E+00  0.00000000E+00
  0.00000000E+00  0.00000000E+00  0.00000000E+00
  0.00000000E+00  0.00000000E+00  0.00000000E+00
  0.00000000E+00  0.00000000E+00  0.00000000E+00
  0.00000000E+00  0.00000000E+00  0.00000000E+00
  0.00000000E+00  0.00000000E+00  0.00000000E+00
  0.00000000E+00  0.00000000E+00  0.00000000E+00
  0.00000000E+00  0.00000000E+00  0.00000000E+00
  0.00000000E+00  0.00000000E+00  0.00000000E+00
  0.00000000E+00  0.00000000E+00  0.00000000E+00
  0.00000000E+00  0.00000000E+00  0.00000000E+00
  0.00000000E+00  0.00000000E+00  0.00000000E+00
  0.00000000E+00  0.00000000E+00  0.00000000E+00
  0.00000000E+00  0.00000000E+00  0.00000000E+00
  0.00000000E+00  0.00000000E+00  0.00000000E+00
  0.00000000E+00  0.00000000E+00  0.00000000E+00
  0.00000000E+00  0.00000000E+00  0.00000000E+00
  0.00000000E+00  0.00000000E+00  0.00000000E+00
  0.00000000E+00  0.00000000E+00  0.00000000E+00
  0.00000000E+00  0.00000000E+00  0.00000000E+00
  0.00000000E+00  0.00000000E+00  0.00000000E+00
  0.00000000E+00  0.00000000E+00  0.00000000E+00
  0.00000000E+00  0.00000000E+00  0.00000000E+00
  0.00000000E+00  0.00000000E+00  0.00000000E+00
  0.00000000E+00  0.00000000E+00  0.00000000E+00
  0.00000000E+00  0.00000000E+00  0.00000000E+00
  0.00000000E+00  0.00000000E+00  0.00000000E+00
  0.00000000E+00  0.00000000E+00  0.00000000E+00
  0.00000000E+00  0.00000000E+00  0.00000000E+00
  0.00000000E+00  0.00000000E+00  0.00000000E+00
  0.00000000E+00  0.00000000E+00  0.00000000E+00
  0.00000000E+00  0.00000000E+00  0.00000000E+00
  0.00000000E+00  0.00000000E+00  0.00000000E+00
  0.00000000E+00  0.00000000E+00  0.00000000E+00
  0.00000000E+00  0.00000000E+00  0.00000000E+00
  0.00000000E+00  0.00000000E+00  0.00000000E+00
  0.00000000E+00  0.00000000E+00  0.00000000E+00
  0.00000000E+00  0.00000000E+00  0.00000000E+00
  0.00000000E+00  0.00000000E+00  0.00000000E+00
  0.00000000E+00  0.00000000E+00  0.00000000E+00
  0.00000000E+00  0.00000000E+00  0.00000000E+00
  0.00000000E+00  0.00000000E+00  0.00000000E+00
  0.00000000E+00  0.00000000E+00  0.00000000E+00
  0.00000000E+00  0.00000000E+00  0.00000000E+00
  0.00000000E+00  0.00000000E+00  0.00000000E+00
  0.00000000E+00  0.00000000E+00  0.00000000E+00
  0.00000000E+00  0.00000000E+00  0.00000000E+00
  0.00000000E+00  0.00000000E+00  0.00000000E+00
  0.00000000E+00  0.00000000E+00  0.00000000E+00
  0.00000000E+00  0.00000000E+00  0.00000000E+00
  0.00000000E+00  0.00000000E+00  0.00000000E+00
  0.00000000E+00  0.00000000E+00  0.00000000E+00
  0.00000000E+00  0.00000000E+00  0.00000000E+00
  0.00000000E+00  0.00000000E+00  0.00000000E+00
  0.00000000E+00  0.00000000E+00  0.00000000E+00
  0.00000000E+00  0.00000000E+00  0.00000000E+00
  0.00000000E+00  0.00000000E+00  0.00000000E+00
  0.00000000E+00  0.00000000E+00  0.00000000E+00
  0.00000000E+00  0.00000000E+00  0.00000000E+00
  0.00000000E+00  0.00000000E+00  0.00000000E+00
  0.00000000E+00  0.00000000E+00  0.00000000E+00
  0.00000000E+00  0.00000000E+00  0.00000000E+00
  0.00000000E+00  0.00000000E+00  0.00000000E+00
  0.00000000E+00  0.00000000E+00  0.00000000E+00
  0.00000000E+00  0.00000000E+00  0.00000000E+00
  0.00000000E+00  0.00000000E+00  0.00000000E+00
  0.00000000E+00  0.00000000E+00  0.00000000E+00
  0.00000000E+00  0.00000000E+00  0.00000000E+00
  0.00000000E+00  0.00000000E+00  0.00000000E+00
  0.00000000E+00  0.00000000E+00  0.00000000E+00
  0.00000000E+00  0.00000000E+00  0.00000000E+00
