 Ni\(1\1\1)                             
   1.00000000000000     
     9.8291997910000006    0.0000000000000000    0.0000000000000000
     4.9145998955000003    8.5123367178000002    0.0000000000000000
     0.0000000000000000    0.0000000000000000   19.0128002167000005
   Ni   O    C    H 
    64     3     2     2
Direct
  0.8268770878918031  0.5802875192434399  0.2706825413027161
  0.3272336722783628  0.0795017815187871  0.2689070714484778
  0.8278465877670113  0.0793908669647213  0.2678986847981661
  0.3271458761319656  0.5801801220348547  0.2686252349337034
  0.5769804952155007  0.8295532211831395  0.2691482543782592
  0.8271996735218640  0.8295784418654846  0.2690611865561212
  0.0772143980723591  0.3297939081956372  0.2702652657844741
  0.8274491514192328  0.3306441884069330  0.2694779654013797
  0.5771799554136696  0.5807085921703816  0.2694389566759035
  0.0767742136655733  0.5803059021113299  0.2695041284767671
  0.0778745649181269  0.0800561908722224  0.2687699499150134
  0.5769696539601585  0.0792939145298727  0.2686578124452829
  0.3275235700584301  0.8301059552234267  0.2688057334431356
  0.0773695413828535  0.8300935523127168  0.2684262637748894
  0.3271404420858876  0.3299952883447989  0.2689280979076509
  0.5773386501151935  0.3300058082147483  0.2680900742022462
  0.9107827216391857  0.6629980090929616  0.3758724643695275
  0.9107729430094766  0.4135086397556436  0.3774979461655829
  0.6610942746269622  0.6614832475465192  0.3766597742747058
  0.1585531457447593  0.1645936167403041  0.3759675088326643
  0.9118209828155758  0.1637382554916181  0.3733666883325111
  0.9100786618712401  0.9144656773875376  0.3736028787213208
  0.4099956133858488  0.9138786580595764  0.3750005125919959
  0.4101383794693694  0.1635890559580137  0.3739305948780447
  0.6604917409436372  0.1632746904945617  0.3723486281068064
  0.1605087864434882  0.6643496678733829  0.3739238502213629
  0.4105450647635481  0.6643714024402293  0.3743062677978322
  0.4116264157822236  0.4135274476705726  0.3735434505010419
  0.6603439037140236  0.9126602749692270  0.3742162031122293
  0.1597148620604687  0.4145869805068055  0.3751897813407002
  0.6611729260957729  0.4147988028845245  0.3739601569197967
  0.1603768996817664  0.9145249905495505  0.3741049578724715
 -0.0117539050896272  0.2466608964555451  0.4873259685283886
  0.4943186657470268  0.2465595371886987  0.4794626339806945
  0.9944775294290696  0.7502074356434235  0.4791989033553806
  0.4945356065902616  0.7461422886916639  0.4811210817847933
  0.7423435647358509  0.7484633231064799  0.4800364381597939
  0.9987002573428287  0.5007777151027262  0.4846900858257290
  0.7453919485059907  0.4944132055402786  0.4885037100378103
  0.2425239321535162 -0.0022706491783092  0.4807600536010868
 -0.0055747463736925  0.9958627889113448  0.4795334794074620
  0.4934546839863404 -0.0030538929328423  0.4804287783986202
  0.2446931859606700  0.7477928688142856  0.4801320791004199
  0.7429448406637973 -0.0030945844178493  0.4793298557611717
  0.2463868781939866  0.2446894004453760  0.4788255269429866
  0.7420763790853160  0.2429352945575896  0.4750336681021082
  0.2480684112960979  0.4975259558628274  0.4788285298976464
  0.4935939976066188  0.4978394308631705  0.4793313818294080
 -0.0056673698771399  0.2463269863467674  0.1637709395146741
  0.4940305637468763  0.2459509418846599  0.1631344039741066
 -0.0058061167616641  0.7457058819059124  0.1633656390863998
  0.4943942062757096  0.7455762336183409  0.1633499332090557
  0.7446430083558533  0.7451246731340666  0.1640031494967874
 -0.0058926030367070  0.4959703195782151  0.1642746416432203
  0.7444932461084798  0.4959874313537683  0.1640386032806527
  0.2442500997313340 -0.0041819390826112  0.1632733542679840
 -0.0055320486463581 -0.0041333391080792  0.1627964248207413
  0.4941498804888541 -0.0043552255949698  0.1631837273670433
  0.2442588808544324  0.7460073166284398  0.1628670838604102
  0.7439799589019699 -0.0041843355194898  0.1630939826410616
  0.2437179574263180  0.2460846872096888  0.1639027022968591
  0.7444537166942515  0.2463229297574569  0.1630899160957913
  0.2440783307056006  0.4961791370078650  0.1634405348629857
  0.4943605200312736  0.4962295397354168  0.1631845383894335
  0.0205277037189128  0.4720232038134788  0.5885234434159529
  0.0043970866670175  0.3214361034479113  0.6733674449901342
  0.7734088046480564  0.3156239933249960  0.6140034333288618
  0.9630089440562458  0.3898209411472982  0.6099816438745421
  0.8505609380470088  0.3635392222253998  0.5687759545042521
  0.0853552843417492  0.3422037751433657  0.6920149670236663
  0.6948518777425350  0.3023481797741743  0.5864335248591128
 
  0.00000000E+00  0.00000000E+00  0.00000000E+00
  0.00000000E+00  0.00000000E+00  0.00000000E+00
  0.00000000E+00  0.00000000E+00  0.00000000E+00
  0.00000000E+00  0.00000000E+00  0.00000000E+00
  0.00000000E+00  0.00000000E+00  0.00000000E+00
  0.00000000E+00  0.00000000E+00  0.00000000E+00
  0.00000000E+00  0.00000000E+00  0.00000000E+00
  0.00000000E+00  0.00000000E+00  0.00000000E+00
  0.00000000E+00  0.00000000E+00  0.00000000E+00
  0.00000000E+00  0.00000000E+00  0.00000000E+00
  0.00000000E+00  0.00000000E+00  0.00000000E+00
  0.00000000E+00  0.00000000E+00  0.00000000E+00
  0.00000000E+00  0.00000000E+00  0.00000000E+00
  0.00000000E+00  0.00000000E+00  0.00000000E+00
  0.00000000E+00  0.00000000E+00  0.00000000E+00
  0.00000000E+00  0.00000000E+00  0.00000000E+00
  0.00000000E+00  0.00000000E+00  0.00000000E+00
  0.00000000E+00  0.00000000E+00  0.00000000E+00
  0.00000000E+00  0.00000000E+00  0.00000000E+00
  0.00000000E+00  0.00000000E+00  0.00000000E+00
  0.00000000E+00  0.00000000E+00  0.00000000E+00
  0.00000000E+00  0.00000000E+00  0.00000000E+00
  0.00000000E+00  0.00000000E+00  0.00000000E+00
  0.00000000E+00  0.00000000E+00  0.00000000E+00
  0.00000000E+00  0.00000000E+00  0.00000000E+00
  0.00000000E+00  0.00000000E+00  0.00000000E+00
  0.00000000E+00  0.00000000E+00  0.00000000E+00
  0.00000000E+00  0.00000000E+00  0.00000000E+00
  0.00000000E+00  0.00000000E+00  0.00000000E+00
  0.00000000E+00  0.00000000E+00  0.00000000E+00
  0.00000000E+00  0.00000000E+00  0.00000000E+00
  0.00000000E+00  0.00000000E+00  0.00000000E+00
  0.00000000E+00  0.00000000E+00  0.00000000E+00
  0.00000000E+00  0.00000000E+00  0.00000000E+00
  0.00000000E+00  0.00000000E+00  0.00000000E+00
  0.00000000E+00  0.00000000E+00  0.00000000E+00
  0.00000000E+00  0.00000000E+00  0.00000000E+00
  0.00000000E+00  0.00000000E+00  0.00000000E+00
  0.00000000E+00  0.00000000E+00  0.00000000E+00
  0.00000000E+00  0.00000000E+00  0.00000000E+00
  0.00000000E+00  0.00000000E+00  0.00000000E+00
  0.00000000E+00  0.00000000E+00  0.00000000E+00
  0.00000000E+00  0.00000000E+00  0.00000000E+00
  0.00000000E+00  0.00000000E+00  0.00000000E+00
  0.00000000E+00  0.00000000E+00  0.00000000E+00
  0.00000000E+00  0.00000000E+00  0.00000000E+00
  0.00000000E+00  0.00000000E+00  0.00000000E+00
  0.00000000E+00  0.00000000E+00  0.00000000E+00
  0.00000000E+00  0.00000000E+00  0.00000000E+00
  0.00000000E+00  0.00000000E+00  0.00000000E+00
  0.00000000E+00  0.00000000E+00  0.00000000E+00
  0.00000000E+00  0.00000000E+00  0.00000000E+00
  0.00000000E+00  0.00000000E+00  0.00000000E+00
  0.00000000E+00  0.00000000E+00  0.00000000E+00
  0.00000000E+00  0.00000000E+00  0.00000000E+00
  0.00000000E+00  0.00000000E+00  0.00000000E+00
  0.00000000E+00  0.00000000E+00  0.00000000E+00
  0.00000000E+00  0.00000000E+00  0.00000000E+00
  0.00000000E+00  0.00000000E+00  0.00000000E+00
  0.00000000E+00  0.00000000E+00  0.00000000E+00
  0.00000000E+00  0.00000000E+00  0.00000000E+00
  0.00000000E+00  0.00000000E+00  0.00000000E+00
  0.00000000E+00  0.00000000E+00  0.00000000E+00
  0.00000000E+00  0.00000000E+00  0.00000000E+00
  0.00000000E+00  0.00000000E+00  0.00000000E+00
  0.00000000E+00  0.00000000E+00  0.00000000E+00
  0.00000000E+00  0.00000000E+00  0.00000000E+00
  0.00000000E+00  0.00000000E+00  0.00000000E+00
  0.00000000E+00  0.00000000E+00  0.00000000E+00
  0.00000000E+00  0.00000000E+00  0.00000000E+00
  0.00000000E+00  0.00000000E+00  0.00000000E+00
