Ni_COOHC
   1.00000000000000     
     9.8291997910000006    0.0000000000000000    0.0000000000000000
     4.9145998955000003    8.5123367178000002    0.0000000000000000
     0.0000000000000000    0.0000000000000000   19.0128002167000005
   Ni   O    C    H 
    64     2     2     1
Selective dynamics
Direct
      0.8346287347166208      0.5791643790300325      0.2700701507011430   T T T
      0.3360084743882482      0.0784496362798571      0.2685648742955735   T T T
      0.8339683714079710      0.0781923133187831      0.2703313258802405   T T T
      0.3345783572214228      0.5786807514359086      0.2699250544438518   T T T
      0.5845178713916382      0.8296082883353028      0.2688802685271559   T T T
      0.8352093530439650      0.8274767113365367      0.2703906909306369   T T T
      0.0850593822017394      0.3288271286601306      0.2699966482240747   T T T
      0.8346720000652219      0.3287808301647681      0.2700794058638845   T T T
      0.5845925881890722      0.5788612438817188      0.2697300375185272   T T T
      0.0844889714668306      0.5785832155043845      0.2709188597418048   T T T
      0.0847485170624242      0.0786998090196815      0.2695401236837005   T T T
      0.5848798559869657      0.0785398388767328      0.2698644601741564   T T T
      0.3347147871108816      0.8288229468993753      0.2697182198840344   T T T
      0.0846772241882800      0.8286414907898595      0.2699616538382496   T T T
      0.3337125811275535      0.3291185844123986      0.2702000618220096   T T T
      0.5842481081609743      0.3280580479709585      0.2703649229456779   T T T
      0.9193743572001266      0.6583530253274625      0.3778396496245556   T T T
      0.9183556956346871      0.4116890944808954      0.3752079343336629   T T T
      0.6682885259257648      0.6625341272818870      0.3742216155462387   T T T
      0.1699422241573835      0.1615285065012959      0.3737313498320803   T T T
      0.9173703969615535      0.1612536360708476      0.3748246783617110   T T T
      0.9184255269771070      0.9109039369830060      0.3753049679356102   T T T
      0.4190346001423131      0.9120778084728657      0.3744163360448307   T T T
      0.4192632540988529      0.1619650745026225      0.3748245732845092   T T T
      0.6697644523871882      0.1625735904394496      0.3769466497498600   T T T
      0.1683621168424407      0.6617001965480216      0.3754882756844760   T T T
      0.4189709373176903      0.6614968353722055      0.3750667593858751   T T T
      0.4180156452154085      0.4114982059968025      0.3753040313853936   T T T
      0.6692950807365784      0.9116429918760532      0.3750655068582459   T T T
      0.1659702100917173      0.4124761751278176      0.3774157990101448   T T T
      0.6682142784996322      0.4107275913607124      0.3750041555999004   T T T
      0.1682851947044285      0.9124415919418857      0.3749936250916456   T T T
      0.0089261520853569      0.2360408197937835      0.4786332897428587   T T T
      0.5035157218737083      0.2450711682927551      0.4812151545950288   T T T
      0.0014230922263442      0.7443103361116220      0.4812771303175483   T T T
      0.5002368271056895      0.7466481863117636      0.4801762089439539   T T T
      0.7491713515508077      0.7470828972929242      0.4803421320624435   T T T
      0.0017948529689339      0.4943429575031235      0.4923517187107148   T T T
      0.7444609111258442      0.5002688079883313      0.4802415844345922   T T T
      0.2544671407608385     -0.0071659036326597      0.4799443624842907   T T T
      0.0040094502274732      0.9891027785555971      0.4809923179757389   T T T
      0.5026022673834303     -0.0045980754806521      0.4805566221788332   T T T
      0.2516845838278322      0.7447264919989599      0.4809878912761043   T T T
      0.7523448372736261     -0.0041286705589590      0.4812664470826055   T T T
      0.2555139873794763      0.2421166485188599      0.4798075514531731   T T T
      0.7541425409899276      0.2461226996153714      0.4916294380126933   T T T
      0.2516622769726107      0.4947799820539811      0.4810570523823200   T T T
      0.4970289757448382      0.4968239105971832      0.4808811502802980   T T T
      0.0004555484252019      0.2456046585780242      0.1643753668053267   F F F
      0.5005324681062092      0.2455646066095947      0.1646031740638021   F F F
      0.0009760006049548      0.7450402796589157      0.1645952331661835   F F F
      0.5008058163858600      0.7449194888213773      0.1640666252444381   F F F
      0.7512859087074882      0.7448789560532244      0.1640763806020366   F F F
      0.0008474074700770      0.4954693527452910      0.1644829680224874   F F F
      0.7509671892814617      0.4951496321918295      0.1644523829851347   F F F
      0.2504051775375338     -0.0045815323683008      0.1639192671013388   F F F
      0.0006801404990975     -0.0048125199604784      0.1642946128243385   F F F
      0.5010242567881344     -0.0046794022834189      0.1631627269335074   F F F
      0.2506524507488696      0.7453582842210755      0.1641499982297444   F F F
      0.7510062966950353     -0.0050504330049105      0.1645960003091399   F F F
      0.2503835010969362      0.2457014271450278      0.1639225408468469   F F F
      0.7506831784908385      0.2452291360188986      0.1648990958513896   F F F
      0.2504741762389099      0.4955855528629760      0.1645716058256273   F F F
      0.5005737795920527      0.4954322529564170      0.1643429126913124   F F F
     -0.0154992692567746      0.4515475979649113      0.5981718996884259   T T T
     -0.0796752374467954      0.3029687661434919      0.6658700868926508   T T T
      0.9201686746112799      0.3675969390080653      0.6037575779688545   T T T
      0.8482821087943223      0.3381369621443119      0.5436031882918456   T T T
     -0.0198015924901127      0.3297304553314421      0.6989070935189229   T T T
 
  0.00000000E+00  0.00000000E+00  0.00000000E+00
  0.00000000E+00  0.00000000E+00  0.00000000E+00
  0.00000000E+00  0.00000000E+00  0.00000000E+00
  0.00000000E+00  0.00000000E+00  0.00000000E+00
  0.00000000E+00  0.00000000E+00  0.00000000E+00
  0.00000000E+00  0.00000000E+00  0.00000000E+00
  0.00000000E+00  0.00000000E+00  0.00000000E+00
  0.00000000E+00  0.00000000E+00  0.00000000E+00
  0.00000000E+00  0.00000000E+00  0.00000000E+00
  0.00000000E+00  0.00000000E+00  0.00000000E+00
  0.00000000E+00  0.00000000E+00  0.00000000E+00
  0.00000000E+00  0.00000000E+00  0.00000000E+00
  0.00000000E+00  0.00000000E+00  0.00000000E+00
  0.00000000E+00  0.00000000E+00  0.00000000E+00
  0.00000000E+00  0.00000000E+00  0.00000000E+00
  0.00000000E+00  0.00000000E+00  0.00000000E+00
  0.00000000E+00  0.00000000E+00  0.00000000E+00
  0.00000000E+00  0.00000000E+00  0.00000000E+00
  0.00000000E+00  0.00000000E+00  0.00000000E+00
  0.00000000E+00  0.00000000E+00  0.00000000E+00
  0.00000000E+00  0.00000000E+00  0.00000000E+00
  0.00000000E+00  0.00000000E+00  0.00000000E+00
  0.00000000E+00  0.00000000E+00  0.00000000E+00
  0.00000000E+00  0.00000000E+00  0.00000000E+00
  0.00000000E+00  0.00000000E+00  0.00000000E+00
  0.00000000E+00  0.00000000E+00  0.00000000E+00
  0.00000000E+00  0.00000000E+00  0.00000000E+00
  0.00000000E+00  0.00000000E+00  0.00000000E+00
  0.00000000E+00  0.00000000E+00  0.00000000E+00
  0.00000000E+00  0.00000000E+00  0.00000000E+00
  0.00000000E+00  0.00000000E+00  0.00000000E+00
  0.00000000E+00  0.00000000E+00  0.00000000E+00
  0.00000000E+00  0.00000000E+00  0.00000000E+00
  0.00000000E+00  0.00000000E+00  0.00000000E+00
  0.00000000E+00  0.00000000E+00  0.00000000E+00
  0.00000000E+00  0.00000000E+00  0.00000000E+00
  0.00000000E+00  0.00000000E+00  0.00000000E+00
  0.00000000E+00  0.00000000E+00  0.00000000E+00
  0.00000000E+00  0.00000000E+00  0.00000000E+00
  0.00000000E+00  0.00000000E+00  0.00000000E+00
  0.00000000E+00  0.00000000E+00  0.00000000E+00
  0.00000000E+00  0.00000000E+00  0.00000000E+00
  0.00000000E+00  0.00000000E+00  0.00000000E+00
  0.00000000E+00  0.00000000E+00  0.00000000E+00
  0.00000000E+00  0.00000000E+00  0.00000000E+00
  0.00000000E+00  0.00000000E+00  0.00000000E+00
  0.00000000E+00  0.00000000E+00  0.00000000E+00
  0.00000000E+00  0.00000000E+00  0.00000000E+00
  0.00000000E+00  0.00000000E+00  0.00000000E+00
  0.00000000E+00  0.00000000E+00  0.00000000E+00
  0.00000000E+00  0.00000000E+00  0.00000000E+00
  0.00000000E+00  0.00000000E+00  0.00000000E+00
  0.00000000E+00  0.00000000E+00  0.00000000E+00
  0.00000000E+00  0.00000000E+00  0.00000000E+00
  0.00000000E+00  0.00000000E+00  0.00000000E+00
  0.00000000E+00  0.00000000E+00  0.00000000E+00
  0.00000000E+00  0.00000000E+00  0.00000000E+00
  0.00000000E+00  0.00000000E+00  0.00000000E+00
  0.00000000E+00  0.00000000E+00  0.00000000E+00
  0.00000000E+00  0.00000000E+00  0.00000000E+00
  0.00000000E+00  0.00000000E+00  0.00000000E+00
  0.00000000E+00  0.00000000E+00  0.00000000E+00
  0.00000000E+00  0.00000000E+00  0.00000000E+00
  0.00000000E+00  0.00000000E+00  0.00000000E+00
  0.00000000E+00  0.00000000E+00  0.00000000E+00
  0.00000000E+00  0.00000000E+00  0.00000000E+00
  0.00000000E+00  0.00000000E+00  0.00000000E+00
  0.00000000E+00  0.00000000E+00  0.00000000E+00
  0.00000000E+00  0.00000000E+00  0.00000000E+00
