Zr                                      
   1.00000000000000     
    12.8199000000000005    0.0000000000000000    0.0000000000000008
    -6.4099499999999985   11.1023590739761264    0.0000000000000008
     0.0000000000000000    0.0000000000000000   17.5865000000000009
   Zr   C    O 
    64     1     1
Selective dynamics
Direct
  0.0833299999999966  0.1666700000000034  0.0000000000000000   F   F   F
  0.0837108705743861  0.1670711770829991  0.2922516524856112   T   T   T
  0.1666700000000034  0.0833299999999966  0.1437900000000027   F   F   F
  0.1667561845453228  0.0838638383027119  0.4310924323055361   T   T   T
  0.3333332999999996  0.1666700000000034  0.0000000000000000   F   F   F
  0.3341934202325965  0.1678263357529562  0.2932844861649897   T   T   T
  0.4166700000000034  0.0833299999999966  0.1437900000000027   F   F   F
  0.4176568194400510  0.0857140714149013  0.4332056383140282   T   T   T
  0.5833299999999966  0.1666700000000034  0.0000000000000000   F   F   F
  0.5829729117220033  0.1658914401522409  0.2939383175978002   T   T   T
  0.6666667000000004  0.0833299999999966  0.1437900000000027   F   F   F
  0.6683108848598968  0.0858285110214968  0.4333199956383983   T   T   T
  0.8333299999999966  0.1666700000000034  0.0000000000000000   F   F   F
  0.8336860118187749  0.1679470460613129  0.2933080404498349   T   T   T
  0.9166700000000034  0.0833299999999966  0.1437900000000027   F   F   F
  0.9173311886651726  0.0838895713653973  0.4309801791821954   T   T   T
  0.0833299999999966  0.4166700000000034  0.0000000000000000   F   F   F
  0.0840632705870727  0.4166117554665577  0.2942293883185256   T   T   T
  0.1666700000000034  0.3333332999999996  0.1437900000000027   F   F   F
  0.1649422010068337  0.3300829498503857  0.4326290304020770   T   T   T
  0.3333332999999996  0.4166700000000034  0.0000000000000000   F   F   F
  0.3326095090086633  0.4169187910941773  0.2942698440431318   T   T   T
  0.4166700000000034  0.3333332999999996  0.1437900000000027   F   F   F
  0.4175533650996351  0.3337129156275737  0.4328395165401950   T   T   T
  0.5833299999999966  0.4166700000000034  0.0000000000000000   F   F   F
  0.5829729502325361  0.4185647269847395  0.2937138689373768   T   T   T
  0.6666667000000004  0.3333332999999996  0.1437900000000027   F   F   F
  0.6673978820550944  0.3347118274793009  0.4313409526881210   T   T   T
  0.8333299999999966  0.4166700000000034  0.0000000000000000   F   F   F
  0.8355834440673980  0.4185391905760840  0.2937393003627467   T   T   T
  0.9166700000000034  0.3333332999999996  0.1437900000000027   F   F   F
  0.9162910171805712  0.3338026082907712  0.4330323138989639   T   T   T
  0.0833299999999966  0.6666667000000004  0.0000000000000000   F   F   F
  0.0843328470112780  0.6685524667799978  0.2942215583933744   T   T   T
  0.1666700000000034  0.5833299999999966  0.1437900000000027   F   F   F
  0.1711609604101035  0.5858703939724222  0.4325711823191672   T   T   T
  0.3333332999999996  0.6666667000000004  0.0000000000000000   F   F   F
  0.3338844352837629  0.6680136321548509  0.2910324374277123   T   T   T
  0.4166700000000034  0.5833299999999966  0.1437900000000027   F   F   F
  0.4150149318713526  0.5864164142823005  0.4325972382397776   T   T   T
  0.5833299999999966  0.6666667000000004  0.0000000000000000   F   F   F
  0.5841806780068052  0.6686658229100797  0.2942580056887123   T   T   T
  0.6666667000000004  0.5833299999999966  0.1437900000000027   F   F   F
  0.6682229531026261  0.5843888376052554  0.4328470353178195   T   T   T
  0.8333299999999966  0.6666667000000004  0.0000000000000000   F   F   F
  0.8337203280323993  0.6673177309164995  0.2933561751800484   T   T   T
  0.9166700000000034  0.5833299999999966  0.1437900000000027   F   F   F
  0.9163800524834445  0.5843311495813922  0.4329165610725629   T   T   T
  0.0833299999999966  0.9166700000000034  0.0000000000000000   F   F   F
  0.0828509958489128  0.9176366899322800  0.2921893492266741   T   T   T
  0.1666700000000034  0.8333299999999966  0.1437900000000027   F   F   F
  0.1655851151031373  0.8367340758485167  0.4321206550409518   T   T   T
  0.3333332999999996  0.9166700000000034  0.0000000000000000   F   F   F
  0.3329132401403357  0.9179136467566907  0.2939622478873766   T   T   T
  0.4166700000000034  0.8333299999999966  0.1437900000000027   F   F   F
  0.4162153251833134  0.8314608342473443  0.4319262564296642   T   T   T
  0.5833299999999966  0.9166700000000034  0.0000000000000000   F   F   F
  0.5853148212388168  0.9180336407365752  0.2939313672704150   T   T   T
  0.6666667000000004  0.8333299999999966  0.1437900000000027   F   F   F
  0.6716287379908366  0.8370852092647997  0.4323472811813560   T   T   T
  0.8333299999999966  0.9166700000000034  0.0000000000000000   F   F   F
  0.8348110979270267  0.9174766457895127  0.2921768450885715   T   T   T
  0.9166700000000034  0.8333299999999966  0.1437900000000027   F   F   F
  0.9175937991436056  0.8349810855625948  0.4315068720751294   T   T   T
  0.3352019947921849  0.6674382957561393  0.5240578545116363   T   T   T
  0.3346798937113668  0.6716714442045663  0.5926007102440802   T   T   T
 
  0.00000000E+00  0.00000000E+00  0.00000000E+00
  0.00000000E+00  0.00000000E+00  0.00000000E+00
  0.00000000E+00  0.00000000E+00  0.00000000E+00
  0.00000000E+00  0.00000000E+00  0.00000000E+00
  0.00000000E+00  0.00000000E+00  0.00000000E+00
  0.00000000E+00  0.00000000E+00  0.00000000E+00
  0.00000000E+00  0.00000000E+00  0.00000000E+00
  0.00000000E+00  0.00000000E+00  0.00000000E+00
  0.00000000E+00  0.00000000E+00  0.00000000E+00
  0.00000000E+00  0.00000000E+00  0.00000000E+00
  0.00000000E+00  0.00000000E+00  0.00000000E+00
  0.00000000E+00  0.00000000E+00  0.00000000E+00
  0.00000000E+00  0.00000000E+00  0.00000000E+00
  0.00000000E+00  0.00000000E+00  0.00000000E+00
  0.00000000E+00  0.00000000E+00  0.00000000E+00
  0.00000000E+00  0.00000000E+00  0.00000000E+00
  0.00000000E+00  0.00000000E+00  0.00000000E+00
  0.00000000E+00  0.00000000E+00  0.00000000E+00
  0.00000000E+00  0.00000000E+00  0.00000000E+00
  0.00000000E+00  0.00000000E+00  0.00000000E+00
  0.00000000E+00  0.00000000E+00  0.00000000E+00
  0.00000000E+00  0.00000000E+00  0.00000000E+00
  0.00000000E+00  0.00000000E+00  0.00000000E+00
  0.00000000E+00  0.00000000E+00  0.00000000E+00
  0.00000000E+00  0.00000000E+00  0.00000000E+00
  0.00000000E+00  0.00000000E+00  0.00000000E+00
  0.00000000E+00  0.00000000E+00  0.00000000E+00
  0.00000000E+00  0.00000000E+00  0.00000000E+00
  0.00000000E+00  0.00000000E+00  0.00000000E+00
  0.00000000E+00  0.00000000E+00  0.00000000E+00
  0.00000000E+00  0.00000000E+00  0.00000000E+00
  0.00000000E+00  0.00000000E+00  0.00000000E+00
  0.00000000E+00  0.00000000E+00  0.00000000E+00
  0.00000000E+00  0.00000000E+00  0.00000000E+00
  0.00000000E+00  0.00000000E+00  0.00000000E+00
  0.00000000E+00  0.00000000E+00  0.00000000E+00
  0.00000000E+00  0.00000000E+00  0.00000000E+00
  0.00000000E+00  0.00000000E+00  0.00000000E+00
  0.00000000E+00  0.00000000E+00  0.00000000E+00
  0.00000000E+00  0.00000000E+00  0.00000000E+00
  0.00000000E+00  0.00000000E+00  0.00000000E+00
  0.00000000E+00  0.00000000E+00  0.00000000E+00
  0.00000000E+00  0.00000000E+00  0.00000000E+00
  0.00000000E+00  0.00000000E+00  0.00000000E+00
  0.00000000E+00  0.00000000E+00  0.00000000E+00
  0.00000000E+00  0.00000000E+00  0.00000000E+00
  0.00000000E+00  0.00000000E+00  0.00000000E+00
  0.00000000E+00  0.00000000E+00  0.00000000E+00
  0.00000000E+00  0.00000000E+00  0.00000000E+00
  0.00000000E+00  0.00000000E+00  0.00000000E+00
  0.00000000E+00  0.00000000E+00  0.00000000E+00
  0.00000000E+00  0.00000000E+00  0.00000000E+00
  0.00000000E+00  0.00000000E+00  0.00000000E+00
  0.00000000E+00  0.00000000E+00  0.00000000E+00
  0.00000000E+00  0.00000000E+00  0.00000000E+00
  0.00000000E+00  0.00000000E+00  0.00000000E+00
  0.00000000E+00  0.00000000E+00  0.00000000E+00
  0.00000000E+00  0.00000000E+00  0.00000000E+00
  0.00000000E+00  0.00000000E+00  0.00000000E+00
  0.00000000E+00  0.00000000E+00  0.00000000E+00
  0.00000000E+00  0.00000000E+00  0.00000000E+00
  0.00000000E+00  0.00000000E+00  0.00000000E+00
  0.00000000E+00  0.00000000E+00  0.00000000E+00
  0.00000000E+00  0.00000000E+00  0.00000000E+00
  0.00000000E+00  0.00000000E+00  0.00000000E+00
  0.00000000E+00  0.00000000E+00  0.00000000E+00
