 Ni\(1\1\1)                             
   1.00000000000000     
     9.8291997910000006    0.0000000000000000    0.0000000000000000
     4.9145998955000003    8.5123367178000002    0.0000000000000000
     0.0000000000000000    0.0000000000000000   19.0128002167000005
   Ni   O    C    H 
    64     2     2     2
Direct
  0.8330666096467656  0.5785845544661506  0.2708499796925399
  0.3336434084516836  0.0781562505149236  0.2692616082111532
  0.8329056661180054  0.0781584930214724  0.2700012785386836
  0.3329229507715931  0.5784318962827414  0.2696767609414412
  0.5827117095461156  0.8291176487414368  0.2692678593433716
  0.8333816896256628  0.8274319861774362  0.2700951879434816
  0.0833077630425552  0.3282275886064278  0.2707149977729902
  0.8333179916132404  0.3284759714064370  0.2701031454890823
  0.5833062546731352  0.5786015200534502  0.2700042868222921
  0.0830485405116007  0.5780677048099557  0.2707747418946273
  0.0834431132606302  0.0783157927714877  0.2697252119048867
  0.5832654331740524  0.0783965921295325  0.2703738025587620
  0.3332832079666170  0.8282747324891331  0.2694339649256380
  0.0830222981709643  0.8283156476915335  0.2696272951755622
  0.3325819480591098  0.3285695616026974  0.2700335196361517
  0.5831381360184417  0.3282345180167200  0.2700191674574620
  0.9171845545340847  0.6591613038808426  0.3774284791140717
  0.9163012283429320  0.4116857145583123  0.3767674133944627
  0.6664272144774308  0.6614955401633961  0.3754017431880002
  0.1659555427271613  0.1616064423805004  0.3752121414345033
  0.9164816050405841  0.1615335863193250  0.3748458712139840
  0.9163315612942581  0.9109280687643326  0.3749883022978328
  0.4164578834268010  0.9118789707811094  0.3748865240530967
  0.4163690719064863  0.1618474614807838  0.3749187971661238
  0.6675291261165004  0.1623965912197085  0.3762327820814473
  0.1664483250790627  0.6616309264213486  0.3749939637491769
  0.4165245171593151  0.6619638208185914  0.3748146727068369
  0.4164108211254103  0.4116203333983900  0.3749484845544953
  0.6667875248298848  0.9110819135240510  0.3750037648277422
  0.1647030994715090  0.4121480276476694  0.3768239293875502
  0.6666223336667603  0.4116540201793544  0.3751742031861728
  0.1665493186192654  0.9116919972660320  0.3747312508465762
  0.0013443665847568  0.2394398925640225  0.4818942612195718
  0.4991992196412023  0.2454040084779024  0.4806217473561955
 -0.0002926477071892  0.7461194335857646  0.4807082033472205
  0.4987375282003671  0.7462765835420467  0.4805792158237658
  0.7473279215918309  0.7473606310779674  0.4803228131379148
  0.0015650093950453  0.4959525024833092  0.4888553851133174
  0.7443206650755354  0.4978026456570341  0.4830265170982919
  0.2504571942637129  0.9942178754224084  0.4804796388789109
  0.0008995778058529  0.9913529004261699  0.4801891241518926
  0.4995342833589616  0.9953025361634995  0.4807491542494011
  0.2493764738520534  0.7457760049728959  0.4806001277901432
  0.7492503712894140  0.9949256946576389  0.4807319274304026
  0.2521017400097034  0.2426993297657593  0.4795112355409486
  0.7490503492757550  0.2442111799166111  0.4836881081725700
  0.2507775789873823  0.4958337632293613  0.4803614500031181
  0.4953278548759771  0.4976999876630466  0.4802390706921705
  0.9997246480924187  0.2454662790904440  0.1645666588862123
  0.4998534271954410  0.2450834460487335  0.1646069752833898
  0.9997858284347996  0.7450049067373135  0.1645099223783893
  0.4997839402666311  0.7450302939103707  0.1640071217401622
  0.7500888011056498  0.7449008910272493  0.1645240677323100
  0.9996744505345351  0.4952878998927295  0.1649211858035490
  0.7500033396020803  0.4950674673861111  0.1646479288873231
  0.2493655038717909 -0.0047046936957599  0.1638978511424528
  0.9998477459614801 -0.0050585945083500  0.1640716005156817
  0.4999530365415101 -0.0046119740091438  0.1636923701405876
  0.2497286315682886  0.7453501325486841  0.1637601645017900
  0.7499678505916160 -0.0050201268264288  0.1645635895337439
  0.2493621507475375  0.2455896165668530  0.1645175728605325
  0.7498700165659867  0.2452472873842119  0.1646627498784734
  0.2497051668483835  0.4952869933812143  0.1645131866560505
  0.4995908177197382  0.4952957691808867  0.1642874478824370
 -0.0029568352045397  0.4542915243620169  0.5907565802817616
 -0.0565466206429385  0.3193418102750253  0.6706862217762452
  0.9300012123661121  0.3747478530180578  0.6044921952397219
  0.8392614455613391  0.3399018819357525  0.5556467000402456
  0.0128836537279994  0.3467753258033409  0.6964264770617568
  0.7787385795761432  0.2849686172999719  0.5840305672611569
 
  0.00000000E+00  0.00000000E+00  0.00000000E+00
  0.00000000E+00  0.00000000E+00  0.00000000E+00
  0.00000000E+00  0.00000000E+00  0.00000000E+00
  0.00000000E+00  0.00000000E+00  0.00000000E+00
  0.00000000E+00  0.00000000E+00  0.00000000E+00
  0.00000000E+00  0.00000000E+00  0.00000000E+00
  0.00000000E+00  0.00000000E+00  0.00000000E+00
  0.00000000E+00  0.00000000E+00  0.00000000E+00
  0.00000000E+00  0.00000000E+00  0.00000000E+00
  0.00000000E+00  0.00000000E+00  0.00000000E+00
  0.00000000E+00  0.00000000E+00  0.00000000E+00
  0.00000000E+00  0.00000000E+00  0.00000000E+00
  0.00000000E+00  0.00000000E+00  0.00000000E+00
  0.00000000E+00  0.00000000E+00  0.00000000E+00
  0.00000000E+00  0.00000000E+00  0.00000000E+00
  0.00000000E+00  0.00000000E+00  0.00000000E+00
  0.00000000E+00  0.00000000E+00  0.00000000E+00
  0.00000000E+00  0.00000000E+00  0.00000000E+00
  0.00000000E+00  0.00000000E+00  0.00000000E+00
  0.00000000E+00  0.00000000E+00  0.00000000E+00
  0.00000000E+00  0.00000000E+00  0.00000000E+00
  0.00000000E+00  0.00000000E+00  0.00000000E+00
  0.00000000E+00  0.00000000E+00  0.00000000E+00
  0.00000000E+00  0.00000000E+00  0.00000000E+00
  0.00000000E+00  0.00000000E+00  0.00000000E+00
  0.00000000E+00  0.00000000E+00  0.00000000E+00
  0.00000000E+00  0.00000000E+00  0.00000000E+00
  0.00000000E+00  0.00000000E+00  0.00000000E+00
  0.00000000E+00  0.00000000E+00  0.00000000E+00
  0.00000000E+00  0.00000000E+00  0.00000000E+00
  0.00000000E+00  0.00000000E+00  0.00000000E+00
  0.00000000E+00  0.00000000E+00  0.00000000E+00
  0.00000000E+00  0.00000000E+00  0.00000000E+00
  0.00000000E+00  0.00000000E+00  0.00000000E+00
  0.00000000E+00  0.00000000E+00  0.00000000E+00
  0.00000000E+00  0.00000000E+00  0.00000000E+00
  0.00000000E+00  0.00000000E+00  0.00000000E+00
  0.00000000E+00  0.00000000E+00  0.00000000E+00
  0.00000000E+00  0.00000000E+00  0.00000000E+00
  0.00000000E+00  0.00000000E+00  0.00000000E+00
  0.00000000E+00  0.00000000E+00  0.00000000E+00
  0.00000000E+00  0.00000000E+00  0.00000000E+00
  0.00000000E+00  0.00000000E+00  0.00000000E+00
  0.00000000E+00  0.00000000E+00  0.00000000E+00
  0.00000000E+00  0.00000000E+00  0.00000000E+00
  0.00000000E+00  0.00000000E+00  0.00000000E+00
  0.00000000E+00  0.00000000E+00  0.00000000E+00
  0.00000000E+00  0.00000000E+00  0.00000000E+00
  0.00000000E+00  0.00000000E+00  0.00000000E+00
  0.00000000E+00  0.00000000E+00  0.00000000E+00
  0.00000000E+00  0.00000000E+00  0.00000000E+00
  0.00000000E+00  0.00000000E+00  0.00000000E+00
  0.00000000E+00  0.00000000E+00  0.00000000E+00
  0.00000000E+00  0.00000000E+00  0.00000000E+00
  0.00000000E+00  0.00000000E+00  0.00000000E+00
  0.00000000E+00  0.00000000E+00  0.00000000E+00
  0.00000000E+00  0.00000000E+00  0.00000000E+00
  0.00000000E+00  0.00000000E+00  0.00000000E+00
  0.00000000E+00  0.00000000E+00  0.00000000E+00
  0.00000000E+00  0.00000000E+00  0.00000000E+00
  0.00000000E+00  0.00000000E+00  0.00000000E+00
  0.00000000E+00  0.00000000E+00  0.00000000E+00
  0.00000000E+00  0.00000000E+00  0.00000000E+00
  0.00000000E+00  0.00000000E+00  0.00000000E+00
  0.00000000E+00  0.00000000E+00  0.00000000E+00
  0.00000000E+00  0.00000000E+00  0.00000000E+00
  0.00000000E+00  0.00000000E+00  0.00000000E+00
  0.00000000E+00  0.00000000E+00  0.00000000E+00
  0.00000000E+00  0.00000000E+00  0.00000000E+00
  0.00000000E+00  0.00000000E+00  0.00000000E+00
