 Ni\(1\1\1)                             
   1.00000000000000     
     9.8291997910000006    0.0000000000000000    0.0000000000000000
     4.9145998955000003    8.5123367178000002    0.0000000000000000
     0.0000000000000000    0.0000000000000000   19.0128002167000005
   Ni   O    C    H 
    64     2     2     1
Direct
  0.8358945217824080  0.5844665754044879  0.2720494503328340
  0.3352218913660531  0.0850209842307385  0.2722220278549202
  0.8360872623259659  0.0849388228259868  0.2719408601654735
  0.3360551039352814  0.5845165920001179  0.2716111732562133
  0.5856329917613335  0.8352107910246047  0.2713927025904102
  0.8358713124469664  0.8347938441894384  0.2718125527014089
  0.0863384200545619  0.3341225233387193  0.2720277558834016
  0.8362707077150132  0.3341322149195032  0.2727242457177734
  0.5861172385792993  0.5845397394247104  0.2720844515667237
  0.0859440363747163  0.5845590237584918  0.2716341838554528
  0.0859285638356404  0.0847700374119177  0.2725732965702989
  0.5857850191017461  0.0849189306171735  0.2719946272812772
  0.3359652952474179  0.8348164804322289  0.2718304965918029
  0.0859146537654613  0.8346300840818456  0.2716199394057981
  0.3361052907641536  0.3344893520207088  0.2718720543203869
  0.5861929363970406  0.3343596900862832  0.2714157274434683
  0.9194853141299592  0.6672720841731044  0.3767022108889383
  0.9198160667194760  0.4168871007018730  0.3780203968385487
  0.6702346737567667  0.6669056712284043  0.3776268297639576
  0.1673634138190639  0.1684876859278969  0.3792560876375602
  0.9198472479587293  0.1681360435670132  0.3789432873686592
  0.9197241360058132  0.9175904401320706  0.3768921446999077
  0.4197686930813601  0.9173210373136882  0.3769874861129877
  0.4196088729258324  0.1672339960422841  0.3771410924151153
  0.6700626822735894  0.1676387094587101  0.3771027136513921
  0.1698475683712780  0.6672232805182733  0.3769575714755117
  0.4202355234745530  0.6671180038474065  0.3770161681204343
  0.4201644767625241  0.4171981952304913  0.3768632229304791
  0.6697192741355432  0.9172317477140041  0.3769173264008079
  0.1697005089533101  0.4171653402863106  0.3768507977871852
  0.6703492759251822  0.4177167036243526  0.3776046898857978
  0.1698848743517341  0.9171943250378620  0.3771961098258448
  0.0071875327191668  0.2469604161239308  0.4897229207282123
  0.5028825190005810  0.2500929370453889  0.4828774259229914
  0.0030604651760777  0.7502708242467160  0.4827394743496815
  0.5018387273274005  0.7510781545206385  0.4829404118592833
  0.7527488198611538  0.7514440042457541  0.4824987642450492
  0.0049735319765622  0.5026363063406623  0.4815441763625268
  0.7520378792573269  0.5006953264266287  0.4867008599081922
  0.2544465685222382  0.9985249824244206  0.4830610979812560
  0.0034440637192525  0.9973830140982270  0.4826017551756385
  0.5031023278348106 -0.0000125512254285  0.4827667952993541
  0.2530578560481949  0.7499017085800443  0.4829718673000928
  0.7527957571577176  0.0004342039305284  0.4827037191717623
  0.2551918840052095  0.2501527808703317  0.4827687000710266
  0.7490810287053302  0.2507968678590033  0.4831987112837652
  0.2531699643304724  0.5003820377015672  0.4827420331744784
  0.4995710769415899  0.5015204332751275  0.4825409573907787
  0.0022593870570270  0.2518239078423706  0.1667499002474023
  0.5022167927536179  0.2517536889965957  0.1660156495049028
  0.0025465475960374  0.7517417960089983  0.1658721684062162
  0.5024819103449889  0.7514901746275630  0.1662179247568610
  0.7525939788934480  0.7514426941031734  0.1661961344974521
  0.0023584396646791  0.5018648427866574  0.1662647740007522
  0.7525385118321388  0.5016727972377859  0.1666580530886969
  0.2521682141617820  0.0018227449050033  0.1665613686591145
  0.0023020820347701  0.0019649031224013  0.1662604935554701
  0.5022688045948045  0.0020228853075404  0.1661199126472531
  0.2522640501206115  0.7520485181591469  0.1660071883682613
  0.7524012453278229  0.0019357925355987  0.1663534792122066
  0.2523163444180324  0.2518603176619738  0.1663319710175550
  0.7525263020344547  0.2519195439414479  0.1663530659501365
  0.2523102807063331  0.5019311511968081  0.1660720038116054
  0.5025143547270757  0.5017507354562524  0.1660467192300898
  0.9395586947717878  0.3042801907602498  0.5909184963690677
  0.7411425713659636  0.5771091126452972  0.6814159243618024
  0.8096167062621953  0.4217517016515616  0.5756604970911744
  0.6953650971416249  0.5343991645715437  0.6313471799001169
  0.5693142285099456  0.5798932084478251  0.6176819627590406
 
  0.00000000E+00  0.00000000E+00  0.00000000E+00
  0.00000000E+00  0.00000000E+00  0.00000000E+00
  0.00000000E+00  0.00000000E+00  0.00000000E+00
  0.00000000E+00  0.00000000E+00  0.00000000E+00
  0.00000000E+00  0.00000000E+00  0.00000000E+00
  0.00000000E+00  0.00000000E+00  0.00000000E+00
  0.00000000E+00  0.00000000E+00  0.00000000E+00
  0.00000000E+00  0.00000000E+00  0.00000000E+00
  0.00000000E+00  0.00000000E+00  0.00000000E+00
  0.00000000E+00  0.00000000E+00  0.00000000E+00
  0.00000000E+00  0.00000000E+00  0.00000000E+00
  0.00000000E+00  0.00000000E+00  0.00000000E+00
  0.00000000E+00  0.00000000E+00  0.00000000E+00
  0.00000000E+00  0.00000000E+00  0.00000000E+00
  0.00000000E+00  0.00000000E+00  0.00000000E+00
  0.00000000E+00  0.00000000E+00  0.00000000E+00
  0.00000000E+00  0.00000000E+00  0.00000000E+00
  0.00000000E+00  0.00000000E+00  0.00000000E+00
  0.00000000E+00  0.00000000E+00  0.00000000E+00
  0.00000000E+00  0.00000000E+00  0.00000000E+00
  0.00000000E+00  0.00000000E+00  0.00000000E+00
  0.00000000E+00  0.00000000E+00  0.00000000E+00
  0.00000000E+00  0.00000000E+00  0.00000000E+00
  0.00000000E+00  0.00000000E+00  0.00000000E+00
  0.00000000E+00  0.00000000E+00  0.00000000E+00
  0.00000000E+00  0.00000000E+00  0.00000000E+00
  0.00000000E+00  0.00000000E+00  0.00000000E+00
  0.00000000E+00  0.00000000E+00  0.00000000E+00
  0.00000000E+00  0.00000000E+00  0.00000000E+00
  0.00000000E+00  0.00000000E+00  0.00000000E+00
  0.00000000E+00  0.00000000E+00  0.00000000E+00
  0.00000000E+00  0.00000000E+00  0.00000000E+00
  0.00000000E+00  0.00000000E+00  0.00000000E+00
  0.00000000E+00  0.00000000E+00  0.00000000E+00
  0.00000000E+00  0.00000000E+00  0.00000000E+00
  0.00000000E+00  0.00000000E+00  0.00000000E+00
  0.00000000E+00  0.00000000E+00  0.00000000E+00
  0.00000000E+00  0.00000000E+00  0.00000000E+00
  0.00000000E+00  0.00000000E+00  0.00000000E+00
  0.00000000E+00  0.00000000E+00  0.00000000E+00
  0.00000000E+00  0.00000000E+00  0.00000000E+00
  0.00000000E+00  0.00000000E+00  0.00000000E+00
  0.00000000E+00  0.00000000E+00  0.00000000E+00
  0.00000000E+00  0.00000000E+00  0.00000000E+00
  0.00000000E+00  0.00000000E+00  0.00000000E+00
  0.00000000E+00  0.00000000E+00  0.00000000E+00
  0.00000000E+00  0.00000000E+00  0.00000000E+00
  0.00000000E+00  0.00000000E+00  0.00000000E+00
  0.00000000E+00  0.00000000E+00  0.00000000E+00
  0.00000000E+00  0.00000000E+00  0.00000000E+00
  0.00000000E+00  0.00000000E+00  0.00000000E+00
  0.00000000E+00  0.00000000E+00  0.00000000E+00
  0.00000000E+00  0.00000000E+00  0.00000000E+00
  0.00000000E+00  0.00000000E+00  0.00000000E+00
  0.00000000E+00  0.00000000E+00  0.00000000E+00
  0.00000000E+00  0.00000000E+00  0.00000000E+00
  0.00000000E+00  0.00000000E+00  0.00000000E+00
  0.00000000E+00  0.00000000E+00  0.00000000E+00
  0.00000000E+00  0.00000000E+00  0.00000000E+00
  0.00000000E+00  0.00000000E+00  0.00000000E+00
  0.00000000E+00  0.00000000E+00  0.00000000E+00
  0.00000000E+00  0.00000000E+00  0.00000000E+00
  0.00000000E+00  0.00000000E+00  0.00000000E+00
  0.00000000E+00  0.00000000E+00  0.00000000E+00
  0.00000000E+00  0.00000000E+00  0.00000000E+00
  0.00000000E+00  0.00000000E+00  0.00000000E+00
  0.00000000E+00  0.00000000E+00  0.00000000E+00
  0.00000000E+00  0.00000000E+00  0.00000000E+00
  0.00000000E+00  0.00000000E+00  0.00000000E+00
