 Ni\(1\1\1)                             
   1.00000000000000     
     9.8291997910000006    0.0000000000000000    0.0000000000000000
     4.9145998955000003    8.5123367178000002    0.0000000000000000
     0.0000000000000000    0.0000000000000000   19.0128002167000005
   Ni   O    C    O    C    O    H 
    64     3     1     2     1     1     1
Selective dynamics
Direct
  0.8342603923452419  0.5841873695920048  0.2718412995910021   T   T   T
  0.3337653225933119  0.0844388297866970  0.2702814127956347   T   T   T
  0.8341974867477248  0.0843468105791562  0.2705350992225891   T   T   T
  0.3338202043484870  0.5846785773919047  0.2705291649282673   T   T   T
  0.5844954795046848  0.8340085024150661  0.2709875484917429   T   T   T
  0.8343109775948201  0.8338453109898327  0.2708884630723680   T   T   T
  0.0831053535099064  0.3351048370559512  0.2711113946495955   T   T   T
  0.8339928022636464  0.3349460956957170  0.2713366710529956   T   T   T
  0.5845682279350572  0.5839847329803362  0.2717043053953584   T   T   T
  0.0839644552265065  0.5843828564088652  0.2711058523617234   T   T   T
  0.0836223983527809  0.0850898703801825  0.2703993653052161   T   T   T
  0.5842808158958560  0.0841628136915844  0.2713650269488699   T   T   T
  0.3346000291159745  0.8343044706152036  0.2707953310328613   T   T   T
  0.0838335050582952  0.8343122277058321  0.2705426301880694   T   T   T
  0.3339302437665139  0.3344829213522947  0.2715362927138577   T   T   T
  0.5843690141875671  0.3343529972748205  0.2714558813449611   T   T   T
  0.9183412243158967  0.6659979730598018  0.3762700333326794   T   T   T
  0.9165480645203090  0.4185860899331734  0.3779728412650963   T   T   T
  0.6685717363670715  0.6654320115782051  0.3765373678935273   T   T   T
  0.1675835330280563  0.1675977563569500  0.3756600180769478   T   T   T
  0.9178096139132845  0.1673407002509612  0.3757375459026242   T   T   T
  0.9178092492178263  0.9174573632444148  0.3756199427806117   T   T   T
  0.4177365951047725  0.9172228506491048  0.3759286385933462   T   T   T
  0.4174932206597070  0.1667241558053747  0.3758402499615959   T   T   T
  0.6685673180377060  0.1670357565593943  0.3759592176903046   T   T   T
  0.1680849471062923  0.6675030514007241  0.3757380502578499   T   T   T
  0.4176046122813044  0.6674401347826558  0.3760077476304270   T   T   T
  0.4177749608938387  0.4179237755936414  0.3759113401246376   T   T   T
  0.6680134565297987  0.9171682609488643  0.3773175232834503   T   T   T
  0.1670301719413533  0.4176418379186919  0.3781428919200710   T   T   T
  0.6684402652979150  0.4174525846280700  0.3790772347584627   T   T   T
  0.1676976516974351  0.9177736303649178  0.3776101501476636   T   T   T
  0.9992137864137338  0.2520634080457781  0.4797104473377444   T   T   T
  0.5021964570090932  0.2489848334366943  0.4795236665982592   T   T   T
  0.9990868137752780  0.7488522810718314  0.4792452448521775   T   T   T
  0.5051554755051934  0.7475493235568204  0.4808406560625798   T   T   T
  0.7516376101215807  0.7503071624933080  0.4808935215311352   T   T   T
  0.0038624824920685  0.5000755017315222  0.4853627091531301   T   T   T
  0.7541800236368499  0.4962900043197584  0.4932768365530466   T   T   T
  0.2495854807478991  0.9982195839629515  0.4850247480406565   T   T   T
  0.0053621221141605  0.9974074029485975  0.4851955761061496   T   T   T
  0.5049190173116478  0.9986193975337062  0.4854930408030637   T   T   T
  0.2494275136267263  0.7543217893316130  0.4848527359872915   T   T   T
  0.7501452597596824  0.9964749153586494  0.4854775320030086   T   T   T
  0.2516747635705915  0.2511958743878204  0.4843027877578282   T   T   T
  0.7501598829388703  0.2506461525649092  0.4850088276289446   T   T   T
  0.2516553075004139  0.4983598171787186  0.4845690355768463   T   T   T
  0.5033576690294665  0.4978005471240424  0.4852388876894614   T   T   T
  0.9970724670000024  0.2558556729999992  0.1637003960000030   F   F   F
  0.4999617989999976  0.2500875830000027  0.1643123180000003   F   F   F
  0.9968841629999972  0.7476992069999966  0.1643590660000029   F   F   F
  0.5054474789999972  0.7476858750000019  0.1651548480000002   F   F   F
  0.7507219769999978  0.7486395119999969  0.1651830500000031   F   F   F
  0.9979410790000003  0.5014025589999989  0.1651978470000017   F   F   F
  0.7507272960000009  0.5014379059999996  0.1654730480000026   F   F   F
  0.2484077359999972  0.9989653640000000  0.1655050250000016   F   F   F
  0.0026835399999996  0.9989392600000002  0.1655775309999967   F   F   F
  0.5037179199999997  0.9979203070000011  0.1655856309999990   F   F   F
  0.2483221529999966  0.7533767729999994  0.1658259459999982   F   F   F
  0.7484137009999969  0.9978805350000002  0.1658943890000018   F   F   F
  0.2473094730000014  0.2543786680000011  0.1660089160000027   F   F   F
  0.7483561820000020  0.2543461500000035  0.1660180820000008   F   F   F
  0.2472921950000000  0.4989472700000022  0.1662971330000005   F   F   F
  0.5037960519999984  0.4989156760000029  0.1664085250000014   F   F   F
  0.3343135937941861  0.0822880158502032  0.5443670583465723   T   T   T
  0.8363071031783587  0.0790003606092980  0.5443761920515771   T   T   T
  0.3329500959561093  0.5857625110993965  0.5442883197966646   T   T   T
  0.9660931877254409  0.4089578243832659  0.6212093845803918   T   T   T
  0.0171305533090708  0.4857893123191752  0.5852128414080003   T   T   T
  0.0151675368381228  0.3328529101577858  0.6746688503068834   T   T   T
  0.8031381126149379  0.4234807396159254  0.5894543482035668   T   T   T
  0.7114016647482091  0.4091080448044336  0.6252388828403180   T   T   T
  0.6649893803480169  0.6749064067360512  0.5317821392478529   T   T   T
 
  0.00000000E+00  0.00000000E+00  0.00000000E+00
  0.00000000E+00  0.00000000E+00  0.00000000E+00
  0.00000000E+00  0.00000000E+00  0.00000000E+00
  0.00000000E+00  0.00000000E+00  0.00000000E+00
  0.00000000E+00  0.00000000E+00  0.00000000E+00
  0.00000000E+00  0.00000000E+00  0.00000000E+00
  0.00000000E+00  0.00000000E+00  0.00000000E+00
  0.00000000E+00  0.00000000E+00  0.00000000E+00
  0.00000000E+00  0.00000000E+00  0.00000000E+00
  0.00000000E+00  0.00000000E+00  0.00000000E+00
  0.00000000E+00  0.00000000E+00  0.00000000E+00
  0.00000000E+00  0.00000000E+00  0.00000000E+00
  0.00000000E+00  0.00000000E+00  0.00000000E+00
  0.00000000E+00  0.00000000E+00  0.00000000E+00
  0.00000000E+00  0.00000000E+00  0.00000000E+00
  0.00000000E+00  0.00000000E+00  0.00000000E+00
  0.00000000E+00  0.00000000E+00  0.00000000E+00
  0.00000000E+00  0.00000000E+00  0.00000000E+00
  0.00000000E+00  0.00000000E+00  0.00000000E+00
  0.00000000E+00  0.00000000E+00  0.00000000E+00
  0.00000000E+00  0.00000000E+00  0.00000000E+00
  0.00000000E+00  0.00000000E+00  0.00000000E+00
  0.00000000E+00  0.00000000E+00  0.00000000E+00
  0.00000000E+00  0.00000000E+00  0.00000000E+00
  0.00000000E+00  0.00000000E+00  0.00000000E+00
  0.00000000E+00  0.00000000E+00  0.00000000E+00
  0.00000000E+00  0.00000000E+00  0.00000000E+00
  0.00000000E+00  0.00000000E+00  0.00000000E+00
  0.00000000E+00  0.00000000E+00  0.00000000E+00
  0.00000000E+00  0.00000000E+00  0.00000000E+00
  0.00000000E+00  0.00000000E+00  0.00000000E+00
  0.00000000E+00  0.00000000E+00  0.00000000E+00
  0.00000000E+00  0.00000000E+00  0.00000000E+00
  0.00000000E+00  0.00000000E+00  0.00000000E+00
  0.00000000E+00  0.00000000E+00  0.00000000E+00
  0.00000000E+00  0.00000000E+00  0.00000000E+00
  0.00000000E+00  0.00000000E+00  0.00000000E+00
  0.00000000E+00  0.00000000E+00  0.00000000E+00
  0.00000000E+00  0.00000000E+00  0.00000000E+00
  0.00000000E+00  0.00000000E+00  0.00000000E+00
  0.00000000E+00  0.00000000E+00  0.00000000E+00
  0.00000000E+00  0.00000000E+00  0.00000000E+00
  0.00000000E+00  0.00000000E+00  0.00000000E+00
  0.00000000E+00  0.00000000E+00  0.00000000E+00
  0.00000000E+00  0.00000000E+00  0.00000000E+00
  0.00000000E+00  0.00000000E+00  0.00000000E+00
  0.00000000E+00  0.00000000E+00  0.00000000E+00
  0.00000000E+00  0.00000000E+00  0.00000000E+00
  0.00000000E+00  0.00000000E+00  0.00000000E+00
  0.00000000E+00  0.00000000E+00  0.00000000E+00
  0.00000000E+00  0.00000000E+00  0.00000000E+00
  0.00000000E+00  0.00000000E+00  0.00000000E+00
  0.00000000E+00  0.00000000E+00  0.00000000E+00
  0.00000000E+00  0.00000000E+00  0.00000000E+00
  0.00000000E+00  0.00000000E+00  0.00000000E+00
  0.00000000E+00  0.00000000E+00  0.00000000E+00
  0.00000000E+00  0.00000000E+00  0.00000000E+00
  0.00000000E+00  0.00000000E+00  0.00000000E+00
  0.00000000E+00  0.00000000E+00  0.00000000E+00
  0.00000000E+00  0.00000000E+00  0.00000000E+00
  0.00000000E+00  0.00000000E+00  0.00000000E+00
  0.00000000E+00  0.00000000E+00  0.00000000E+00
  0.00000000E+00  0.00000000E+00  0.00000000E+00
  0.00000000E+00  0.00000000E+00  0.00000000E+00
  0.00000000E+00  0.00000000E+00  0.00000000E+00
  0.00000000E+00  0.00000000E+00  0.00000000E+00
  0.00000000E+00  0.00000000E+00  0.00000000E+00
  0.00000000E+00  0.00000000E+00  0.00000000E+00
  0.00000000E+00  0.00000000E+00  0.00000000E+00
  0.00000000E+00  0.00000000E+00  0.00000000E+00
  0.00000000E+00  0.00000000E+00  0.00000000E+00
  0.00000000E+00  0.00000000E+00  0.00000000E+00
  0.00000000E+00  0.00000000E+00  0.00000000E+00
