Ni_Pol_COCH2
   1.00000000000000     
     9.8291997910000006    0.0000000000000000    0.0000000000000000
     4.9145998955000003    8.5123367178000002    0.0000000000000000
     0.0000000000000000    0.0000000000000000   19.0128002167000005
   Ni   O    C    O    C    H 
    64     3     1     1     1     2
Selective dynamics
Direct
  0.8333580530612966  0.5843893009593292  0.2711030817899305   T   T   T
  0.3342343790293238  0.0844004836855595  0.2702913005895841   T   T   T
  0.8334059139856766  0.0848212561245934  0.2705747174255189   T   T   T
  0.3338333837670820  0.5843469566064387  0.2708257833324402   T   T   T
  0.5839760601187461  0.8341797326694576  0.2706786733545408   T   T   T
  0.8335181795765760  0.8345339825174790  0.2704190697881790   T   T   T
  0.0833228279037438  0.3345182432944630  0.2708523881286286   T   T   T
  0.8324346202146270  0.3343003679559298  0.2716167172225394   T   T   T
  0.5839256908769360  0.5827842177145226  0.2719252159014289   T   T   T
  0.0832999058131920  0.5843714208521555  0.2708363698211892   T   T   T
  0.0832030870133389  0.0858781780646407  0.2701201554640036   T   T   T
  0.5835501531685791  0.0847286319681458  0.2718895104745260   T   T   T
  0.3348256267325513  0.8341181055173227  0.2701809557669116   T   T   T
  0.0835528715759567  0.8346575797090517  0.2701113257766796   T   T   T
  0.3338046351691541  0.3343541457344629  0.2717403865137755   T   T   T
  0.5832199316005611  0.3339194821235142  0.2724644067839256   T   T   T
  0.9168542752000690  0.6666674789749215  0.3754121128885240   T   T   T
  0.9164252562245051  0.4170115991431677  0.3753187584008638   T   T   T
  0.6674659160318022  0.6658611202922078  0.3754893719614849   T   T   T
  0.1673634336127814  0.1680799235690952  0.3758648505491588   T   T   T
  0.9167818060911928  0.1679776504235440  0.3764952156300150   T   T   T
  0.9176929202898658  0.9177233002555401  0.3748865918554376   T   T   T
  0.4176267999015464  0.9177409977363883  0.3755376551457481   T   T   T
  0.4178551070594596  0.1683513164029308  0.3775030126793416   T   T   T
  0.6683532968099065  0.1667203166087265  0.3778019309753944   T   T   T
  0.1668828681666563  0.6681214318726382  0.3750535101420343   T   T   T
  0.4173975608679815  0.6666012799837984  0.3763522134629886   T   T   T
  0.4158310300233932  0.4186970379992104  0.3778164955386041   T   T   T
  0.6670189549623060  0.9178369168468021  0.3772870045833285   T   T   T
  0.1668543210859818  0.4168986985699759  0.3777316834846755   T   T   T
  0.6657764585825534  0.4156001164124725  0.3807225867187569   T   T   T
  0.1680754606272562  0.9186848422043185  0.3760141726347631   T   T   T
 -0.0012567666592342  0.2550578820556336  0.4828856733099027   T   T   T
  0.5010596180122173  0.2512667054011036  0.4842529384508902   T   T   T
  0.9971656996759484  0.7472121158245131  0.4792116350937883   T   T   T
  0.5055823185899490  0.7474866847119038  0.4795274875853091   T   T   T
  0.7485955275904144  0.7509624278667001  0.4801667615877263   T   T   T
  0.9978979727626707  0.5011324065815158  0.4838987272682603   T   T   T
  0.7507275403642516  0.5021131943290777  0.4842490139425337   T   T   T
  0.2499421786362589  0.0004082424319127  0.4841879188976814   T   T   T
  0.0081134984694708  0.9977244089365684  0.4818358185527832   T   T   T
  0.5051324980939004  0.9972898609163370  0.4855680358458071   T   T   T
  0.2473716840360431  0.7583252552392652  0.4820476361888998   T   T   T
  0.7528721490515939  0.9918167911535537  0.4850691083795849   T   T   T
  0.2509697917235345  0.2536677331127140  0.4852374970879991   T   T   T
  0.7525624843326602  0.2468179003176162  0.4931289197913581   T   T   T
  0.2413146155270897  0.5036642117441535  0.4849477128783797   T   T   T
  0.4984400131157767  0.5036776477763846  0.4935663996865002   T   T   T
  0.9970724670000024  0.2558556729999992  0.1637003960000030   F   F   F
  0.4999617989999976  0.2500875830000027  0.1643123180000003   F   F   F
  0.9968841629999972  0.7476992069999966  0.1643590660000029   F   F   F
  0.5054474789999972  0.7476858750000019  0.1651548480000002   F   F   F
  0.7507219769999978  0.7486395119999969  0.1651830500000031   F   F   F
  0.9979410790000003  0.5014025589999989  0.1651978470000017   F   F   F
  0.7507272960000009  0.5014379059999996  0.1654730480000026   F   F   F
  0.2484077359999972  0.9989653640000000  0.1655050250000016   F   F   F
  0.0026835399999996  0.9989392600000002  0.1655775309999967   F   F   F
  0.5037179199999997  0.9979203070000011  0.1655856309999990   F   F   F
  0.2483221529999966  0.7533767729999994  0.1658259459999982   F   F   F
  0.7484137009999969  0.9978805350000002  0.1658943890000018   F   F   F
  0.2473094730000014  0.2543786680000011  0.1660089160000027   F   F   F
  0.7483561820000020  0.2543461500000035  0.1660180820000008   F   F   F
  0.2472921950000000  0.4989472700000022  0.1662971330000005   F   F   F
  0.5037960519999984  0.4989156760000029  0.1664085250000014   F   F   F
  0.3351431504273724  0.0831656146511869  0.5446412995302534   T   T   T
  0.8517087309640928  0.0605692922619157  0.5452397889414590   T   T   T
  0.3120843286960596  0.6009764498302520  0.5452241690548535   T   T   T
  0.9149344240715718  0.4199735756896614  0.5544133307921407   T   T   T
  0.9153929564866594  0.4145237580992957  0.6171331242599255   T   T   T
  0.5846740895790493  0.3348868690280059  0.5575538734006251   T   T   T
  0.6220379560918676  0.3668687906916588  0.6065386390688896   T   T   T
  0.5181326925224984  0.2733156573932889  0.5769156794108801   T   T   T
 
  0.00000000E+00  0.00000000E+00  0.00000000E+00
  0.00000000E+00  0.00000000E+00  0.00000000E+00
  0.00000000E+00  0.00000000E+00  0.00000000E+00
  0.00000000E+00  0.00000000E+00  0.00000000E+00
  0.00000000E+00  0.00000000E+00  0.00000000E+00
  0.00000000E+00  0.00000000E+00  0.00000000E+00
  0.00000000E+00  0.00000000E+00  0.00000000E+00
  0.00000000E+00  0.00000000E+00  0.00000000E+00
  0.00000000E+00  0.00000000E+00  0.00000000E+00
  0.00000000E+00  0.00000000E+00  0.00000000E+00
  0.00000000E+00  0.00000000E+00  0.00000000E+00
  0.00000000E+00  0.00000000E+00  0.00000000E+00
  0.00000000E+00  0.00000000E+00  0.00000000E+00
  0.00000000E+00  0.00000000E+00  0.00000000E+00
  0.00000000E+00  0.00000000E+00  0.00000000E+00
  0.00000000E+00  0.00000000E+00  0.00000000E+00
  0.00000000E+00  0.00000000E+00  0.00000000E+00
  0.00000000E+00  0.00000000E+00  0.00000000E+00
  0.00000000E+00  0.00000000E+00  0.00000000E+00
  0.00000000E+00  0.00000000E+00  0.00000000E+00
  0.00000000E+00  0.00000000E+00  0.00000000E+00
  0.00000000E+00  0.00000000E+00  0.00000000E+00
  0.00000000E+00  0.00000000E+00  0.00000000E+00
  0.00000000E+00  0.00000000E+00  0.00000000E+00
  0.00000000E+00  0.00000000E+00  0.00000000E+00
  0.00000000E+00  0.00000000E+00  0.00000000E+00
  0.00000000E+00  0.00000000E+00  0.00000000E+00
  0.00000000E+00  0.00000000E+00  0.00000000E+00
  0.00000000E+00  0.00000000E+00  0.00000000E+00
  0.00000000E+00  0.00000000E+00  0.00000000E+00
  0.00000000E+00  0.00000000E+00  0.00000000E+00
  0.00000000E+00  0.00000000E+00  0.00000000E+00
  0.00000000E+00  0.00000000E+00  0.00000000E+00
  0.00000000E+00  0.00000000E+00  0.00000000E+00
  0.00000000E+00  0.00000000E+00  0.00000000E+00
  0.00000000E+00  0.00000000E+00  0.00000000E+00
  0.00000000E+00  0.00000000E+00  0.00000000E+00
  0.00000000E+00  0.00000000E+00  0.00000000E+00
  0.00000000E+00  0.00000000E+00  0.00000000E+00
  0.00000000E+00  0.00000000E+00  0.00000000E+00
  0.00000000E+00  0.00000000E+00  0.00000000E+00
  0.00000000E+00  0.00000000E+00  0.00000000E+00
  0.00000000E+00  0.00000000E+00  0.00000000E+00
  0.00000000E+00  0.00000000E+00  0.00000000E+00
  0.00000000E+00  0.00000000E+00  0.00000000E+00
  0.00000000E+00  0.00000000E+00  0.00000000E+00
  0.00000000E+00  0.00000000E+00  0.00000000E+00
  0.00000000E+00  0.00000000E+00  0.00000000E+00
  0.00000000E+00  0.00000000E+00  0.00000000E+00
  0.00000000E+00  0.00000000E+00  0.00000000E+00
  0.00000000E+00  0.00000000E+00  0.00000000E+00
  0.00000000E+00  0.00000000E+00  0.00000000E+00
  0.00000000E+00  0.00000000E+00  0.00000000E+00
  0.00000000E+00  0.00000000E+00  0.00000000E+00
  0.00000000E+00  0.00000000E+00  0.00000000E+00
  0.00000000E+00  0.00000000E+00  0.00000000E+00
  0.00000000E+00  0.00000000E+00  0.00000000E+00
  0.00000000E+00  0.00000000E+00  0.00000000E+00
  0.00000000E+00  0.00000000E+00  0.00000000E+00
  0.00000000E+00  0.00000000E+00  0.00000000E+00
  0.00000000E+00  0.00000000E+00  0.00000000E+00
  0.00000000E+00  0.00000000E+00  0.00000000E+00
  0.00000000E+00  0.00000000E+00  0.00000000E+00
  0.00000000E+00  0.00000000E+00  0.00000000E+00
  0.00000000E+00  0.00000000E+00  0.00000000E+00
  0.00000000E+00  0.00000000E+00  0.00000000E+00
  0.00000000E+00  0.00000000E+00  0.00000000E+00
  0.00000000E+00  0.00000000E+00  0.00000000E+00
  0.00000000E+00  0.00000000E+00  0.00000000E+00
  0.00000000E+00  0.00000000E+00  0.00000000E+00
  0.00000000E+00  0.00000000E+00  0.00000000E+00
  0.00000000E+00  0.00000000E+00  0.00000000E+00
