Ni_Pol_CO2CHOH
   1.00000000000000     
     9.8291997910000006    0.0000000000000000    0.0000000000000000
     4.9145998955000003    8.5123367178000002    0.0000000000000000
     0.0000000000000000    0.0000000000000000   19.0128002167000005
   Ni   O    C    O    C    O    H 
    64     3     1     2     1     1     2
Selective dynamics
Direct
  0.8328423426915815  0.5837574846605529  0.2711129284449700   T   T   T
  0.3317590263673752  0.0840606339497948  0.2701995249315058   T   T   T
  0.8339546023514282  0.0841920619865883  0.2708938638882134   T   T   T
  0.3325760645232926  0.5847468047520223  0.2708579033919154   T   T   T
  0.5826209672881076  0.8341466233571100  0.2709686343780390   T   T   T
  0.8328106906150488  0.8341504413395061  0.2704877963889843   T   T   T
  0.0824002411520850  0.3338434897511153  0.2714603288836481   T   T   T
  0.8326315956776279  0.3335088781514417  0.2720255110695641   T   T   T
  0.5828480044397562  0.5826591923452821  0.2717624511317738   T   T   T
  0.0822501301103002  0.5841083734918223  0.2710411074211270   T   T   T
  0.0819869109948711  0.0850161449729902  0.2710219997746883   T   T   T
  0.5831372813315563  0.0837861687886792  0.2708007836467294   T   T   T
  0.3333870006527209  0.8334804384753661  0.2704627363915600   T   T   T
  0.0825817370278052  0.8343077263014391  0.2704266276075719   T   T   T
  0.3323758660782403  0.3345798331463049  0.2706755553369112   T   T   T
  0.5829195058901708  0.3335751238709313  0.2719557654525540   T   T   T
  0.9170485998266423  0.6663823871472163  0.3755789124149533   T   T   T
  0.9170311007229421  0.4168526351117354  0.3762447425181416   T   T   T
  0.6662749899685048  0.6668540860231329  0.3746896028822119   T   T   T
  0.1652215592312168  0.1674264217191862  0.3773043056163165   T   T   T
  0.9166102179540172  0.1680263195484614  0.3790774963257308   T   T   T
  0.9172398802448967  0.9174076460259221  0.3755747284089994   T   T   T
  0.4154616973264069  0.9177305024620339  0.3756058871431521   T   T   T
  0.4157947489173452  0.1667516698647173  0.3744813720717169   T   T   T
  0.6687140152242677  0.1661070263074676  0.3759967874915807   T   T   T
  0.1669454167858007  0.6673213759148745  0.3755766784258269   T   T   T
  0.4166315769426991  0.6660022185632389  0.3773757623665093   T   T   T
  0.4158839910512849  0.4186782744543656  0.3761724229916840   T   T   T
  0.6661467494279077  0.9182167274855980  0.3769199797785494   T   T   T
  0.1671894577159545  0.4165477494807328  0.3776088122884916   T   T   T
  0.6652251238479445  0.4148666991175822  0.3798938503428043   T   T   T
  0.1668939915108347  0.9172236854087891  0.3775832942819888   T   T   T
 -0.0023233477192315  0.2556903872320833  0.4859441845930240   T   T   T
  0.5005015113630423  0.2492535031355804  0.4764181324325581   T   T   T
 -0.0012929378872283  0.7466050964656361  0.4798165726970192   T   T   T
  0.5059602843095594  0.7481426998762856  0.4797037140965601   T   T   T
  0.7513178281972118  0.7493045193889784  0.4799840472524325   T   T   T
  0.0002848661988446  0.5005928803636520  0.4849064464334321   T   T   T
  0.7500188563284647  0.5047878886576761  0.4787879107183822   T   T   T
  0.2509528506905739 -0.0024664813263160  0.4850056551933761   T   T   T
  0.0054675702938046 -0.0027354423929838  0.4842120833870101   T   T   T
  0.5059672281621764  0.9970910699747654  0.4849989666801966   T   T   T
  0.2489723094481323  0.7549275335139068  0.4841595144839596   T   T   T
  0.7501299953381935  0.9950672871790868  0.4846367423348253   T   T   T
  0.2531212550388454  0.2524437123839982  0.4843055943874255   T   T   T
  0.7451834253459227  0.2539270659207811  0.4956111231707187   T   T   T
  0.2485995646696755  0.4989841035751600  0.4843779212684026   T   T   T
  0.5065891955392733  0.4993280078721776  0.4968175407134077   T   T   T
  0.9970724670000024  0.2558556729999992  0.1637003960000030   F   F   F
  0.4999617989999976  0.2500875830000027  0.1643123180000003   F   F   F
  0.9968841629999972  0.7476992069999966  0.1643590660000029   F   F   F
  0.5054474789999972  0.7476858750000019  0.1651548480000002   F   F   F
  0.7507219769999978  0.7486395119999969  0.1651830500000031   F   F   F
  0.9979410790000003  0.5014025589999989  0.1651978470000017   F   F   F
  0.7507272960000009  0.5014379059999996  0.1654730480000026   F   F   F
  0.2484077359999972  0.9989653640000000  0.1655050250000016   F   F   F
  0.0026835399999996  0.9989392600000002  0.1655775309999967   F   F   F
  0.5037179199999997  0.9979203070000011  0.1655856309999990   F   F   F
  0.2483221529999966  0.7533767729999994  0.1658259459999982   F   F   F
  0.7484137009999969  0.9978805350000002  0.1658943890000018   F   F   F
  0.2473094730000014  0.2543786680000011  0.1660089160000027   F   F   F
  0.7483561820000020  0.2543461500000035  0.1660180820000008   F   F   F
  0.2472921950000000  0.4989472700000022  0.1662971330000005   F   F   F
  0.5037960519999984  0.4989156760000029  0.1664085250000014   F   F   F
  0.3367010243686565  0.0821724694421739  0.5442679271448517   T   T   T
  0.8437618307565368  0.0663396942866043  0.5458890241930694   T   T   T
  0.3175114175259955  0.5938303418498158  0.5462071832118796   T   T   T
  0.9964366528602360  0.4429540955738288  0.5839564983560619   T   T   T
  0.0028431573299912  0.5339591944886426  0.6250854368790455   T   T   T
  0.9868682024870223  0.3187203449404400  0.5867893101519618   T   T   T
  0.6342552585790115  0.3834259578072949  0.5756612959863172   T   T   T
  0.5703931638839146  0.3371263921672187  0.6256029487987945   T   T   T
  0.7078678007937165  0.4226902180904686  0.6028600374142298   T   T   T
  0.4967515940844899  0.3068443150997412  0.6055169353803763   T   T   T
 
  0.00000000E+00  0.00000000E+00  0.00000000E+00
  0.00000000E+00  0.00000000E+00  0.00000000E+00
  0.00000000E+00  0.00000000E+00  0.00000000E+00
  0.00000000E+00  0.00000000E+00  0.00000000E+00
  0.00000000E+00  0.00000000E+00  0.00000000E+00
  0.00000000E+00  0.00000000E+00  0.00000000E+00
  0.00000000E+00  0.00000000E+00  0.00000000E+00
  0.00000000E+00  0.00000000E+00  0.00000000E+00
  0.00000000E+00  0.00000000E+00  0.00000000E+00
  0.00000000E+00  0.00000000E+00  0.00000000E+00
  0.00000000E+00  0.00000000E+00  0.00000000E+00
  0.00000000E+00  0.00000000E+00  0.00000000E+00
  0.00000000E+00  0.00000000E+00  0.00000000E+00
  0.00000000E+00  0.00000000E+00  0.00000000E+00
  0.00000000E+00  0.00000000E+00  0.00000000E+00
  0.00000000E+00  0.00000000E+00  0.00000000E+00
  0.00000000E+00  0.00000000E+00  0.00000000E+00
  0.00000000E+00  0.00000000E+00  0.00000000E+00
  0.00000000E+00  0.00000000E+00  0.00000000E+00
  0.00000000E+00  0.00000000E+00  0.00000000E+00
  0.00000000E+00  0.00000000E+00  0.00000000E+00
  0.00000000E+00  0.00000000E+00  0.00000000E+00
  0.00000000E+00  0.00000000E+00  0.00000000E+00
  0.00000000E+00  0.00000000E+00  0.00000000E+00
  0.00000000E+00  0.00000000E+00  0.00000000E+00
  0.00000000E+00  0.00000000E+00  0.00000000E+00
  0.00000000E+00  0.00000000E+00  0.00000000E+00
  0.00000000E+00  0.00000000E+00  0.00000000E+00
  0.00000000E+00  0.00000000E+00  0.00000000E+00
  0.00000000E+00  0.00000000E+00  0.00000000E+00
  0.00000000E+00  0.00000000E+00  0.00000000E+00
  0.00000000E+00  0.00000000E+00  0.00000000E+00
  0.00000000E+00  0.00000000E+00  0.00000000E+00
  0.00000000E+00  0.00000000E+00  0.00000000E+00
  0.00000000E+00  0.00000000E+00  0.00000000E+00
  0.00000000E+00  0.00000000E+00  0.00000000E+00
  0.00000000E+00  0.00000000E+00  0.00000000E+00
  0.00000000E+00  0.00000000E+00  0.00000000E+00
  0.00000000E+00  0.00000000E+00  0.00000000E+00
  0.00000000E+00  0.00000000E+00  0.00000000E+00
  0.00000000E+00  0.00000000E+00  0.00000000E+00
  0.00000000E+00  0.00000000E+00  0.00000000E+00
  0.00000000E+00  0.00000000E+00  0.00000000E+00
  0.00000000E+00  0.00000000E+00  0.00000000E+00
  0.00000000E+00  0.00000000E+00  0.00000000E+00
  0.00000000E+00  0.00000000E+00  0.00000000E+00
  0.00000000E+00  0.00000000E+00  0.00000000E+00
  0.00000000E+00  0.00000000E+00  0.00000000E+00
  0.00000000E+00  0.00000000E+00  0.00000000E+00
  0.00000000E+00  0.00000000E+00  0.00000000E+00
  0.00000000E+00  0.00000000E+00  0.00000000E+00
  0.00000000E+00  0.00000000E+00  0.00000000E+00
  0.00000000E+00  0.00000000E+00  0.00000000E+00
  0.00000000E+00  0.00000000E+00  0.00000000E+00
  0.00000000E+00  0.00000000E+00  0.00000000E+00
  0.00000000E+00  0.00000000E+00  0.00000000E+00
  0.00000000E+00  0.00000000E+00  0.00000000E+00
  0.00000000E+00  0.00000000E+00  0.00000000E+00
  0.00000000E+00  0.00000000E+00  0.00000000E+00
  0.00000000E+00  0.00000000E+00  0.00000000E+00
  0.00000000E+00  0.00000000E+00  0.00000000E+00
  0.00000000E+00  0.00000000E+00  0.00000000E+00
  0.00000000E+00  0.00000000E+00  0.00000000E+00
  0.00000000E+00  0.00000000E+00  0.00000000E+00
  0.00000000E+00  0.00000000E+00  0.00000000E+00
  0.00000000E+00  0.00000000E+00  0.00000000E+00
  0.00000000E+00  0.00000000E+00  0.00000000E+00
  0.00000000E+00  0.00000000E+00  0.00000000E+00
  0.00000000E+00  0.00000000E+00  0.00000000E+00
  0.00000000E+00  0.00000000E+00  0.00000000E+00
  0.00000000E+00  0.00000000E+00  0.00000000E+00
  0.00000000E+00  0.00000000E+00  0.00000000E+00
  0.00000000E+00  0.00000000E+00  0.00000000E+00
  0.00000000E+00  0.00000000E+00  0.00000000E+00
