 Ni\(1\1\1)                             
   1.00000000000000     
     9.8291997910000006    0.0000000000000000    0.0000000000000000
     4.9145998955000003    8.5123367178000002    0.0000000000000000
     0.0000000000000000    0.0000000000000000   19.0128002167000005
   Ni   O    C    O    C    H 
    64     3     1     2     1     3
Selective dynamics
Direct
  0.8343525024184810  0.5841843872887017  0.2710489936870311   T   T   T
  0.3333542216584908  0.0845579661605028  0.2702924431450972   T   T   T
  0.8345928930891140  0.0844761684281604  0.2709146332640877   T   T   T
  0.3341786176007013  0.5844419938575552  0.2708334494609190   T   T   T
  0.5842588306351489  0.8345518803359860  0.2708384437243684   T   T   T
  0.8342144488384642  0.8343002113034703  0.2705162229165711   T   T   T
  0.0833998794021177  0.3346734043054704  0.2712771715909273   T   T   T
  0.8336555191444647  0.3344108964070083  0.2718339630395326   T   T   T
  0.5841807763809423  0.5837130022726573  0.2715782095212219   T   T   T
  0.0837665550309789  0.5843021634630786  0.2709195027167767   T   T   T
  0.0827140952250544  0.0856321391869181  0.2709942831591676   T   T   T
  0.5844994053439447  0.0842059199152818  0.2713019221733005   T   T   T
  0.3345052415166450  0.8340565429051198  0.2703364224259568   T   T   T
  0.0838629521321032  0.8344345644957323  0.2704034688715280   T   T   T
  0.3341294279286638  0.3344449884959373  0.2708298027911821   T   T   T
  0.5841324719894552  0.3341881197209094  0.2718329955691714   T   T   T
  0.9185952659099873  0.6665516668810293  0.3754018328922162   T   T   T
  0.9177357819094398  0.4179897492702989  0.3764917649882322   T   T   T
  0.6683388056580259  0.6668415248037735  0.3748617098970335   T   T   T
  0.1668251365643975  0.1679683302386861  0.3765848946633497   T   T   T
  0.9175943182476257  0.1686088316163279  0.3786010005940224   T   T   T
  0.9186266512978810  0.9174171959464915  0.3756040749092407   T   T   T
  0.4173873262930834  0.9178309946714743  0.3753171445929937   T   T   T
  0.4178524403952273  0.1674904739885605  0.3752631311373555   T   T   T
  0.6694116318063301  0.1668889124751919  0.3764509654383582   T   T   T
  0.1679899382694803  0.6674275825678425  0.3753285333760160   T   T   T
  0.4177203062794561  0.6662702742870523  0.3766797924702652   T   T   T
  0.4175752528793395  0.4187208294947566  0.3767650775822069   T   T   T
  0.6679670356169859  0.9181240982390143  0.3769909383170224   T   T   T
  0.1683134987062457  0.4169096179697160  0.3773310066970513   T   T   T
  0.6658779179719826  0.4166895589604910  0.3792784738337041   T   T   T
  0.1679581591296776  0.9178163178649587  0.3769668484733650   T   T   T
  0.0009483707652945  0.2545496369056389  0.4851670205292499   T   T   T
  0.5021309510017290  0.2495977696427706  0.4790085146194898   T   T   T
  0.9986628549833113  0.7468259409522936  0.4798430508183325   T   T   T
  0.5061679652046517  0.7480946571260422  0.4790673415694754   T   T   T
  0.7519912648521001  0.7490558184399830  0.4799314777760587   T   T   T
  0.0001756287524975  0.5006389657436046  0.4849063653603534   T   T   T
  0.7490641424667235  0.5033514286855038  0.4802604226698863   T   T   T
  0.2517295925053024 -0.0032676966200729  0.4841816111088043   T   T   T
  0.0057264557540834 -0.0028970497607931  0.4843762059122193   T   T   T
  0.5067577618828968  0.9963375904726891  0.4849434756220152   T   T   T
  0.2491876678750740  0.7543551204769445  0.4833586894107788   T   T   T
  0.7503324079248400  0.9956928154663768  0.4852426199951729   T   T   T
  0.2541382410423903  0.2518609643135134  0.4838915265773820   T   T   T
  0.7488400698303982  0.2529410025056208  0.4889397842418495   T   T   T
  0.2487082000630404  0.4988611099199672  0.4839246814174787   T   T   T
  0.5077186792253185  0.4973518839527693  0.4960858513971700   T   T   T
  0.9970724670000024  0.2558556729999992  0.1637003960000030   F   F   F
  0.4999617989999976  0.2500875830000027  0.1643123180000003   F   F   F
  0.9968841629999972  0.7476992069999966  0.1643590660000029   F   F   F
  0.5054474789999972  0.7476858750000019  0.1651548480000002   F   F   F
  0.7507219769999978  0.7486395119999969  0.1651830500000031   F   F   F
  0.9979410790000003  0.5014025589999989  0.1651978470000017   F   F   F
  0.7507272960000009  0.5014379059999996  0.1654730480000026   F   F   F
  0.2484077359999972  0.9989653640000000  0.1655050250000016   F   F   F
  0.0026835399999996  0.9989392600000002  0.1655775309999967   F   F   F
  0.5037179199999997  0.9979203070000011  0.1655856309999990   F   F   F
  0.2483221529999966  0.7533767729999994  0.1658259459999982   F   F   F
  0.7484137009999969  0.9978805350000002  0.1658943890000018   F   F   F
  0.2473094730000014  0.2543786680000011  0.1660089160000027   F   F   F
  0.7483561820000020  0.2543461500000035  0.1660180820000008   F   F   F
  0.2472921950000000  0.4989472700000022  0.1662971330000005   F   F   F
  0.5037960519999984  0.4989156760000029  0.1664085250000014   F   F   F
  0.3371476098851163  0.0811103289361460  0.5435950808655133   T   T   T
  0.8407354016535656  0.0724977465130176  0.5448102530699385   T   T   T
  0.3176054483355985  0.5931714790867787  0.5451054399985160   T   T   T
  0.9946940436877741  0.4416728336895639  0.5837835610774776   T   T   T
  0.9903744576436800  0.5382026169543140  0.6248600896022846   T   T   T
 -0.0025424269795668  0.3112167214691303  0.5862735123446466   T   T   T
  0.6272784158204459  0.4245405465214561  0.5877401220234280   T   T   T
  0.5914439925233638  0.5418346093812088  0.6089537138799722   T   T   T
  0.5603153966401150  0.3761685251285761  0.6131345889225326   T   T   T
  0.7532286394527122  0.3472990813306165  0.5976322566763470   T   T   T
 
  0.00000000E+00  0.00000000E+00  0.00000000E+00
  0.00000000E+00  0.00000000E+00  0.00000000E+00
  0.00000000E+00  0.00000000E+00  0.00000000E+00
  0.00000000E+00  0.00000000E+00  0.00000000E+00
  0.00000000E+00  0.00000000E+00  0.00000000E+00
  0.00000000E+00  0.00000000E+00  0.00000000E+00
  0.00000000E+00  0.00000000E+00  0.00000000E+00
  0.00000000E+00  0.00000000E+00  0.00000000E+00
  0.00000000E+00  0.00000000E+00  0.00000000E+00
  0.00000000E+00  0.00000000E+00  0.00000000E+00
  0.00000000E+00  0.00000000E+00  0.00000000E+00
  0.00000000E+00  0.00000000E+00  0.00000000E+00
  0.00000000E+00  0.00000000E+00  0.00000000E+00
  0.00000000E+00  0.00000000E+00  0.00000000E+00
  0.00000000E+00  0.00000000E+00  0.00000000E+00
  0.00000000E+00  0.00000000E+00  0.00000000E+00
  0.00000000E+00  0.00000000E+00  0.00000000E+00
  0.00000000E+00  0.00000000E+00  0.00000000E+00
  0.00000000E+00  0.00000000E+00  0.00000000E+00
  0.00000000E+00  0.00000000E+00  0.00000000E+00
  0.00000000E+00  0.00000000E+00  0.00000000E+00
  0.00000000E+00  0.00000000E+00  0.00000000E+00
  0.00000000E+00  0.00000000E+00  0.00000000E+00
  0.00000000E+00  0.00000000E+00  0.00000000E+00
  0.00000000E+00  0.00000000E+00  0.00000000E+00
  0.00000000E+00  0.00000000E+00  0.00000000E+00
  0.00000000E+00  0.00000000E+00  0.00000000E+00
  0.00000000E+00  0.00000000E+00  0.00000000E+00
  0.00000000E+00  0.00000000E+00  0.00000000E+00
  0.00000000E+00  0.00000000E+00  0.00000000E+00
  0.00000000E+00  0.00000000E+00  0.00000000E+00
  0.00000000E+00  0.00000000E+00  0.00000000E+00
  0.00000000E+00  0.00000000E+00  0.00000000E+00
  0.00000000E+00  0.00000000E+00  0.00000000E+00
  0.00000000E+00  0.00000000E+00  0.00000000E+00
  0.00000000E+00  0.00000000E+00  0.00000000E+00
  0.00000000E+00  0.00000000E+00  0.00000000E+00
  0.00000000E+00  0.00000000E+00  0.00000000E+00
  0.00000000E+00  0.00000000E+00  0.00000000E+00
  0.00000000E+00  0.00000000E+00  0.00000000E+00
  0.00000000E+00  0.00000000E+00  0.00000000E+00
  0.00000000E+00  0.00000000E+00  0.00000000E+00
  0.00000000E+00  0.00000000E+00  0.00000000E+00
  0.00000000E+00  0.00000000E+00  0.00000000E+00
  0.00000000E+00  0.00000000E+00  0.00000000E+00
  0.00000000E+00  0.00000000E+00  0.00000000E+00
  0.00000000E+00  0.00000000E+00  0.00000000E+00
  0.00000000E+00  0.00000000E+00  0.00000000E+00
  0.00000000E+00  0.00000000E+00  0.00000000E+00
  0.00000000E+00  0.00000000E+00  0.00000000E+00
  0.00000000E+00  0.00000000E+00  0.00000000E+00
  0.00000000E+00  0.00000000E+00  0.00000000E+00
  0.00000000E+00  0.00000000E+00  0.00000000E+00
  0.00000000E+00  0.00000000E+00  0.00000000E+00
  0.00000000E+00  0.00000000E+00  0.00000000E+00
  0.00000000E+00  0.00000000E+00  0.00000000E+00
  0.00000000E+00  0.00000000E+00  0.00000000E+00
  0.00000000E+00  0.00000000E+00  0.00000000E+00
  0.00000000E+00  0.00000000E+00  0.00000000E+00
  0.00000000E+00  0.00000000E+00  0.00000000E+00
  0.00000000E+00  0.00000000E+00  0.00000000E+00
  0.00000000E+00  0.00000000E+00  0.00000000E+00
  0.00000000E+00  0.00000000E+00  0.00000000E+00
  0.00000000E+00  0.00000000E+00  0.00000000E+00
  0.00000000E+00  0.00000000E+00  0.00000000E+00
  0.00000000E+00  0.00000000E+00  0.00000000E+00
  0.00000000E+00  0.00000000E+00  0.00000000E+00
  0.00000000E+00  0.00000000E+00  0.00000000E+00
  0.00000000E+00  0.00000000E+00  0.00000000E+00
  0.00000000E+00  0.00000000E+00  0.00000000E+00
  0.00000000E+00  0.00000000E+00  0.00000000E+00
  0.00000000E+00  0.00000000E+00  0.00000000E+00
  0.00000000E+00  0.00000000E+00  0.00000000E+00
  0.00000000E+00  0.00000000E+00  0.00000000E+00
