 Ni_O                                   
   1.00000000000000     
    11.6149000000000004    0.0000000000000000    0.0000000000000000
     0.0000000000000000    9.3666000000000000    0.0000000000000000
     0.0000000000000000    0.0000000000000000   33.0127979999999965
   Ni   P    O    H    K 
    24    16    94    60     2
Selective dynamics
Direct
  0.1346800000000030  0.0081199999999981  0.0493700000000032   F   F   F
  0.3919336228517373  0.3314875020129966  0.3350036972080297   T   T   T
  0.3795055579897507  0.4899701049947238  0.1852337813160130   T   T   T
  0.1240748365950368  0.2460429207785958  0.2101028945050692   T   T   T
  0.2873542870753051 -0.0039161773761661  0.2928952256812289   T   T   T
  0.2592799900000031  0.2515699900000001  0.1184900100000021   F   F   F
  0.6346799700000005  0.0081199999999981  0.0493700000000032   F   F   F
  0.8727103694643382  0.1940068795092117  0.3393794512409696   T   T   T
  0.8886480058869952  0.4849870217082792  0.1834707660925536   T   T   T
  0.6360772013920545  0.2513637058747746  0.2056614646753354   T   T   T
  0.7620010873919738 -0.0273753271675102  0.2747609224140941   T   T   T
  0.7592800099999977  0.2515699900000001  0.1184900100000021   F   F   F
  0.1346800000000030  0.5081200199999998  0.0493700000000032   F   F   F
  0.3759469634303486  0.8097180826964639  0.3451966924303211   T   T   T
  0.3862691475369356  0.0068623691545482  0.1912237636817094   T   T   T
  0.1318143135549261  0.7387205466688748  0.1967116818124055   T   T   T
  0.2478891397907644  0.4901533687918385  0.2779499821414353   T   T   T
  0.2592799900000031  0.7515700100000018  0.1184900100000021   F   F   F
  0.6346799700000005  0.5081200199999998  0.0493700000000032   F   F   F
  0.8808308558830711  0.7124196232696581  0.3382216013702029   T   T   T
  0.8890750077192751 -0.0194799403058291  0.1860301719334012   T   T   T
  0.6309237962113199  0.7491928580810220  0.2048145630577023   T   T   T
  0.7555716028346624  0.4721701373086207  0.2775957453494938   T   T   T
  0.7592800099999977  0.7515700100000018  0.1184900100000021   F   F   F
  0.1334940621508651  0.2607730769181857  0.3119025308629971   T   T   T
  0.3856599900000006  0.0401900000000026  0.0895700000000019   F   F   F
  0.3840628067956460  0.2157758010836637  0.2463185588273353   T   T   T
  0.1299007760890743  0.4520043259077164  0.1481936354142927   T   T   T
  0.6429445014058118  0.2545033608368905  0.3147304827714063   T   T   T
  0.8856599900000006  0.0401900000000026  0.0895700000000019   F   F   F
  0.8846026163820129  0.1958560009386790  0.2397467577507727   T   T   T
  0.6353187558752263  0.4758747171488451  0.1480591884456371   T   T   T
  0.2091897626413222  0.8025464095479230  0.4219016461081957   T   T   T
  0.3856599900000006  0.5401899700000001  0.0895700000000019   F   F   F
  0.3727552937831761  0.7196654706938034  0.2516453620446308   T   T   T
  0.1300080039034998  0.9544043544168462  0.1490553929433953   T   T   T
  0.6361367795469780  0.7596683562027534  0.3069745713703919   T   T   T
  0.8856599900000006  0.5401899700000001  0.0895700000000019   F   F   F
  0.8900227819057593  0.6988512642521121  0.2418464419306797   T   T   T
  0.6413611594867941  0.9646007031891829  0.1475123675595159   T   T   T
  1.0251019334473856  0.2996497183597626  0.3375311025660949   T   T   T
  0.1319439788605969  0.3172843659180238  0.2680776254300145   T   T   T
  0.1384523474713680  0.1208033305195024  0.1549251344030310   T   T   T
  0.2358345329876012  0.3733515711957810  0.3284035665714178   T   T   T
  0.4870899800000004  0.1014899999999983  0.0656600000000012   F   F   F
  0.3805353281141040  0.1078350142214179  0.1353896321007783   T   T   T
  0.3714208111480891  0.3795633928613321  0.2436601980248508   T   T   T
  0.2789900000000003  0.1186700000000016  0.0689899999999994   F   F   F
  0.4869600999836813  0.1435430003037126  0.2220811964850885   T   T   T
  0.3983335861185863  0.1779663629784984  0.2942511242050489   T   T   T
  0.3773300200000023  0.3781200100000035  0.0875899999999987   F   F   F
  0.2752439081402853  0.1395907370996130  0.2273232750575969   T   T   T
  0.0325123110004922  0.3901331468003254  0.1743893453144878   T   T   T
  0.1380499999999998  0.4057100200000008  0.1037800000000004   F   F   F
  0.1579984157220483  0.1020033721965717  0.3184587714718748   T   T   T
  0.2347546691425842  0.3757754095439664  0.1694739525716011   T   T   T
  0.5482434015826094  0.2985356626660280  0.3475779081169583   T   T   T
  0.6288406550435919  0.3220669721685848  0.2706185979675296   T   T   T
  0.6489772215637892  0.1288498841913048  0.1510544639561112   T   T   T
  0.7575560346567453  0.3398914980226953  0.3259031671416477   T   T   T
  0.9870900199999966  0.1014899999999983  0.0656600000000012   F   F   F
  0.8814904237130609  0.1037049948240591  0.1338603234457665   T   T   T
  0.8724560464356174  0.3616139157683453  0.2388313981621795   T   T   T
  0.7789900000000003  0.1186700000000016  0.0689899999999994   F   F   F
  0.9855477679217151  0.1329400142386908  0.2148461998183671   T   T   T
  0.8987432359699026  0.1399178790223756  0.2838608225419912   T   T   T
  0.8773299799999990  0.3781200100000035  0.0875899999999987   F   F   F
  0.7745977599381578  0.1204669168396715  0.2257524050677438   T   T   T
  0.5392066956793117  0.4151923105524447  0.1786852359186285   T   T   T
  0.6380499999999998  0.4057100200000008  0.1037800000000004   F   F   F
  0.6721932613634946  0.0994964976782231  0.3184210766784786   T   T   T
  0.7408374342672784  0.3851896940039372  0.1648220998129871   T   T   T
  0.1293483508672794  0.9163417123285869  0.3946317621929979   T   T   T
  0.2699200016742654  0.7340594654454293  0.3834885357653568   T   T   T
  0.1337069951539681  0.6165076150784051  0.1475873716740011   T   T   T
  0.2896569691398768  0.8990481365388658  0.4481107277046483   T   T   T
  0.4870899800000004  0.6014900099999991  0.0656600000000012   F   F   F
  0.3844963895478928  0.5991290728707972  0.1341924308563039   T   T   T
  0.3626695684402708  0.8846282337269749  0.2506178229051023   T   T   T
  0.2789900000000003  0.6186699699999991  0.0689899999999994   F   F   F
  0.4743150993273518  0.6543105156187510  0.2257907003565012   T   T   T
  0.3630836419124308  0.6587423715597458  0.2968564117730179   T   T   T
  0.3773300200000023  0.8781199599999994  0.0875899999999987   F   F   F
  0.2607290495431671  0.6391609434253565  0.2330297479006195   T   T   T
  0.0251319006880519  0.8842074634875509  0.1700895599934705   T   T   T
  0.1380499999999998  0.9057099899999983  0.1037800000000004   F   F   F
  0.1251653499966885  0.7042466825970163  0.4418133413282623   T   T   T
  0.2412129473773791  0.8795751258697921  0.1691679426853174   T   T   T
  0.5442357936686402  0.8202434966135067  0.3331366251966722   T   T   T
  0.6266910495735128  0.8318013253761174  0.2638862103011253   T   T   T
  0.6469036952273541  0.6350827901055979  0.1496700448015573   T   T   T
  0.7581707195438361  0.8205270115444681  0.3205395646025681   T   T   T
  0.9870900199999966  0.6014900099999991  0.0656600000000012   F   F   F
  0.8760789862889674  0.6026295993623090  0.1339401832055113   T   T   T
  0.8841562888452061  0.8586244246188577  0.2415644394014176   T   T   T
  0.7789900000000003  0.6186699699999991  0.0689899999999994   F   F   F
  0.9888923113758272  0.6451383858392022  0.2168486511136311   T   T   T
  0.9016168338860863  0.6444613578222826  0.2852124632048634   T   T   T
  0.8773299799999990  0.8781199599999994  0.0875899999999987   F   F   F
  0.7771627548130358  0.6268247614308641  0.2244594861717808   T   T   T
  0.5330429948261614  0.9065951280509223  0.1718857976920832   T   T   T
  0.6380499999999998  0.9057099899999983  0.1037800000000004   F   F   F
  0.6427321875578499  0.5939236160531657  0.3070579444376487   T   T   T
  0.7479558603553813  0.8773396548956699  0.1680922637253179   T   T   T
  0.1171098623732268  0.0803083988676806  0.4855122958567999   T   T   T
  0.7116570323900764  0.5669325791252433  0.5738619971988649   T   T   T
  0.5472434430766193  0.6146261767405026  0.3964662665824439   T   T   T
  0.1340415191725625  0.5168720770891625  0.5522497036880645   T   T   T
  0.0904813256665336  0.0213926491077343  0.5626300060084370   T   T   T
  0.9197337078411566  0.9200052624918861  0.4562122016255388   T   T   T
  0.5269007431020020  0.2206181963540841  0.4287220292927282   T   T   T
  0.3826865033209997  0.4401211695762575  0.3810720182921704   T   T   T
  0.6924619387401230  0.0942479881078818  0.5883682616136267   T   T   T
  0.4847190616462671  0.4664740700520720  0.5579695868418968   T   T   T
  0.6322168599049807  0.8649505270482013  0.4770975584904609   T   T   T
  0.5896382786763038  0.8086778930265911  0.6087572836237715   T   T   T
  0.7570400522636882  0.4909367429217653  0.3964868468410288   T   T   T
  0.7391216623780646  0.2788883525326215  0.4523009385866993   T   T   T
  0.4593989332421374  0.4683887056693715  0.4731938788144723   T   T   T
  0.8499754501135358  0.1457096127251082  0.3968159163058800   T   T   T
  0.4062959659911298 -0.0111468704519000  0.3831580195609253   T   T   T
  1.0200613898080071  0.6043980631976472  0.3550393893613653   T   T   T
  0.4626635774934786  0.2705013708522899  0.6175755945856458   T   T   T
  0.9264707004737281  0.4303350268602295  0.4733018156882641   T   T   T
 -0.0019763840642790  0.2996823966153916  0.5532072652524713   T   T   T
  0.8047634374912085  0.6295697799184594  0.5054885729036148   T   T   T
  0.7910241757645242  1.0656116259673747  0.5191501280114578   T   T   T
  0.8440247115502569  0.7495019040179307  0.3943269117725267   T   T   T
  0.8275886399826317  0.3452807438158483  0.6127329677194540   T   T   T
  0.3106793122199490  0.6316980223354456  0.5929930697670885   T   T   T
  0.0334617033409306  0.7525974184867370  0.5203486002608922   T   T   T
  0.4359644956365273  0.8386921220337890  0.5225237142710305   T   T   T
  0.2307934272595428  0.4495609376353009  0.4726298844685249   T   T   T
  0.3475894613904699  1.0631465103407858  0.5813133391130622   T   T   T
  0.1810744845076258  0.0337281191326430  0.4720475717127868   T   T   T
  0.1264938806429652  0.0643748547806201  0.5148581740486869   T   T   T
  0.6906809442583746  0.6534228027280231  0.5886047574794345   T   T   T
  0.7562119223911672  0.5954181231798407  0.5476113890490094   T   T   T
  0.5523020840196964  0.6864993561312663  0.3764897465530861   T   T   T
  0.6219271487878136  0.5629237006292099  0.3948288849395628   T   T   T
  0.0943212028332151  0.4310567871358000  0.5584613230298755   T   T   T
  0.1951315211768442  0.5471511860795760  0.5712953971564135   T   T   T
  0.1708436506062799  0.0239894360774661  0.5697594784362131   T   T   T
  0.0617412111165683 -0.0786171659529207  0.5613868019755690   T   T   T
 -0.0048768327769138  0.9601418080276966  0.4620152604642419   T   T   T
  0.8710879981014624  0.9425713961012896  0.4798909297989004   T   T   T
  0.5340406542605790  0.2558931680700776  0.3993892314426485   T   T   T
  0.4981792343339964  0.3089665380926153  0.4420468110266441   T   T   T
  0.3162795086576888  0.5085497271255207  0.3818719230293491   T   T   T
  0.4501387018698128  0.5100354732668675  0.3808904185908777   T   T   T
  0.6153148038768487  0.1444719766452090  0.5878783108483072   T   T   T
  0.7438089016073310  0.1710573571226677  0.5989491337489032   T   T   T
  0.4766751315526204  0.4581649588812681  0.5280569517809373   T   T   T
  0.5619879609088689  0.5100501084921327  0.5652720148074455   T   T   T
  0.6798289964971214  0.7763853119603539  0.4835132078921295   T   T   T
  0.6713001290312142  0.9427498633631238  0.4924744825183328   T   T   T
  0.5445196711903671  0.8206577106049158  0.5845316463007040   T   T   T
  0.6298290454190297  0.9022500372504846  0.6102839739205695   T   T   T
  0.7394748255312460  0.4126661338811713  0.4163016798329040   T   T   T
  0.7674783748710038  0.4462828735800797  0.3700803626025697   T   T   T
  0.7785722624807778  0.2229303651861718  0.4304751485573795   T   T   T
  0.6517711300498581  0.2510016693415517  0.4503813666862184   T   T   T
  0.4945509811911957  0.5427458298082063  0.4556664449826998   T   T   T
  0.3744413695299911  0.4745402358474695  0.4681785560592074   T   T   T
  0.9030386357790834  0.0898485568628573  0.4126198878072173   T   T   T
  0.1544321885648609  0.9213822601733866  0.3663713897144579   T   T   T
  0.3742015196409985  0.0792210716637114  0.3734901144233435   T   T   T
  0.3648256942388658 -0.0333944817346027  0.4097251138082748   T   T   T
  0.0546141974897734  0.6346617911508207  0.3811711585069341   T   T   T
  1.0145807696995812  0.4964401593590372  0.3518526249183814   T   T   T
  0.4573859941216382  0.3410203772733112  0.5959636569728398   T   T   T
  0.4066148181163659  0.2859625700698019  0.6388585629154038   T   T   T
  0.8634182636052002  0.3655882801397042  0.4769873576553706   T   T   T
 -0.0266405173085128  0.4092979212194548  0.4982497085348725   T   T   T
  0.9343454819858541  0.2994979154291939  0.5734960977735284   T   T   T
  0.0104590778121495  0.1932422126946772  0.5519183472890107   T   T   T
  0.8701004886885376  0.6956659254089543  0.5071957766036358   T   T   T
  0.8460395700637101  0.5538896337385139  0.4894332978944745   T   T   T
  0.7739431188404540  1.1444776369644254  0.5026075287935661   T   T   T
  0.7381578147511462  1.0848245409616808  0.5428246443657079   T   T   T
  0.8067647211730883  0.6609169437854282  0.4036204884661291   T   T   T
  0.9042143308759110  0.7865013550974010  0.4145240059853642   T   T   T
  0.8323608757253014  0.3826054126613931  0.6404597613699137   T   T   T
  0.7820662699598870  0.4303245450270669  0.5992378760343015   T   T   T
  0.3639454724675415  0.5575276752189260  0.5803087403348346   T   T   T
  0.3358107509489368  0.7235234271246388  0.5809619506345638   T   T   T
  0.0593880302913179  0.7598237593782098  0.4911603712115832   T   T   T
  0.0759882312230115  0.6758715187479415  0.5350098959380899   T   T   T
  0.5018025888367771  0.8325974229468537  0.5039437777820173   T   T   T
  0.3772338726323351  0.8466347560235741  0.5011911000170549   T   T   T
  0.1964100061177936  0.4502501342848292  0.5002033312208660   T   T   T
  0.2063845233616787  0.5439473285833597  0.4632927988262051   T   T   T
  0.3920095431669693  1.0268195826053235  0.5590327530320227   T   T   T
  0.3902044481109447  1.1506941514047595  0.5909391188204424   T   T   T
  0.1038908397032602  0.2591020891649745  0.4236039603520721   T   T   T
  0.6611303484817445  0.9531702375186043  0.3956247749523257   T   T   T
 
  0.00000000E+00  0.00000000E+00  0.00000000E+00
 -0.36556365E-02 -0.22069055E-02  0.14628263E-02
 -0.89849471E-03  0.17616107E-02  0.37332059E-02
 -0.20774517E-02 -0.14876785E-03  0.29979408E-03
 -0.10430123E-02 -0.24019478E-02  0.11057408E-02
  0.00000000E+00  0.00000000E+00  0.00000000E+00
  0.00000000E+00  0.00000000E+00  0.00000000E+00
 -0.13512238E-02 -0.15257188E-03 -0.11660748E-02
  0.24031956E-02  0.75411655E-03 -0.12237480E-02
 -0.72112929E-03 -0.44183077E-02 -0.26833805E-02
  0.93274777E-04  0.15296174E-02  0.15806933E-02
  0.00000000E+00  0.00000000E+00  0.00000000E+00
  0.00000000E+00  0.00000000E+00  0.00000000E+00
  0.64426148E-03  0.11001556E-02 -0.69757989E-03
  0.28478306E-02  0.99972468E-03 -0.35575667E-03
 -0.16726951E-02 -0.27728030E-02 -0.29554094E-02
 -0.17381788E-03 -0.14689074E-02 -0.16169162E-02
  0.00000000E+00  0.00000000E+00  0.00000000E+00
  0.00000000E+00  0.00000000E+00  0.00000000E+00
  0.24342545E-02 -0.36535850E-02  0.69942535E-03
  0.51955692E-03 -0.35218317E-02  0.26659988E-02
  0.89079896E-03  0.26937484E-02 -0.34675407E-02
  0.70838173E-03 -0.60800018E-03  0.14950520E-02
  0.00000000E+00  0.00000000E+00  0.00000000E+00
 -0.31458424E-02  0.10471142E-02  0.58980065E-02
  0.00000000E+00  0.00000000E+00  0.00000000E+00
  0.32291750E-03 -0.21704000E-03 -0.34144344E-02
 -0.32201311E-03 -0.15875276E-03  0.29393361E-02
  0.23992148E-02  0.35471842E-02  0.11964195E-02
  0.00000000E+00  0.00000000E+00  0.00000000E+00
  0.16477992E-02 -0.37033660E-02  0.11975860E-02
  0.79942821E-03  0.51874541E-03 -0.29993802E-02
 -0.24501179E-02 -0.21789657E-04  0.80005617E-03
  0.00000000E+00  0.00000000E+00  0.00000000E+00
  0.27442418E-02 -0.10988248E-02 -0.11043804E-02
  0.16299057E-02  0.17658731E-02  0.41155207E-03
  0.36132651E-02 -0.30194961E-02 -0.14496110E-03
  0.00000000E+00  0.00000000E+00  0.00000000E+00
 -0.48895951E-02 -0.60574386E-03 -0.10710050E-02
  0.24889378E-02  0.24890873E-03  0.29752063E-02
 -0.56988768E-02  0.99397355E-03  0.11958577E-02
 -0.47268993E-02 -0.25366871E-02 -0.22577929E-02
 -0.54479242E-02 -0.53553214E-02  0.31550465E-02
 -0.52776361E-02  0.36079540E-02 -0.60702376E-02
  0.00000000E+00  0.00000000E+00  0.00000000E+00
 -0.44955695E-02 -0.11932217E-02 -0.47526487E-02
 -0.59752430E-02  0.34324693E-02  0.39359766E-02
  0.00000000E+00  0.00000000E+00  0.00000000E+00
 -0.46838429E-02 -0.55619927E-02  0.27196824E-03
  0.85577707E-03  0.26237935E-02 -0.70308866E-02
  0.00000000E+00  0.00000000E+00  0.00000000E+00
  0.15295952E-02  0.17499386E-02  0.50480204E-02
 -0.49492597E-02  0.11606374E-02 -0.31010262E-02
  0.00000000E+00  0.00000000E+00  0.00000000E+00
 -0.53203476E-02 -0.98759620E-02 -0.57033721E-02
  0.71458779E-03 -0.26715462E-02 -0.87743520E-03
  0.20249518E-02  0.33200141E-02 -0.87107782E-02
 -0.39830296E-02  0.72781917E-02  0.53538974E-02
  0.19388102E-04 -0.65460845E-02 -0.31600719E-02
 -0.68489156E-02 -0.64232590E-02 -0.93196824E-03
  0.00000000E+00  0.00000000E+00  0.00000000E+00
 -0.85126733E-03  0.59542203E-02 -0.18077003E-02
 -0.12669382E-02 -0.36214857E-02 -0.39736361E-03
  0.00000000E+00  0.00000000E+00  0.00000000E+00
  0.91701567E-03  0.10223036E-01  0.16502515E-02
  0.15602289E-02  0.39662662E-02 -0.43356450E-02
  0.00000000E+00  0.00000000E+00  0.00000000E+00
  0.44332662E-02 -0.73600373E-02 -0.49432155E-02
  0.16384376E-02 -0.25966766E-02  0.93958135E-02
  0.00000000E+00  0.00000000E+00  0.00000000E+00
  0.90626548E-03  0.25005695E-02  0.33905518E-02
  0.10036876E-01  0.12206299E-01  0.44241660E-02
  0.30444863E-02 -0.18346812E-02  0.32125195E-02
  0.44041459E-02  0.12340419E-02  0.41508315E-02
  0.57732892E-03 -0.24468420E-02 -0.82111611E-04
 -0.37269125E-02 -0.38373054E-03  0.16515700E-02
  0.00000000E+00  0.00000000E+00  0.00000000E+00
 -0.16736981E-02  0.17150742E-02  0.71225062E-02
  0.70170337E-02 -0.56812546E-02  0.23253328E-02
  0.00000000E+00  0.00000000E+00  0.00000000E+00
 -0.63633631E-02  0.30573210E-02  0.15298450E-02
 -0.26014462E-02  0.12554327E-01  0.33559738E-02
  0.00000000E+00  0.00000000E+00  0.00000000E+00
  0.18621689E-02  0.70744058E-02 -0.10595629E-02
 -0.52792858E-02  0.22125662E-02  0.19445120E-02
  0.00000000E+00  0.00000000E+00  0.00000000E+00
 -0.37138149E-02  0.47816137E-02  0.45800824E-02
  0.45612738E-02  0.15867958E-02 -0.80376787E-03
  0.73414147E-03  0.27971660E-02 -0.29948297E-03
 -0.46220158E-02  0.28867588E-02  0.28444179E-02
  0.19302128E-02 -0.72025267E-02 -0.10642712E-01
 -0.50496433E-02  0.15857595E-02  0.78383015E-03
  0.00000000E+00  0.00000000E+00  0.00000000E+00
  0.58701806E-03  0.56006381E-02  0.21537552E-02
 -0.72012005E-02  0.59313048E-03 -0.51249526E-02
  0.00000000E+00  0.00000000E+00  0.00000000E+00
  0.75319423E-02  0.54456800E-03  0.24743029E-02
 -0.10029145E-02 -0.76291062E-02 -0.61637620E-02
  0.00000000E+00  0.00000000E+00  0.00000000E+00
 -0.16319597E-02 -0.35336915E-02 -0.33343196E-02
 -0.56111918E-02 -0.27187870E-02 -0.54621867E-02
  0.00000000E+00  0.00000000E+00  0.00000000E+00
 -0.98124368E-03 -0.18991352E-03  0.11729979E-02
  0.61595007E-02 -0.34151655E-03 -0.30536141E-02
  0.22774313E-02  0.50215672E-02  0.12665173E-02
  0.48542184E-02 -0.38927205E-02  0.62597117E-02
 -0.55320135E-02 -0.11900838E-02 -0.35735879E-02
 -0.71256825E-02  0.75418748E-02  0.18772917E-02
 -0.43345013E-02  0.32122835E-02 -0.70481706E-02
 -0.13724262E-02  0.16105116E-02  0.31864094E-02
 -0.30520410E-02 -0.10050566E-02 -0.43176302E-02
  0.86691884E-03  0.11254892E-02 -0.68210105E-03
  0.77373480E-03 -0.53494292E-05 -0.22138923E-02
  0.23279461E-02 -0.19473404E-02 -0.49784982E-02
  0.81729421E-02  0.43728424E-02  0.10037562E-02
  0.16010277E-02 -0.30187221E-02 -0.14461509E-02
  0.37575227E-02  0.44485096E-02  0.70070082E-02
 -0.49055882E-02 -0.57175469E-02 -0.20902145E-02
 -0.45515667E-02 -0.80649336E-02 -0.26029276E-02
 -0.29668243E-02  0.69380497E-02 -0.17739082E-02
 -0.34854293E-02  0.28767444E-03  0.16364825E-02
  0.49838618E-02 -0.40370256E-02  0.23304566E-03
 -0.22915574E-03 -0.48511101E-02 -0.23494290E-02
  0.22285864E-02 -0.23273538E-02  0.25909936E-02
 -0.74381670E-02  0.14772274E-02 -0.25925917E-02
  0.76069412E-03 -0.21114707E-02  0.62884348E-02
 -0.30732480E-02 -0.91863481E-02  0.82250418E-03
  0.17818009E-02  0.30250207E-03 -0.10990994E-01
 -0.68202667E-02 -0.38683477E-02  0.34300346E-02
  0.91851400E-02 -0.27571248E-02  0.37795605E-02
  0.19591747E-02  0.11064222E-02  0.91187319E-02
 -0.65045733E-02 -0.18397304E-02 -0.12249006E-02
  0.40822551E-02 -0.42185937E-02  0.57342022E-02
 -0.55426887E-02 -0.15503804E-02 -0.64937753E-02
 -0.20037036E-01 -0.21657101E-01 -0.46239219E-02
  0.22416111E-01  0.15667279E-02  0.98666419E-03
 -0.16422623E-01 -0.12887270E-02  0.20272007E-01
  0.57406249E-02 -0.13558721E-01 -0.27571039E-02
  0.80344152E-02  0.19530089E-01  0.96188653E-02
  0.54471438E-02  0.45276222E-03 -0.19621196E-01
  0.26157679E-02 -0.12523636E-01  0.10748970E-01
  0.25653125E-01  0.38051006E-02 -0.36885743E-02
 -0.24388979E-01 -0.12096563E-01  0.74363392E-02
  0.77658433E-02 -0.16571184E-01 -0.63127700E-02
 -0.20972688E-01  0.22526773E-01  0.45520761E-01
 -0.42124944E-02 -0.15229996E-01 -0.91915940E-02
  0.24486963E-01  0.13107637E-01 -0.27957205E-02
 -0.13325977E-01 -0.76931971E-02 -0.63952333E-02
 -0.35688388E-02 -0.18613419E-01 -0.58625167E-02
 -0.25605711E-01  0.24609053E-01  0.24891868E-01
 -0.48821936E-02  0.14740186E-01  0.10809467E-01
 -0.17693156E-01  0.13639887E-01  0.62866399E-02
  0.19341320E-01 -0.12587022E-01 -0.14308381E-01
  0.71380051E-02 -0.37506254E-01 -0.68310877E-02
 -0.10166047E-01  0.80655852E-03 -0.13506662E-02
 -0.14395459E-01  0.35537018E-01 -0.17995000E-02
  0.23454554E-02 -0.32610352E-03 -0.12735437E-01
  0.10206304E-01 -0.66246813E-02 -0.77337490E-02
  0.11681433E-01 -0.16093459E-01 -0.30860031E-01
 -0.40814871E-02  0.10055302E-02 -0.11735731E-01
 -0.18715382E-01  0.51978899E-02  0.15715914E-01
  0.23362420E-01  0.26045528E-02 -0.11883965E-01
  0.21619848E-02  0.10696824E-01 -0.24126308E-02
 -0.63869558E-02  0.21299143E-01  0.20550935E-01
 -0.87067196E-02 -0.59900956E-02 -0.41785859E-02
  0.49418452E-02 -0.19682518E-01 -0.19944219E-01
  0.15054424E-01  0.11154391E-01 -0.38305087E-02
  0.15098306E-02 -0.72803216E-02 -0.10309387E-01
  0.20709121E-01  0.15940817E-01  0.39069031E-02
 -0.15039397E-01  0.74063403E-02 -0.11775893E-01
 -0.71855878E-02 -0.18653780E-01 -0.71853920E-02
 -0.12576332E-02 -0.32591093E-01 -0.44584371E-02
  0.65670232E-02 -0.44339877E-02 -0.37006242E-02
 -0.14236669E-02 -0.12097467E-01 -0.18090938E-01
  0.92891880E-02 -0.34754008E-01  0.13546018E-01
 -0.24396184E-01  0.13743951E-01 -0.14346301E-01
  0.14906101E-01  0.72873584E-02  0.26453499E-01
 -0.17817391E-01 -0.26784322E-01  0.19673474E-01
 -0.98774409E-02 -0.39196507E-02  0.42531601E-03
 -0.14578876E-02 -0.44603815E-02 -0.29124882E-01
  0.70561047E-03 -0.40237575E-02  0.23167219E-01
 -0.11850326E-02  0.19212070E-01 -0.24506255E-01
  0.10927190E-01  0.56029633E-02 -0.14680713E-01
 -0.12193686E-01 -0.14608059E-02  0.69325747E-03
  0.19070272E-01 -0.25680653E-01 -0.50041835E-02
  0.50259935E-02 -0.26829902E-02 -0.46255722E-02
 -0.12525775E-02  0.15638428E-01 -0.30581676E-02
 -0.14561812E-01  0.47233212E-03 -0.65828579E-02
  0.13986406E-01 -0.32834223E-02 -0.55712465E-02
 -0.25712116E-01  0.10664038E-01  0.10263751E-02
 -0.77974812E-02  0.61641563E-02 -0.20264837E-02
  0.74571995E-02  0.11821384E-01  0.21764893E-01
  0.23321333E-01 -0.10098369E-01  0.13895429E-01
 -0.71470553E-02 -0.97369807E-03  0.21191998E-01
 -0.19718796E-03  0.24900690E-02 -0.62403243E-03
 -0.53235930E-03 -0.46443650E-03  0.33955074E-03
 
           1
   1.00000000000000     
  0.18676027E+00 -0.10305988E-02 -0.15757503E-02  0.18806345E+00
  0.13468000E+00  0.81200000E-02  0.49370000E-01
  0.39161889E+00  0.33125189E+00  0.33504801E+00
  0.37942820E+00  0.49015818E+00  0.18534686E+00
  0.12389598E+00  0.24602704E+00  0.21011198E+00
  0.28726449E+00  0.99582739E+00  0.29292872E+00
  0.25927999E+00  0.25156999E+00  0.11849001E+00
  0.63467997E+00  0.81200000E-02  0.49370000E-01
  0.87259403E+00  0.19399059E+00  0.33934413E+00
  0.88885491E+00  0.48506753E+00  0.18343370E+00
  0.63601511E+00  0.25089200E+00  0.20558018E+00
  0.76200912E+00  0.97278798E+00  0.27480880E+00
  0.75928001E+00  0.25156999E+00  0.11849001E+00
  0.13468000E+00  0.50812002E+00  0.49370000E-01
  0.37600243E+00  0.80983554E+00  0.34517556E+00
  0.38651434E+00  0.69691021E-02  0.19121299E+00
  0.13167030E+00  0.73842452E+00  0.19662216E+00
  0.24787417E+00  0.48999654E+00  0.27790100E+00
  0.25927999E+00  0.75157001E+00  0.11849001E+00
  0.63467997E+00  0.50812002E+00  0.49370000E-01
  0.88104044E+00  0.71202956E+00  0.33824279E+00
  0.88911974E+00  0.98014406E+00  0.18611093E+00
  0.63100049E+00  0.74948045E+00  0.20470953E+00
  0.75563259E+00  0.47210523E+00  0.27764103E+00
  0.75928001E+00  0.75157001E+00  0.11849001E+00
  0.13322322E+00  0.26088487E+00  0.31208119E+00
  0.38565999E+00  0.40190000E-01  0.89570000E-01
  0.38409061E+00  0.21575263E+00  0.24621513E+00
  0.12987305E+00  0.45198738E+00  0.14828267E+00
  0.64315106E+00  0.25488207E+00  0.31476672E+00
  0.88565999E+00  0.40190000E-01  0.89570000E-01
  0.88474449E+00  0.19546062E+00  0.23978303E+00
  0.63538758E+00  0.47593010E+00  0.14796833E+00
  0.20897882E+00  0.80254408E+00  0.42192588E+00
  0.38565999E+00  0.54018997E+00  0.89570000E-01
  0.37299156E+00  0.71954816E+00  0.25161191E+00
  0.13014833E+00  0.95459288E+00  0.14906786E+00
  0.63644787E+00  0.75934599E+00  0.30697018E+00
  0.88565999E+00  0.54018997E+00  0.89570000E-01
  0.88960181E+00  0.69878659E+00  0.24181400E+00
  0.64157545E+00  0.96462728E+00  0.14760249E+00
  0.24611281E-01  0.29975584E+00  0.33756733E+00
  0.13153701E+00  0.31701354E+00  0.26800923E+00
  0.13798330E+00  0.12023158E+00  0.15502070E+00
  0.23538015E+00  0.37373676E+00  0.32821969E+00
  0.48708998E+00  0.10149000E+00  0.65660000E-01
  0.38014828E+00  0.10770762E+00  0.13524567E+00
  0.37090636E+00  0.37992985E+00  0.24377942E+00
  0.27899000E+00  0.11867000E+00  0.68990000E-01
  0.48655684E+00  0.14294919E+00  0.22208943E+00
  0.39840727E+00  0.17824649E+00  0.29403815E+00
  0.37733002E+00  0.37812001E+00  0.87590000E-01
  0.27537560E+00  0.13977756E+00  0.22747619E+00
  0.32086198E-01  0.39025706E+00  0.17429541E+00
  0.13805000E+00  0.40571002E+00  0.10378000E+00
  0.15754035E+00  0.10094899E+00  0.31828601E+00
  0.23481619E+00  0.37549019E+00  0.16944737E+00
  0.54841774E+00  0.29889012E+00  0.34731405E+00
  0.62849773E+00  0.32284401E+00  0.27078077E+00
  0.64897889E+00  0.12815101E+00  0.15095874E+00
  0.75696637E+00  0.33920574E+00  0.32587494E+00
  0.98709002E+00  0.10149000E+00  0.65660000E-01
  0.88141713E+00  0.10434068E+00  0.13380557E+00
  0.87234697E+00  0.36122728E+00  0.23881936E+00
  0.77899000E+00  0.11867000E+00  0.68990000E-01
  0.98562672E+00  0.13403145E+00  0.21489619E+00
  0.89887757E+00  0.14034133E+00  0.28372949E+00
  0.87732998E+00  0.37812001E+00  0.87590000E-01
  0.77497945E+00  0.11968114E+00  0.22560267E+00
  0.53934776E+00  0.41491508E+00  0.17896985E+00
  0.63805000E+00  0.40571002E+00  0.10378000E+00
  0.67227129E+00  0.99763464E-01  0.31852378E+00
  0.74170157E+00  0.38649287E+00  0.16495611E+00
  0.12961047E+00  0.91614584E+00  0.39472907E+00
  0.27029918E+00  0.73419121E+00  0.38361427E+00
  0.13375670E+00  0.61624638E+00  0.14758488E+00
  0.28933610E+00  0.89900717E+00  0.44816076E+00
  0.48708998E+00  0.60149001E+00  0.65660000E-01
  0.38435229E+00  0.59931218E+00  0.13440818E+00
  0.36327371E+00  0.88402169E+00  0.25068826E+00
  0.27899000E+00  0.61866997E+00  0.68990000E-01
  0.47376724E+00  0.65463692E+00  0.22583704E+00
  0.36285967E+00  0.66008270E+00  0.29695807E+00
  0.37733002E+00  0.87811996E+00  0.87590000E-01
  0.26088938E+00  0.63991622E+00  0.23299765E+00
  0.24677374E-01  0.88444368E+00  0.17014846E+00
  0.13805000E+00  0.90570999E+00  0.10378000E+00
  0.12484560E+00  0.70475718E+00  0.44195208E+00
  0.24160566E+00  0.87974454E+00  0.16914360E+00
  0.54429900E+00  0.82054213E+00  0.33312755E+00
  0.62629311E+00  0.83210952E+00  0.26397237E+00
  0.64706988E+00  0.63431383E+00  0.14934766E+00
  0.75773596E+00  0.82069631E+00  0.32056331E+00
  0.98709002E+00  0.60149001E+00  0.65660000E-01
  0.87612953E+00  0.60322754E+00  0.13400542E+00
  0.88353629E+00  0.85868775E+00  0.24140920E+00
  0.77899000E+00  0.61866997E+00  0.68990000E-01
  0.98954078E+00  0.64519653E+00  0.21692360E+00
  0.90153049E+00  0.64364686E+00  0.28502575E+00
  0.87732998E+00  0.87811996E+00  0.87590000E-01
  0.77702225E+00  0.62644750E+00  0.22435849E+00
  0.53255989E+00  0.90630486E+00  0.17172034E+00
  0.63805000E+00  0.90570999E+00  0.10378000E+00
  0.64264771E+00  0.59390334E+00  0.30709348E+00
  0.74848617E+00  0.87730319E+00  0.16799977E+00
  0.11730594E+00  0.80844513E-01  0.48555066E+00
  0.71207496E+00  0.56651698E+00  0.57405161E+00
  0.54676716E+00  0.61449912E+00  0.39635802E+00
  0.13342802E+00  0.51767727E+00  0.55230657E+00
  0.90108141E-01  0.21735600E-01  0.56241651E+00
  0.91961555E+00  0.92017720E+00  0.45630872E+00
  0.52663797E+00  0.22051089E+00  0.42859124E+00
  0.38276114E+00  0.44024133E+00  0.38105136E+00
  0.69252855E+00  0.94247417E-01  0.58830120E+00
  0.48491949E+00  0.46626617E+00  0.55781878E+00