Ni_COCH2
   1.00000000000000     
     9.8291997910000006    0.0000000000000000    0.0000000000000000
     4.9145998955000003    8.5123367178000002    0.0000000000000000
     0.0000000000000000    0.0000000000000000   19.0128002167000005
   Ni   O    C    H 
    64     1     2     2
Selective dynamics
Direct
      0.8344898905422374      0.5846494877212748      0.2716539414917688   T T T
      0.3347332449712658      0.0844272272498984      0.2714530896405369   T T T
      0.8346853102604835      0.0843445377716430      0.2715301880547281   T T T
      0.3345450103611507      0.5845457566300416      0.2714802537544466   T T T
      0.5843343349591846      0.8344787764869818      0.2713734517308098   T T T
      0.8346557513061078      0.8343380996089911      0.2714251806652572   T T T
      0.0849422777252765      0.3340456646214880      0.2716383691800929   T T T
      0.8347150399325093      0.3338064041781529      0.2717719581676266   T T T
      0.5845542761037371      0.5843388351003748      0.2716894541286065   T T T
      0.0845688599156337      0.5841125916144012      0.2716419922746870   T T T
      0.0850517841882517      0.0843180077758957      0.2710262659163346   T T T
      0.5842340064751419      0.0847033729397021      0.2720241389619684   T T T
      0.3343200863008523      0.8350565348847020      0.2706496401157784   T T T
      0.0844883045700385      0.8343941011762583      0.2712511469142291   T T T
      0.3346869554211743      0.3341894687901024      0.2716922517816278   T T T
      0.5845339899387125      0.3344905818932180      0.2719198854556344   T T T
      0.9169915251269011      0.6669309201069697      0.3774352612099068   T T T
      0.9168106117702808      0.4176626610068640      0.3764293510126437   T T T
      0.6673676768796903      0.6672924640319358      0.3769095114238883   T T T
      0.1659917513367264      0.1685482376106238      0.3769413314880929   T T T
      0.9168371533451180      0.1685946796723439      0.3773137743176383   T T T
      0.9172447049326646      0.9181828728798107      0.3764956764290586   T T T
      0.4167791465767802      0.9178838110493944      0.3764709221898517   T T T
      0.4168981968768800      0.1690331212710937      0.3782060391494506   T T T
      0.6671271119783758      0.1685294771327336      0.3772486776724588   T T T
      0.1672303364429968      0.6675504516775509      0.3764525136892030   T T T
      0.4178034870858433      0.6675211429684583      0.3765997363302112   T T T
      0.4171230194568722      0.4181950419701752      0.3771622095651094   T T T
      0.6669202290653683      0.9179439084885691      0.3766802958728625   T T T
      0.1663733376847817      0.4176928748181167      0.3773977702326271   T T T
      0.6674754924081908      0.4176613808843712      0.3777637815945580   T T T
      0.1668615189454480      0.9182112033513916      0.3763032023255824   T T T
     -0.0006346290138090      0.2497482881214781      0.4854956998423569   T T T
      0.4969472696555131      0.2482371793384578      0.4855919111114423   T T T
      0.0000303723454303      0.7504199259931035      0.4823655932838505   T T T
      0.4990790037805578      0.7503313468330198      0.4820168604665435   T T T
      0.7479373363307109      0.7532359330630498      0.4822295575387626   T T T
     -0.0005522688770567      0.5003296969918081      0.4866037006060903   T T T
      0.7502029971258778      0.5026320546849096      0.4854464054052395   T T T
      0.2490132981479500      0.0000073524361593      0.4822870347128678   T T T
     -0.0002618447010442      0.0004356402059001      0.4821268121431045   T T T
      0.4989521893437737     -0.0012798402781902      0.4824340404117090   T T T
      0.2498674282345262      0.7503424920135455      0.4820072244195125   T T T
      0.7522349909964786      0.9960839153750596      0.4820993885451788   T T T
      0.2503954826087378      0.2484491582567864      0.4823370676421539   T T T
      0.7486947058245822      0.2481160344137577      0.4857694591846844   T T T
      0.2447433163098953      0.5036590881096361      0.4823141686976939   T T T
      0.4978457899399643      0.5020429349294342      0.4859212335340621   T T T
      0.0018176537253515      0.2509756915648110      0.1659749265354162   F F F
      0.5021220502853647      0.2506367212522064      0.1663255455176901   F F F
      0.0021362564975834      0.7504066808850226      0.1655835383050240   F F F
      0.5025896274849248      0.7500994511329558      0.1656261519167626   F F F
      0.7524668513535963      0.7502565646721070      0.1659550004635844   F F F
      0.0020491891362173      0.5006203709003636      0.1660421117282607   F F F
      0.7519682512745340      0.5005821444685997      0.1660680252647680   F F F
      0.2519774394868258      0.0006709305130922      0.1653650346417994   F F F
      0.0017260767648110      0.0006405847720415      0.1657546627342552   F F F
      0.5024606803709000      0.0004132175170146      0.1660779171114273   F F F
      0.2518619390842194      0.7502963536623684      0.1654751872028704   F F F
      0.7519609095741174      0.0004709751462192      0.1659285164827878   F F F
      0.2518682003634010      0.2509057310044618      0.1661349635764087   F F F
      0.7519842961241259      0.2507660605211621      0.1663163945546763   F F F
      0.2516468039052295      0.5006185319978723      0.1658615237487520   F F F
      0.5019194860983555      0.5005972450818181      0.1661084678075531   F F F
      0.9117411268220394      0.4154251114772024      0.6184629775635270   T T T
      0.9155895191675373      0.4163325066900975      0.5555998634079481   T T T
      0.5821535676306101      0.3357707166242120      0.5530804098448754   T T T
      0.6190116795321068      0.3676415142819092      0.6022050988129770   T T T
      0.5150024003813839      0.2739738029830135      0.5741843614961071   T T T
 
  0.00000000E+00  0.00000000E+00  0.00000000E+00
  0.00000000E+00  0.00000000E+00  0.00000000E+00
  0.00000000E+00  0.00000000E+00  0.00000000E+00
  0.00000000E+00  0.00000000E+00  0.00000000E+00
  0.00000000E+00  0.00000000E+00  0.00000000E+00
  0.00000000E+00  0.00000000E+00  0.00000000E+00
  0.00000000E+00  0.00000000E+00  0.00000000E+00
  0.00000000E+00  0.00000000E+00  0.00000000E+00
  0.00000000E+00  0.00000000E+00  0.00000000E+00
  0.00000000E+00  0.00000000E+00  0.00000000E+00
  0.00000000E+00  0.00000000E+00  0.00000000E+00
  0.00000000E+00  0.00000000E+00  0.00000000E+00
  0.00000000E+00  0.00000000E+00  0.00000000E+00
  0.00000000E+00  0.00000000E+00  0.00000000E+00
  0.00000000E+00  0.00000000E+00  0.00000000E+00
  0.00000000E+00  0.00000000E+00  0.00000000E+00
  0.00000000E+00  0.00000000E+00  0.00000000E+00
  0.00000000E+00  0.00000000E+00  0.00000000E+00
  0.00000000E+00  0.00000000E+00  0.00000000E+00
  0.00000000E+00  0.00000000E+00  0.00000000E+00
  0.00000000E+00  0.00000000E+00  0.00000000E+00
  0.00000000E+00  0.00000000E+00  0.00000000E+00
  0.00000000E+00  0.00000000E+00  0.00000000E+00
  0.00000000E+00  0.00000000E+00  0.00000000E+00
  0.00000000E+00  0.00000000E+00  0.00000000E+00
  0.00000000E+00  0.00000000E+00  0.00000000E+00
  0.00000000E+00  0.00000000E+00  0.00000000E+00
  0.00000000E+00  0.00000000E+00  0.00000000E+00
  0.00000000E+00  0.00000000E+00  0.00000000E+00
  0.00000000E+00  0.00000000E+00  0.00000000E+00
  0.00000000E+00  0.00000000E+00  0.00000000E+00
  0.00000000E+00  0.00000000E+00  0.00000000E+00
  0.00000000E+00  0.00000000E+00  0.00000000E+00
  0.00000000E+00  0.00000000E+00  0.00000000E+00
  0.00000000E+00  0.00000000E+00  0.00000000E+00
  0.00000000E+00  0.00000000E+00  0.00000000E+00
  0.00000000E+00  0.00000000E+00  0.00000000E+00
  0.00000000E+00  0.00000000E+00  0.00000000E+00
  0.00000000E+00  0.00000000E+00  0.00000000E+00
  0.00000000E+00  0.00000000E+00  0.00000000E+00
  0.00000000E+00  0.00000000E+00  0.00000000E+00
  0.00000000E+00  0.00000000E+00  0.00000000E+00
  0.00000000E+00  0.00000000E+00  0.00000000E+00
  0.00000000E+00  0.00000000E+00  0.00000000E+00
  0.00000000E+00  0.00000000E+00  0.00000000E+00
  0.00000000E+00  0.00000000E+00  0.00000000E+00
  0.00000000E+00  0.00000000E+00  0.00000000E+00
  0.00000000E+00  0.00000000E+00  0.00000000E+00
  0.00000000E+00  0.00000000E+00  0.00000000E+00
  0.00000000E+00  0.00000000E+00  0.00000000E+00
  0.00000000E+00  0.00000000E+00  0.00000000E+00
  0.00000000E+00  0.00000000E+00  0.00000000E+00
  0.00000000E+00  0.00000000E+00  0.00000000E+00
  0.00000000E+00  0.00000000E+00  0.00000000E+00
  0.00000000E+00  0.00000000E+00  0.00000000E+00
  0.00000000E+00  0.00000000E+00  0.00000000E+00
  0.00000000E+00  0.00000000E+00  0.00000000E+00
  0.00000000E+00  0.00000000E+00  0.00000000E+00
  0.00000000E+00  0.00000000E+00  0.00000000E+00
  0.00000000E+00  0.00000000E+00  0.00000000E+00
  0.00000000E+00  0.00000000E+00  0.00000000E+00
  0.00000000E+00  0.00000000E+00  0.00000000E+00
  0.00000000E+00  0.00000000E+00  0.00000000E+00
  0.00000000E+00  0.00000000E+00  0.00000000E+00
  0.00000000E+00  0.00000000E+00  0.00000000E+00
  0.00000000E+00  0.00000000E+00  0.00000000E+00
  0.00000000E+00  0.00000000E+00  0.00000000E+00
  0.00000000E+00  0.00000000E+00  0.00000000E+00
  0.00000000E+00  0.00000000E+00  0.00000000E+00
