Cu                                      
   1.00000000000000     
    10.0420999999999996    0.0000000000000000    0.0000000000000006
    -5.0210499999999989    8.6967137073437115    0.0000000000000006
     0.0000000000000000    0.0000000000000000   16.1494999999999997
   Cu   H 
    64     1
Selective dynamics
Direct
  0.0000000000000000  0.0000000000000000  0.0000000000000000   F   F   F
  0.3333332999999996  0.1666700000000034  0.1269300000000015   F   F   F
  0.1672402781036799  0.3343628457314310  0.2546920448797969   T   T   T
 -0.0003507039206814 -0.0011941346863895  0.3831858823955783   T   T   T
  0.2500000000000000  0.0000000000000000  0.0000000000000000   F   F   F
  0.0833299999999966  0.1666700000000034  0.1269300000000015   F   F   F
  0.4161426404416760  0.3328244367562538  0.2538011809109210   T   T   T
  0.2495670342960483 -0.0012192991733600  0.3830307931960373   T   T   T
  0.2500000000000000  0.2500000000000000  0.0000000000000000   F   F   F
  0.0833299999999966  0.4166700000000034  0.1269300000000015   F   F   F
  0.4162184915914901  0.0826513392863490  0.2538632026848622   T   T   T
  0.2494945589056455  0.2487674477164155  0.3829041838196428   T   T   T
  0.0000000000000000  0.2500000000000000  0.0000000000000000   F   F   F
  0.3333332999999996  0.4166700000000034  0.1269300000000015   F   F   F
  0.1660569189170624  0.0826145387497585  0.2533929555369612   T   T   T
 -0.0003812383803512  0.2487901904518827  0.3828962171310057   T   T   T
  0.5000000000000000  0.0000000000000000  0.0000000000000000   F   F   F
  0.8333299999999966  0.1666700000000034  0.1269300000000015   F   F   F
  0.6664962524572786  0.3329934396847153  0.2540168670928567   T   T   T
  0.5007083574518710  0.0009389633898945  0.3827933346683488   T   T   T
  0.7500000000000000  0.0000000000000000  0.0000000000000000   F   F   F
  0.5833299999999966  0.1666700000000034  0.1269300000000015   F   F   F
  0.9167470771580088  0.3328411191379130  0.2538001419118967   T   T   T
  0.7497297745339987 -0.0011199597972552  0.3829347406827547   T   T   T
  0.7500000000000000  0.2500000000000000  0.0000000000000000   F   F   F
  0.5833299999999966  0.4166700000000034  0.1269300000000015   F   F   F
  0.9167447022668902  0.0826729257303653  0.2533836182125260   T   T   T
  0.7497297965597008  0.2487975960559398  0.3830952485483194   T   T   T
  0.5000000000000000  0.2500000000000000  0.0000000000000000   F   F   F
  0.8333299999999966  0.4166700000000034  0.1269300000000015   F   F   F
  0.6665620061863461  0.0827067544881027  0.2538424693766670   T   T   T
  0.4992979598524016  0.2487274783945421  0.3831142354868877   T   T   T
  0.0000000000000000  0.5000000000000000  0.0000000000000000   F   F   F
  0.3333332999999996  0.6666667000000004  0.1269300000000015   F   F   F
  0.1673817318623274  0.8321263275009413  0.2548076166936526   T   T   T
 -0.0023710026276574  0.4978504646024907  0.3827825369911097   T   T   T
  0.2500000000000000  0.5000000000000000  0.0000000000000000   F   F   F
  0.0833299999999966  0.6666667000000004  0.1269300000000015   F   F   F
  0.4166199075192077  0.8330759495347069  0.2531673588885915   T   T   T
  0.2492124473000283  0.4979382504122695  0.3856469405968796   T   T   T
  0.2500000000000000  0.7500000000000000  0.0000000000000000   F   F   F
  0.0833299999999966  0.9166700000000034  0.1269300000000015   F   F   F
  0.4165910904622016  0.5828055652205889  0.2531596542445295   T   T   T
  0.2493166176104883  0.7492299437042476  0.3856705051716693   T   T   T
  0.0000000000000000  0.7500000000000000  0.0000000000000000   F   F   F
  0.3333332999999996  0.9166700000000034  0.1269300000000015   F   F   F
  0.1663680885397070  0.5828061336537602  0.2531964811826224   T   T   T
 -0.0001489367816836  0.7489981075977298  0.3830162909538254   T   T   T
  0.5000000000000000  0.5000000000000000  0.0000000000000000   F   F   F
  0.8333299999999966  0.6666667000000004  0.1269300000000015   F   F   F
  0.6650016918212447  0.8321880442739582  0.2547739420226475   T   T   T
  0.5006844178574081  0.4978750343316642  0.3827517448598172   T   T   T
  0.7500000000000000  0.5000000000000000  0.0000000000000000   F   F   F
  0.5833299999999966  0.6666667000000004  0.1269300000000015   F   F   F
  0.9167869111039162  0.8333299101761370  0.2534270075657057   T   T   T
  0.7498726497091068  0.4993291717938846  0.3831246293209476   T   T   T
  0.7500000000000000  0.7500000000000000  0.0000000000000000   F   F   F
  0.5833299999999966  0.9166700000000034  0.1269300000000015   F   F   F
  0.9168699938723717  0.5833353088320724  0.2538472376605374   T   T   T
  0.7497436669255126  0.7490751595171719  0.3829267517043169   T   T   T
  0.5000000000000000  0.7500000000000000  0.0000000000000000   F   F   F
  0.8333299999999966  0.9166700000000034  0.1269300000000015   F   F   F
  0.6666164889198131  0.5833565523628228  0.2538303418187609   T   T   T
  0.5005479421546319  0.7492718866979284  0.3855238397630466   T   T   T
  0.3332647855994927  0.6654708830521733  0.4425613899921648   T   T   T
 
  0.00000000E+00  0.00000000E+00  0.00000000E+00
  0.00000000E+00  0.00000000E+00  0.00000000E+00
  0.00000000E+00  0.00000000E+00  0.00000000E+00
  0.00000000E+00  0.00000000E+00  0.00000000E+00
  0.00000000E+00  0.00000000E+00  0.00000000E+00
  0.00000000E+00  0.00000000E+00  0.00000000E+00
  0.00000000E+00  0.00000000E+00  0.00000000E+00
  0.00000000E+00  0.00000000E+00  0.00000000E+00
  0.00000000E+00  0.00000000E+00  0.00000000E+00
  0.00000000E+00  0.00000000E+00  0.00000000E+00
  0.00000000E+00  0.00000000E+00  0.00000000E+00
  0.00000000E+00  0.00000000E+00  0.00000000E+00
  0.00000000E+00  0.00000000E+00  0.00000000E+00
  0.00000000E+00  0.00000000E+00  0.00000000E+00
  0.00000000E+00  0.00000000E+00  0.00000000E+00
  0.00000000E+00  0.00000000E+00  0.00000000E+00
  0.00000000E+00  0.00000000E+00  0.00000000E+00
  0.00000000E+00  0.00000000E+00  0.00000000E+00
  0.00000000E+00  0.00000000E+00  0.00000000E+00
  0.00000000E+00  0.00000000E+00  0.00000000E+00
  0.00000000E+00  0.00000000E+00  0.00000000E+00
  0.00000000E+00  0.00000000E+00  0.00000000E+00
  0.00000000E+00  0.00000000E+00  0.00000000E+00
  0.00000000E+00  0.00000000E+00  0.00000000E+00
  0.00000000E+00  0.00000000E+00  0.00000000E+00
  0.00000000E+00  0.00000000E+00  0.00000000E+00
  0.00000000E+00  0.00000000E+00  0.00000000E+00
  0.00000000E+00  0.00000000E+00  0.00000000E+00
  0.00000000E+00  0.00000000E+00  0.00000000E+00
  0.00000000E+00  0.00000000E+00  0.00000000E+00
  0.00000000E+00  0.00000000E+00  0.00000000E+00
  0.00000000E+00  0.00000000E+00  0.00000000E+00
  0.00000000E+00  0.00000000E+00  0.00000000E+00
  0.00000000E+00  0.00000000E+00  0.00000000E+00
  0.00000000E+00  0.00000000E+00  0.00000000E+00
  0.00000000E+00  0.00000000E+00  0.00000000E+00
  0.00000000E+00  0.00000000E+00  0.00000000E+00
  0.00000000E+00  0.00000000E+00  0.00000000E+00
  0.00000000E+00  0.00000000E+00  0.00000000E+00
  0.00000000E+00  0.00000000E+00  0.00000000E+00
  0.00000000E+00  0.00000000E+00  0.00000000E+00
  0.00000000E+00  0.00000000E+00  0.00000000E+00
  0.00000000E+00  0.00000000E+00  0.00000000E+00
  0.00000000E+00  0.00000000E+00  0.00000000E+00
  0.00000000E+00  0.00000000E+00  0.00000000E+00
  0.00000000E+00  0.00000000E+00  0.00000000E+00
  0.00000000E+00  0.00000000E+00  0.00000000E+00
  0.00000000E+00  0.00000000E+00  0.00000000E+00
  0.00000000E+00  0.00000000E+00  0.00000000E+00
  0.00000000E+00  0.00000000E+00  0.00000000E+00
  0.00000000E+00  0.00000000E+00  0.00000000E+00
  0.00000000E+00  0.00000000E+00  0.00000000E+00
  0.00000000E+00  0.00000000E+00  0.00000000E+00
  0.00000000E+00  0.00000000E+00  0.00000000E+00
  0.00000000E+00  0.00000000E+00  0.00000000E+00
  0.00000000E+00  0.00000000E+00  0.00000000E+00
  0.00000000E+00  0.00000000E+00  0.00000000E+00
  0.00000000E+00  0.00000000E+00  0.00000000E+00
  0.00000000E+00  0.00000000E+00  0.00000000E+00
  0.00000000E+00  0.00000000E+00  0.00000000E+00
  0.00000000E+00  0.00000000E+00  0.00000000E+00
  0.00000000E+00  0.00000000E+00  0.00000000E+00
  0.00000000E+00  0.00000000E+00  0.00000000E+00
  0.00000000E+00  0.00000000E+00  0.00000000E+00
  0.00000000E+00  0.00000000E+00  0.00000000E+00
