Ni_COC
   1.00000000000000     
     9.8291997910000006    0.0000000000000000    0.0000000000000000
     4.9145998955000003    8.5123367178000002    0.0000000000000000
     0.0000000000000000    0.0000000000000000   19.0128002167000005
   Ni   O    C 
    64     1     2
Selective dynamics
Direct
      0.8328852221265488      0.5849787845188612      0.2716925724730692   T T T
      0.3333257218031669      0.0846374783160613      0.2708792012010062   T T T
      0.8333038131184780      0.0844449055449531      0.2716314620897873   T T T
      0.3334162173234770      0.5844518018381252      0.2716312611144489   T T T
      0.5831718582403057      0.8348267130530372      0.2712255170483132   T T T
      0.8333362862200987      0.8346901630873961      0.2713415545265918   T T T
      0.0835138818999365      0.3344259842497228      0.2716925099983044   T T T
      0.8330965724705781      0.3342411363395841      0.2717900776221201   T T T
      0.5833108321670667      0.5846321812088087      0.2717693003287453   T T T
      0.0832633978782414      0.5844130347271368      0.2716936325730691   T T T
      0.0832840288682532      0.0847586836997462      0.2712803861075519   T T T
      0.5829363765492660      0.0847905430016197      0.2718512830161788   T T T
      0.3333722696189766      0.8347668486156925      0.2709739209511234   T T T
      0.0832676902650576      0.8345091359465919      0.2714313854597436   T T T
      0.3332727827514106      0.3344410805430429      0.2716188970104196   T T T
      0.5830410932803415      0.3345316254449784      0.2723803646489965   T T T
      0.9167985305864641      0.6659649191590160      0.3773971386647268   T T T
      0.9164125715255681      0.4163290534740290      0.3765701572946995   T T T
      0.6669707591263814      0.6660290255710442      0.3770633569896111   T T T
      0.1662512573476106      0.1672255587338254      0.3766561364704749   T T T
      0.9164509728050827      0.1671088588223156      0.3776510016019821   T T T
      0.9170457835070225      0.9168691825355545      0.3767913762179658   T T T
      0.4168544554619972      0.9167081805128945      0.3762520165714482   T T T
      0.4165916226239791      0.1671801166904762      0.3775426802124639   T T T
      0.6666554186226769      0.1669332944081752      0.3775656786083835   T T T
      0.1672513088907144      0.6660754948813352      0.3767943918551894   T T T
      0.4176188100051114      0.6657468156421016      0.3770450137460251   T T T
      0.4168288585218900      0.4164057309336761      0.3776121862004955   T T T
      0.6666924723670055      0.9167351067673226      0.3766033853843676   T T T
      0.1664010649996017      0.4162932596988026      0.3774061651289676   T T T
      0.6670870593316042      0.4164699789801793      0.3778448437851418   T T T
      0.1667817511956142      0.9168966673885631      0.3762649187210344   T T T
      0.0017479491858748      0.2477408457561337      0.4854503279378476   T T T
      0.4982385905061897      0.2461315951741597      0.4883616902484063   T T T
      0.0007241482078901      0.7487575585767439      0.4828459767985328   T T T
      0.4997153744641119      0.7501901042541916      0.4820778403522655   T T T
      0.7483990768939761      0.7517785434160625      0.4823776987124153   T T T
      0.0004908106057068      0.4991630440533647      0.4863351820605137   T T T
      0.7519419594347342      0.5010486820618130      0.4858235864398227   T T T
      0.2503576305981213     -0.0009700099940831      0.4819252928029838   T T T
      0.0022131047292790     -0.0026016324936769      0.4824759654756278   T T T
      0.5001262125521303     -0.0019300693103288      0.4824714011071873   T T T
      0.2494957263495776      0.7502013809226145      0.4821129434990381   T T T
      0.7534684752649322      0.9934342940599028      0.4821657669506359   T T T
      0.2523967597589490      0.2472985318545859      0.4822416999267181   T T T
      0.7541922187847212      0.2445857745021918      0.4877643860285836   T T T
      0.2451857469620871      0.5015291128851420      0.4824517028690953   T T T
      0.4967542089466458      0.5047171135630991      0.4876818633909564   T T T
      0.9991182260315823      0.2523002345425643      0.1660147625145431   F F F
      0.4995395754182336      0.2521997930342862      0.1664444646121867   F F F
     -0.0003695886176736      0.7518856884255289      0.1657333801143587   F F F
      0.4999801235032723      0.7516638086610560      0.1657057659774788   F F F
      0.7502227893328317      0.7515885782305426      0.1657891502460621   F F F
     -0.0005536217549275      0.5021732506840355      0.1659990352860749   F F F
      0.7494719540431095      0.5020306424844214      0.1659982729645680   F F F
      0.2493454697164666      0.0019920810250979      0.1655915224683772   F F F
     -0.0007169512973357      0.0019840379303393      0.1658207740463517   F F F
      0.5000306529205302      0.0018665647030105      0.1657953505893881   F F F
      0.2495531345898481      0.7517806304109305      0.1657156643830056   F F F
      0.7494930625218711      0.0021203725802527      0.1659069143993755   F F F
      0.2493012296092433      0.2523372627786912      0.1659119988856121   F F F
      0.7493665994936705      0.2522628808495753      0.1664734743196439   F F F
      0.2494046421481939      0.5020296409894665      0.1658757341393163   F F F
      0.4995398195029395      0.5020227762611060      0.1663211029918507   F F F
      0.9183551107654636      0.4116856013413512      0.6183604133069965   T T T
      0.9199620583782455      0.4127886399656571      0.5556288994188523   T T T
      0.5827608309499807      0.3338470894855000      0.5401943261128764   T T T
 
  0.00000000E+00  0.00000000E+00  0.00000000E+00
  0.00000000E+00  0.00000000E+00  0.00000000E+00
  0.00000000E+00  0.00000000E+00  0.00000000E+00
  0.00000000E+00  0.00000000E+00  0.00000000E+00
  0.00000000E+00  0.00000000E+00  0.00000000E+00
  0.00000000E+00  0.00000000E+00  0.00000000E+00
  0.00000000E+00  0.00000000E+00  0.00000000E+00
  0.00000000E+00  0.00000000E+00  0.00000000E+00
  0.00000000E+00  0.00000000E+00  0.00000000E+00
  0.00000000E+00  0.00000000E+00  0.00000000E+00
  0.00000000E+00  0.00000000E+00  0.00000000E+00
  0.00000000E+00  0.00000000E+00  0.00000000E+00
  0.00000000E+00  0.00000000E+00  0.00000000E+00
  0.00000000E+00  0.00000000E+00  0.00000000E+00
  0.00000000E+00  0.00000000E+00  0.00000000E+00
  0.00000000E+00  0.00000000E+00  0.00000000E+00
  0.00000000E+00  0.00000000E+00  0.00000000E+00
  0.00000000E+00  0.00000000E+00  0.00000000E+00
  0.00000000E+00  0.00000000E+00  0.00000000E+00
  0.00000000E+00  0.00000000E+00  0.00000000E+00
  0.00000000E+00  0.00000000E+00  0.00000000E+00
  0.00000000E+00  0.00000000E+00  0.00000000E+00
  0.00000000E+00  0.00000000E+00  0.00000000E+00
  0.00000000E+00  0.00000000E+00  0.00000000E+00
  0.00000000E+00  0.00000000E+00  0.00000000E+00
  0.00000000E+00  0.00000000E+00  0.00000000E+00
  0.00000000E+00  0.00000000E+00  0.00000000E+00
  0.00000000E+00  0.00000000E+00  0.00000000E+00
  0.00000000E+00  0.00000000E+00  0.00000000E+00
  0.00000000E+00  0.00000000E+00  0.00000000E+00
  0.00000000E+00  0.00000000E+00  0.00000000E+00
  0.00000000E+00  0.00000000E+00  0.00000000E+00
  0.00000000E+00  0.00000000E+00  0.00000000E+00
  0.00000000E+00  0.00000000E+00  0.00000000E+00
  0.00000000E+00  0.00000000E+00  0.00000000E+00
  0.00000000E+00  0.00000000E+00  0.00000000E+00
  0.00000000E+00  0.00000000E+00  0.00000000E+00
  0.00000000E+00  0.00000000E+00  0.00000000E+00
  0.00000000E+00  0.00000000E+00  0.00000000E+00
  0.00000000E+00  0.00000000E+00  0.00000000E+00
  0.00000000E+00  0.00000000E+00  0.00000000E+00
  0.00000000E+00  0.00000000E+00  0.00000000E+00
  0.00000000E+00  0.00000000E+00  0.00000000E+00
  0.00000000E+00  0.00000000E+00  0.00000000E+00
  0.00000000E+00  0.00000000E+00  0.00000000E+00
  0.00000000E+00  0.00000000E+00  0.00000000E+00
  0.00000000E+00  0.00000000E+00  0.00000000E+00
  0.00000000E+00  0.00000000E+00  0.00000000E+00
  0.00000000E+00  0.00000000E+00  0.00000000E+00
  0.00000000E+00  0.00000000E+00  0.00000000E+00
  0.00000000E+00  0.00000000E+00  0.00000000E+00
  0.00000000E+00  0.00000000E+00  0.00000000E+00
  0.00000000E+00  0.00000000E+00  0.00000000E+00
  0.00000000E+00  0.00000000E+00  0.00000000E+00
  0.00000000E+00  0.00000000E+00  0.00000000E+00
  0.00000000E+00  0.00000000E+00  0.00000000E+00
  0.00000000E+00  0.00000000E+00  0.00000000E+00
  0.00000000E+00  0.00000000E+00  0.00000000E+00
  0.00000000E+00  0.00000000E+00  0.00000000E+00
  0.00000000E+00  0.00000000E+00  0.00000000E+00
  0.00000000E+00  0.00000000E+00  0.00000000E+00
  0.00000000E+00  0.00000000E+00  0.00000000E+00
  0.00000000E+00  0.00000000E+00  0.00000000E+00
  0.00000000E+00  0.00000000E+00  0.00000000E+00
  0.00000000E+00  0.00000000E+00  0.00000000E+00
  0.00000000E+00  0.00000000E+00  0.00000000E+00
  0.00000000E+00  0.00000000E+00  0.00000000E+00
