Ni_CO2CH2
   1.00000000000000     
     9.8291997910000006    0.0000000000000000    0.0000000000000000
     4.9145998955000003    8.5123367178000002    0.0000000000000000
     0.0000000000000000    0.0000000000000000   19.0128002167000005
   Ni   O    C    H 
    64     2     2     2
Selective dynamics
Direct
      0.8246224062299773      0.5845737290399849      0.2715525420009293   T T T
      0.3254760336874071      0.0839419630905486      0.2712585604073518   T T T
      0.8246238617483499      0.0836854930773542      0.2704011022741832   T T T
      0.3251508287126820      0.5838390386455148      0.2707882597647880   T T T
      0.5751610631096820      0.8339219723056669      0.2711420257822298   T T T
      0.8247398316879186      0.8339585243661543      0.2709253471271693   T T T
      0.0751165597286458      0.3336938845967979      0.2713075384005142   T T T
      0.8252155686006185      0.3339030670068908      0.2708217240641994   T T T
      0.5754140321054668      0.5838773597429614      0.2711788919280145   T T T
      0.0745133651917089      0.5840673436570778      0.2714301266338764   T T T
      0.0754852073547415      0.0839568274152884      0.2705523178629232   T T T
      0.5744375590530295      0.0838673688790754      0.2715279528110351   T T T
      0.3252613609274098      0.8338762203459918      0.2707238475210713   T T T
      0.0751457568863022      0.8339259795745543      0.2707737135563316   T T T
      0.3251550483567652      0.3335078253600769      0.2715173327520322   T T T
      0.5754823414079988      0.3336629061623613      0.2709430165319791   T T T
      0.9084563847814646      0.6659279621677968      0.3778460535006619   T T T
      0.9080783228580588      0.4179795074141376      0.3766579208892845   T T T
      0.6587133505000794      0.6660418746156835      0.3776056288022798   T T T
      0.1567766034444293      0.1684764176879110      0.3774094636779582   T T T
      0.9082405528042535      0.1671004115286288      0.3751809896966057   T T T
      0.9074776396727116      0.9173597706512325      0.3756763408687627   T T T
      0.4078622094195983      0.9176521484141817      0.3761899941820916   T T T
      0.4049306488582100      0.1690384472437388      0.3785263518762715   T T T
      0.6582406451339454      0.1679390330316823      0.3764664598883313   T T T
      0.1577690699818514      0.6678911991655415      0.3758604897151752   T T T
      0.4082080265650074      0.6676656990779093      0.3760680095792922   T T T
      0.4087287548231542      0.4172273432407364      0.3756862467399242   T T T
      0.6575339678849992      0.9173038575918827      0.3763821736446525   T T T
      0.1576112901315868      0.4172673549978767      0.3768336646179634   T T T
      0.6589531884539293      0.4176825804460758      0.3765803170161990   T T T
      0.1579702106359167      0.9180295428219687      0.3756882292926816   T T T
     -0.0135868412505560      0.2465326689491787      0.4813975630804749   T T T
      0.4921368168014472      0.2518463971514011      0.4817622156324077   T T T
      0.9908077389384258      0.7537696275752125      0.4816768425610919   T T T
      0.4909557515821844      0.7518147061608250      0.4820976938370630   T T T
      0.7400790932836441      0.7536797397503197      0.4820106510521443   T T T
      0.9938462022692489      0.5059838128242176      0.4845492998834039   T T T
      0.7405088509979209      0.5024480615340143      0.4850027914073256   T T T
      0.2423757460092322     -0.0014532147220044      0.4812703959730408   T T T
     -0.0087427626343947      0.9979791197532109      0.4807839618565340   T T T
      0.4907830313739275      0.0015933454912920      0.4821571511433467   T T T
      0.2414164912906762      0.7523497073333860      0.4819704757788671   T T T
      0.7402496113610099      0.0011687417647621      0.4816707579616975   T T T
      0.2428942624353784      0.2515323227324746      0.4872750321596128   T T T
      0.7392916076277773      0.2497275469418613      0.4826155090022367   T T T
      0.2449745618968963      0.5046840341716574      0.4804035574200693   T T T
      0.4901058715904923      0.5027666717163890      0.4813484394252636   T T T
      0.9914599250773524      0.2511335642748220      0.1651862220442405   F F F
      0.4912802438149767      0.2509830497947469      0.1657922362078364   F F F
      0.9914966979847338      0.7506596779409992      0.1655951989489959   F F F
      0.4914174371835692      0.7507962193923959      0.1654354035074869   F F F
      0.7414633874289071      0.7506395003548090      0.1656741785577967   F F F
      0.9914016478066163      0.5010090939517458      0.1658312518478034   F F F
      0.7413682406133386      0.5009695172891986      0.1654183517998468   F F F
      0.2412921908180194      0.0009948589887326      0.1652679471778429   F F F
     -0.0086296055195777      0.0011484504484487      0.1650008744513562   F F F
      0.4914346209720091      0.0009739492588480      0.1654167405507570   F F F
      0.2414363997106737      0.7509672019698825      0.1651046344007371   F F F
      0.7412634895340704      0.0011251871366491      0.1649375992989524   F F F
      0.2413305667103841      0.2508954484132277      0.1658482320099012   F F F
      0.7412336385203169      0.2512709451393907      0.1650995863529471   F F F
      0.2414797397450065      0.5006228049230637      0.1655664501439785   F F F
      0.4913083694294109      0.5010605447833375      0.1653717675616954   F F F
      0.0936574592090365      0.3691374053911033      0.5661182979992307   T T T
      0.0852256167889406      0.1950902796048471      0.6425561605430333   T T T
      0.0198823492626778      0.2953164832187229      0.5973114316976085   T T T
      0.8548762447805959      0.3520978803980922      0.5710604900027126   T T T
      0.8001371769756931      0.2965015857434786      0.6010013801521457   T T T
      0.7834617398420466      0.4839406890919885      0.5805560751617596   T T T
 
  0.00000000E+00  0.00000000E+00  0.00000000E+00
  0.00000000E+00  0.00000000E+00  0.00000000E+00
  0.00000000E+00  0.00000000E+00  0.00000000E+00
  0.00000000E+00  0.00000000E+00  0.00000000E+00
  0.00000000E+00  0.00000000E+00  0.00000000E+00
  0.00000000E+00  0.00000000E+00  0.00000000E+00
  0.00000000E+00  0.00000000E+00  0.00000000E+00
  0.00000000E+00  0.00000000E+00  0.00000000E+00
  0.00000000E+00  0.00000000E+00  0.00000000E+00
  0.00000000E+00  0.00000000E+00  0.00000000E+00
  0.00000000E+00  0.00000000E+00  0.00000000E+00
  0.00000000E+00  0.00000000E+00  0.00000000E+00
  0.00000000E+00  0.00000000E+00  0.00000000E+00
  0.00000000E+00  0.00000000E+00  0.00000000E+00
  0.00000000E+00  0.00000000E+00  0.00000000E+00
  0.00000000E+00  0.00000000E+00  0.00000000E+00
  0.00000000E+00  0.00000000E+00  0.00000000E+00
  0.00000000E+00  0.00000000E+00  0.00000000E+00
  0.00000000E+00  0.00000000E+00  0.00000000E+00
  0.00000000E+00  0.00000000E+00  0.00000000E+00
  0.00000000E+00  0.00000000E+00  0.00000000E+00
  0.00000000E+00  0.00000000E+00  0.00000000E+00
  0.00000000E+00  0.00000000E+00  0.00000000E+00
  0.00000000E+00  0.00000000E+00  0.00000000E+00
  0.00000000E+00  0.00000000E+00  0.00000000E+00
  0.00000000E+00  0.00000000E+00  0.00000000E+00
  0.00000000E+00  0.00000000E+00  0.00000000E+00
  0.00000000E+00  0.00000000E+00  0.00000000E+00
  0.00000000E+00  0.00000000E+00  0.00000000E+00
  0.00000000E+00  0.00000000E+00  0.00000000E+00
  0.00000000E+00  0.00000000E+00  0.00000000E+00
  0.00000000E+00  0.00000000E+00  0.00000000E+00
  0.00000000E+00  0.00000000E+00  0.00000000E+00
  0.00000000E+00  0.00000000E+00  0.00000000E+00
  0.00000000E+00  0.00000000E+00  0.00000000E+00
  0.00000000E+00  0.00000000E+00  0.00000000E+00
  0.00000000E+00  0.00000000E+00  0.00000000E+00
  0.00000000E+00  0.00000000E+00  0.00000000E+00
  0.00000000E+00  0.00000000E+00  0.00000000E+00
  0.00000000E+00  0.00000000E+00  0.00000000E+00
  0.00000000E+00  0.00000000E+00  0.00000000E+00
  0.00000000E+00  0.00000000E+00  0.00000000E+00
  0.00000000E+00  0.00000000E+00  0.00000000E+00
  0.00000000E+00  0.00000000E+00  0.00000000E+00
  0.00000000E+00  0.00000000E+00  0.00000000E+00
  0.00000000E+00  0.00000000E+00  0.00000000E+00
  0.00000000E+00  0.00000000E+00  0.00000000E+00
  0.00000000E+00  0.00000000E+00  0.00000000E+00
  0.00000000E+00  0.00000000E+00  0.00000000E+00
  0.00000000E+00  0.00000000E+00  0.00000000E+00
  0.00000000E+00  0.00000000E+00  0.00000000E+00
  0.00000000E+00  0.00000000E+00  0.00000000E+00
  0.00000000E+00  0.00000000E+00  0.00000000E+00
  0.00000000E+00  0.00000000E+00  0.00000000E+00
  0.00000000E+00  0.00000000E+00  0.00000000E+00
  0.00000000E+00  0.00000000E+00  0.00000000E+00
  0.00000000E+00  0.00000000E+00  0.00000000E+00
  0.00000000E+00  0.00000000E+00  0.00000000E+00
  0.00000000E+00  0.00000000E+00  0.00000000E+00
  0.00000000E+00  0.00000000E+00  0.00000000E+00
  0.00000000E+00  0.00000000E+00  0.00000000E+00
  0.00000000E+00  0.00000000E+00  0.00000000E+00
  0.00000000E+00  0.00000000E+00  0.00000000E+00
  0.00000000E+00  0.00000000E+00  0.00000000E+00
  0.00000000E+00  0.00000000E+00  0.00000000E+00
  0.00000000E+00  0.00000000E+00  0.00000000E+00
  0.00000000E+00  0.00000000E+00  0.00000000E+00
  0.00000000E+00  0.00000000E+00  0.00000000E+00
  0.00000000E+00  0.00000000E+00  0.00000000E+00
  0.00000000E+00  0.00000000E+00  0.00000000E+00
