 Cu_CO2CH2
   1.000
   10.1184999999999992    0.0000000000000000    0.0000000000000000
   -5.0592499999999996    8.7628780000000006    0.0000000000000000
    0.0000000000000000    0.0000000000000000   30.4844000000000008
   Cu   O    H    C 
   64   32   62    2
Selective Dynamics
Direct
    0.4198669500000000    0.0719108900000000    0.1083877300000000    T  T  T
    0.9214332700000000    0.5767560400000000    0.1100091200000000    T  T  T
    0.6611488500000000    0.3173383900000000    0.1080833800000000    T  T  T
    0.1663336300000000    0.8429871100000000    0.1131606500000000    T  T  T
    0.1536430500000000    0.5694456700000000    0.1138757800000000    T  T  T
    0.4268330500000000    0.3389070300000000    0.1051246700000000    T  T  T
    0.1739478400000000    0.0915547600000000    0.1101867000000000    T  T  T
    0.4094092200000000    0.8240574000000001    0.1128679500000000    T  T  T
    0.9146122300000000    0.3166027700000000    0.1169993500000000    T  T  T
    0.1853152200000000    0.3388119800000000    0.1117279700000000    T  T  T
    0.6652452400000000    0.0692930600000000    0.1118279200000000    T  T  T
    0.6776332400000000    0.8257931800000000    0.1086171700000000    T  T  T
    0.6810605900000000    0.5831035700000000    0.1083549600000000    T  T  T
    0.4277382300000000    0.5891425200000000    0.1144487800000000    T  T  T
    0.9233754000000000    0.8310466700000000    0.1093742300000000    T  T  T
    0.9246100200000000    0.0914915100000000    0.1133319500000000    T  T  T
    0.3468732300000000    0.1712350200000000    0.1727633500000000    T  T  T
    0.8304807700000000    0.4113240700000000    0.1754093400000000    T  T  T
    0.0650513500000000    0.6613612700000000    0.1818212500000000    T  T  T
    0.3300065300000000    0.9163290900000000    0.1788068100000000    T  T  T
    0.5933714800000000    0.1629683400000000    0.1739888700000000    T  T  T
    0.5811999200000000    0.4175736100000000    0.1739493300000000    T  T  T
    0.0851173800000000    0.3965336200000000    0.1792429800000000    T  T  T
    0.8290292400000000    0.6675414500000000    0.1781931600000000    T  T  T
    0.0847030900000000    0.9342154900000000    0.1799110800000000    T  T  T
    0.3365877500000000    0.4167151000000000    0.1782231100000000    T  T  T
    0.3129542700000000    0.6635439400000001    0.1818616500000000    T  T  T
    0.0959456400000000    0.1644692300000000    0.1833568500000000    T  T  T
    0.5760801000000000    0.8884790500000000    0.1780458300000000    T  T  T
    0.8245296000000000    0.1486833900000000    0.1810821600000000    T  T  T
    0.5873629500000001    0.6654552100000000    0.1789541600000000    T  T  T
    0.8340219200000000    0.9199988200000000    0.1783734300000000    T  T  T
    0.5024681500000000    0.2398934100000000    0.2394815900000000    T  T  T
    0.2564818100000000   -0.0029057200000000    0.2471518700000000    T  T  T
    0.9882560600000000    0.7602610300000000    0.2459866100000000    T  T  T
    0.4872201300000000   -0.0171633700000000    0.2425603000000000    T  T  T
   -0.0227633400000000    0.4949048400000000    0.2468636000000000    T  T  T
    0.7463692800000000    0.4977196000000000    0.2489215600000000    T  T  T
    0.2234223800000000    0.7298987900000000    0.2474764700000000    T  T  T
    0.7401315600000000    0.2471168300000000    0.2459656900000000    T  T  T
    0.2711882400000000    0.2669635500000000    0.2468248000000000    T  T  T
    0.2408324100000000    0.4938764300000000    0.2458753800000000    T  T  T
   -0.0044210100000000    0.2493316000000000    0.2438211800000000    T  T  T
    0.5019408000000000    0.5001910800000000    0.2441019500000000    T  T  T
    0.4872394500000000    0.7469685500000000    0.2463134500000000    T  T  T
    0.0024358800000000    0.0173972300000000    0.2493477800000000    T  T  T
    0.7485180800000000    0.0121040300000000    0.2499840500000000    T  T  T
    0.7379653400000000    0.7435688200000000    0.2450501400000000    T  T  T
    0.4986535500000000    0.2472144700000000    0.0383236100000000    F  F  F
    0.2381613600000000   -0.0153691800000000    0.0394168900000000    F  F  F
   -0.0030687900000000    0.7468388900000000    0.0418216600000000    F  F  F
    0.4907103000000000   -0.0119273900000000    0.0390748900000000    F  F  F
   -0.0115514200000000    0.4714731200000000    0.0394863800000000    F  F  F
    0.7356944100000000    0.4709007400000000    0.0422868400000000    F  F  F
    0.2379616300000000    0.7325908400000000    0.0486002900000000    F  F  F
    0.7488679300000000    0.2316280900000000    0.0426460100000000    F  F  F
    0.2469114900000000    0.2472405600000000    0.0427603800000000    F  F  F
    0.2401156600000000    0.4865377400000000    0.0417946300000000    F  F  F
    0.0067528300000000    0.2464487400000000    0.0480382100000000    F  F  F
    0.4990208800000000    0.4993242800000000    0.0406907200000000    F  F  F
    0.4838118500000000    0.7271301300000000    0.0444378100000000    F  F  F
   -0.0049322200000000   -0.0083966800000000    0.0455279800000000    F  F  F
    0.7388183200000000    0.9887207500000000    0.0433293500000000    F  F  F
    0.7478112500000000    0.7310962700000000    0.0394729500000000    F  F  F
   -0.0093897500000000    0.0348565500000000    0.3199904500000000    T  T  T
    0.3075991700000000    0.3993709300000000    0.4118620100000000    T  T  T
    0.5392404600000000    0.0510013600000000    0.3527193400000000    T  T  T
    0.4985325100000000    0.3658860100000000    0.4614976600000000    T  T  T
    0.8302280300000000    0.1990829300000000    0.6068414800000000    T  T  T
    0.1065085200000000    0.7234484900000000    0.3504996400000000    T  T  T
    0.8158086500000000    0.3009498900000000    0.3810809400000000    T  T  T
    1.0998258100000000    0.6455436000000000    0.5189962400000000    T  T  T
    0.6847145900000000    0.2538786600000000    0.4624839900000000    T  T  T
    1.0099890000000000    0.1791898700000000    0.3933003700000000    T  T  T
    0.3819596600000000    0.2059823700000000    0.5858037200000000    T  T  T
    0.6170267200000000    0.7142995900000000    0.5462927400000001    T  T  T
    0.8464724100000000    0.3833511200000000    0.5397910500000000    T  T  T
    0.0607128800000000    0.0553440900000000    0.4826113800000000    T  T  T
    0.3060650400000000    0.9102287300000000    0.5960688200000001    T  T  T
    0.1814384500000000    0.2755530600000000    0.5430562600000000    T  T  T
    0.1438325400000000    0.8126711599999999    0.6900019500000000    T  T  T
    0.2373572100000000    0.5247382900000001    0.3213329000000000    T  T  T
    1.0409411000000000    0.0636902100000000    0.6110929100000000    T  T  T
    0.3199521100000000    0.5338131000000000    0.4996572900000000    T  T  T
    0.2255737300000000    0.8278517600000000    0.4393487400000000    T  T  T
    0.2387959000000000    1.0021738899999999    0.3142013000000000    T  T  T
    0.7667794800000000    0.9361294999999999    0.4440928500000000    T  T  T
    0.6538493000000000    0.4571677300000000    0.5842937400000000    T  T  T
    0.7557641800000000    0.6734131700000000    0.4383904100000000    T  T  T
    0.5711494700000000    0.9523100400000000    0.5667987799999999    T  T  T
    0.5030950300000000    0.7636354600000000    0.3273491000000000    T  T  T
    0.5253373200000000    0.9422099900000001    0.4662077000000000    T  T  T
    0.8664910400000000    0.7404371600000000    0.5228394800000000    T  T  T
    0.8981690500000000    0.7276408300000000    0.6216002600000000    T  T  T
    0.8092956400000000    0.5760299100000000    0.3587454900000000    T  T  T
    0.7504842800000000    0.7480253100000001    0.3329801800000000    T  T  T
    0.9825139100000000    0.0931564400000000    0.3454299400000000    T  T  T
    0.9181828800000000    0.9276266200000000    0.3332129100000000    T  T  T
    0.3010276800000000    0.4467361000000000    0.4402927400000000    T  T  T
    0.3893917200000000    0.3824446500000000    0.4238608600000000    T  T  T
    0.6274496899999999    0.1219154900000000    0.3702978400000000    T  T  T
    0.5451432600000000    0.1067571100000000    0.3259397800000000    T  T  T
    0.5688771300000000    0.3194247900000000    0.4609208600000000    T  T  T
    0.4509347300000000    0.3450947300000000    0.4895545500000000    T  T  T
    0.7452782300000000    0.0976910500000000    0.5973488000000000    T  T  T
    0.9006907400000000    0.1681198700000000    0.6180982500000000    T  T  T
    0.9984263100000000    0.6776561500000000    0.3571688200000000    T  T  T
    0.1212010500000000    0.6432339200000000    0.3367928100000000    T  T  T
    0.8144394200000000    0.3755352900000000    0.3619064200000000    T  T  T
    0.8041537400000000    0.3300568000000000    0.4114201600000000    T  T  T
    1.1744905500000000    0.6872369699999999    0.5429150700000001    T  T  T
    1.0309695000000001    0.6892841400000000    0.5247089200000000    T  T  T
    0.7290632400000000    0.2771142800000000    0.4922825800000000    T  T  T
    0.6211359500000000    0.1335965700000000    0.4592619700000000    T  T  T
    0.1157067900000000    0.2462138800000000    0.4042429500000000    T  T  T
    0.9681254900000000    0.2438718100000000    0.3856501700000000    T  T  T
    0.4886354900000000    0.2978112500000000    0.5870273100000000    T  T  T
    0.3263151100000000    0.2429750100000000    0.5669531900000000    T  T  T
    0.5286757000000000    0.6552374500000000    0.5290793600000000    T  T  T
    0.6122613300000000    0.7986069700000000    0.5606605300000000    T  T  T
    0.9563678300000000    0.4621056300000000    0.5349230500000000    T  T  T
    0.8599647800000000    0.3110073400000000    0.5595855199999999    T  T  T
    0.9589742100000000    0.0368435000000000    0.4680827300000000    T  T  T
    1.0326023400000000    0.9582737200000000    0.4981294600000000    T  T  T
    0.3285928300000000    1.0184996600000000    0.5907050700000001    T  T  T
    0.2786389600000000    0.8807488700000000    0.6260885100000000    T  T  T
    1.1197649400000000    0.2223763600000000    0.5674670000000001    T  T  T
    0.1302976500000000    0.1919027600000000    0.5196516300000000    T  T  T
    1.0752689499999999    0.7797808500000000    0.6647266900000000    T  T  T
    0.1155493400000000    0.7205120900000000    0.7087819500000000    T  T  T
    0.3428273400000000    0.6184295100000000    0.3239725400000000    T  T  T
    0.2517839800000000    0.4387976800000000    0.3315089700000000    T  T  T
    0.9912143400000000    0.9612905100000000    0.6224586300000000    T  T  T
    0.1469154800000000    0.0928244600000000    0.6205547900000000    T  T  T
    0.2629290400000000    0.5823480900000000    0.4933411600000000    T  T  T
    0.2543432700000000    0.4508573600000000    0.5194058300000000    T  T  T
    0.1584968500000000    0.7385344200000000    0.4586481600000000    T  T  T
    0.1722919200000000    0.8059472300000000    0.4096832600000000    T  T  T
    0.1665643200000000    1.0344135500000000    0.3258333000000000    T  T  T
    0.2266675600000000    0.9151562400000000    0.3302082400000000    T  T  T
    0.7436084100000000    0.8323816600000000    0.4393459100000000    T  T  T
    0.8055873099999999    0.9726078700000000    0.4146197500000000    T  T  T
    0.7324881700000000    0.4499841000000000    0.5667812000000000    T  T  T
    0.6298074900000000    0.5305499100000000    0.5718116400000000    T  T  T
    0.7819324100000000    0.6635420100000000    0.4061356800000000    T  T  T
    0.6546223700000000    0.5698013199999999    0.4421153800000000    T  T  T
    0.5597297200000000    0.9518831700000000    0.5333796100000000    T  T  T
    0.4685179200000000    0.9160184400000000    0.5801409100000000    T  T  T
    0.6119219900000000    0.7692592300000000    0.3281086900000000    T  T  T
    0.5274692800000000    0.8658546900000000    0.3385931100000000    T  T  T
    0.4328719400000000    0.8923590900000000    0.4473322800000000    T  T  T
    0.6141808800000000    0.9389534700000000    0.4524933000000000    T  T  T
    0.8373098900000000    0.6851923300000000    0.4939013800000000    T  T  T
    0.7667043600000000    0.7401605000000000    0.5319516100000000    T  T  T
    0.8266473500000000    0.6208951900000000    0.6172491800000000    T  T  T
    0.9337570700000000    0.7650348600000000    0.5922523500000000    T  T  T
    0.4994865200000000    0.4775331100000000    0.3071710600000000    T  T  T
    0.6057397000000000    0.3837611800000000    0.3168074100000000    T  T  T
    0.7317902200000000    0.6133902500000000    0.3329769300000000    T  T  T
    0.6124499799999999    0.4856616400000000    0.3051619700000000    T  T  T

  -0.002391456882500   -0.003357146190580    0.005503653576000
   0.000332139762500   -0.000725303412060   -0.000772779540000
  -0.003696490420000   -0.002517049076720   -0.000636209428000
  -0.000215574642500    0.001862374461339   -0.002107996260000
  -0.001201369505000   -0.001643565397679    0.002156771300001
  -0.000404790592500    0.000811880646700    0.000030484400000
   0.000908894262500   -0.003820527179220    0.000689861972000
   0.000642980082500   -0.001207086444500   -0.001471481988000
   0.002405926337500   -0.001398642957580    0.001319974520000
   0.001849408837500    0.002177487554220    0.002622877776000
  -0.001840352779999    0.002331626578240   -0.000023777832000
  -0.002646949007500   -0.000591056121100   -0.002542094116000
  -0.002654133142500    0.001989085677220   -0.000609078312000
  -0.000068502245000   -0.000716452905280    0.002206765716001
  -0.000072195497499    0.000612437543420    0.001633658996000
   0.000667719815000   -0.001452534657280   -0.000840759752000
  -0.001149613377500    0.001404776972180    0.001842781980000
  -0.001424634207499    0.001150653510180   -0.001782118024001
   0.001914521385000   -0.002080482494761    0.002004349300000
  -0.000203584220001   -0.001566627328840   -0.001715966876000
  -0.002857767954999   -0.001842132213160    0.000459704752000
  -0.001468042572499   -0.000097180317020   -0.003154525712000
  -0.001660698812500    0.000080355591260    0.001063600716001
  -0.000222505815000   -0.000668257076279    0.001333082812001
  -0.000725547042499    0.000257190469299    0.000199367976000
   0.001763907512500   -0.002109838136060   -0.002154027704000
   0.000598408090001   -0.001194205013841   -0.001760169256000
   0.001948165397500    0.000648540600780   -0.001084634951999
   0.000848638595001    0.000870329042959   -0.000870939307999
  -0.003743339074999    0.000853679574760    0.000186869372000
  -0.003811385987500    0.000781210573700    0.002697564556000
   0.000060154482500   -0.003150868042461   -0.001926918924000
   0.000167562360001    0.004232995846680   -0.004836350059999
  -0.002384171562500   -0.000096479286780    0.000684984467999
   0.000220077375001   -0.000730122994960   -0.000448120680001
  -0.000478655642500   -0.000241592546460   -0.001492211380000
   0.001219734582500   -0.001024117551860    0.002379307420001
   0.000385717219999   -0.001028937134760   -0.000529209183999
   0.001768764392500   -0.003558867642139    0.000228023312000
  -0.000526313777501   -0.001197797793820   -0.002057087311999
   0.000511996100000    0.001939400158960   -0.000051518636000
  -0.001528399425000    0.001513349030600   -0.002072329511999
   0.000425938257500    0.002449136772220   -0.001223948659999
   0.000006020507501   -0.001258086394460   -0.001078538072000
   0.001092545037500   -0.001036385581060    0.001013911144000
   0.000945067900000    0.002105369068280   -0.003786162479999
   0.000428973807500    0.001584941743860    0.000532562467999
  -0.002930772932501    0.000494313947980    0.001530012036000
  -0.000155571937500    0.001877446611500    0.003536800088000
  -0.000849650445000    0.003078223783840    0.004073325528000
   0.001987475770000    0.000627246807240    0.000127119948000
   0.004075529430001   -0.003156563913160   -0.000617309100000
   0.001604642322500   -0.000051613351420   -0.000724614188000
   0.001552936787499    0.000837994023140   -0.000699007292000
   0.000636251280000   -0.002115183491640    0.001453191348000
   0.000863158642501   -0.001516065522780   -0.002051295276000
  -0.000901861905000    0.000029092754960   -0.002109520480000
   0.000322375410000    0.002430997614760    0.000353619040000
   0.000166651695000    0.002137265944200    0.004361098264000
  -0.000740320052500    0.001258787424701   -0.001375151284000
   0.001804179142500   -0.000398448062660    0.000680106964000
   0.002352854805000    0.003477109990400   -0.002082084520000
   0.000598661052500    0.002292456513580   -0.000897155892000
   0.002754913402501    0.001567766502980    0.001542815484000
   0.000574123690000    0.002991120776520    0.003046915780001
   0.000906921155000   -0.000027865952040    0.002891140496001
   0.000469296029999    0.006318911325800    0.006992206828000
  -0.006889939612500   -0.003466156392899   -0.002655800928000
   0.001711038350000   -0.002444667704440    0.000824603019996
  -0.000219065525000    0.005117345494440   -0.003822743759999
  -0.000303302037501   -0.001789993089060    0.013033300376000
   0.001728239800000    0.006745663484400   -0.001851317611997
   0.004745728277500    0.001160993706220   -0.003533141960000
   0.001340853027500    0.003298960680660   -0.003032588111999
   0.004360011057500   -0.003601981001900   -0.004768674691999
   0.008081797727499   -0.004967237394300    0.000822164267998
  -0.002738420247500   -0.007847069620220    0.000102732428001
  -0.001373586375000    0.005019376518400    0.003135930228000
   0.001130438820000   -0.002151987579241    0.006909898947999
   0.000346406847500   -0.001474879996180   -0.002179634599997
  -0.005826890002500   -0.002354322432260   -0.000530428559998
   0.004457249842500   -0.001675549902380    0.002171708656000
  -0.002451661957499   -0.007259606279100   -0.000856001951998
  -0.002691672777500   -0.000743705455860   -0.005524382968000
   0.004631895152500   -0.003273197819341   -0.004883296036001
  -0.002069587397501    0.000841148659221    0.005790511779999
   0.001825073844999   -0.004072985694400    0.004155023720001
   0.004772694080001   -0.004640469673680    0.002011055867996
  -0.000900546500000    0.001109730869920   -0.002943878508001
  -0.004806591055001   -0.002096255675159   -0.000744733891999
   0.000058737892501    0.000540231428699   -0.001856499960001
   0.002375874392500    0.003965815696461    0.001695847172000
   0.009278006797500    0.005336855588340   -0.000801739720002
  -0.002729920707500    0.004333856572460    0.002039101515997
  -0.005437884270000    0.004091913510880   -0.002874374075999
   0.005109488352501   -0.004217310295060   -0.004910122308001
   0.005332550685003    0.001569256192240   -0.008920649972000
   0.034975961247499    0.009428068068980   -0.001387345044000
  -0.016372744850000   -0.002926450736880    0.028790077048001
   0.007691577775000    0.023206379292280    0.007360763224000
   0.002608043375000    0.002599420129920    0.011391410592001
   0.000460189380000    0.009592021516360   -0.010914329732000
   0.011363379055001   -0.005949293131760    0.006314843460000
  -0.027473902977500    0.003308950361580    0.004896709172002
   0.015449785872499   -0.010172386926300    0.018678401568000
   0.000338160270001   -0.007949858179160    0.016999015972004
   0.019415883724998   -0.004644500597560    0.018303443448000
  -0.000489229474999    0.012978172833119   -0.006027070724000
   0.042168140455001    0.008133177586920   -0.012090113040001
   0.000296977975000   -0.003640625293880    0.004206237512001
  -0.029578652162501    0.007922255113461   -0.026252555592002
   0.005966069969999   -0.021357762549401   -0.007454045487998
  -0.011457329327500   -0.021584458203260    0.016547237163998
  -0.017384645442500    0.026675690321260   -0.009180072216001
   0.013219870842500    0.006157236226700    0.019038727176000
  -0.023288284267501    0.016862844279300    0.004673563363999
  -0.028766946092499   -0.004716969598620    0.001670545120000
  -0.010055714707500   -0.011873436803660   -0.018050118084002
  -0.013796574750000    0.000974957806280   -0.021875605439998
  -0.001519495145001   -0.009105857044920   -0.024212539543999
  -0.013280784212500    0.011980343915260    0.002425034020000
  -0.010387449730000    0.014927913188120   -0.020410830019998
   0.006789209945000   -0.018754486753160    0.008030200647999
   0.008319329514999    0.019139878127600   -0.003244454692002
  -0.019518738277500   -0.000762808529901   -0.016414630024002
   0.011104294862500    0.007643770850620    0.008217984551997
  -0.006087593155000    0.024670656206080   -0.008761216560000
   0.026840080137500    0.001947900150620    0.015766226835998
  -0.003757504975001   -0.010342474388279   -0.012005366407998
   0.027658515010000   -0.012226493158280   -0.016925853412001
  -0.006922015257500    0.017894585535020    0.003200557155999
   0.007740399537500    0.019161347178700    0.026589713055998
   0.019819763652500   -0.009028831347299    0.013687495600003
  -0.010498348490000   -0.015222871661600    0.000132911984000
   0.001458885330000    0.000788483762440    0.030110966100001
  -0.015205373505000    0.003217203028920   -0.031932408999999
  -0.021792972337499   -0.002892363141460   -0.038695068296001
  -0.014851529560001   -0.017472828216880    0.018503725956002
   0.002151091915000    0.019632877643879   -0.015412912640000
   0.006857914559999   -0.010066093216158    0.013096707928000
  -0.003813409687499   -0.011839962609701    0.006013962431998
  -0.007358932087500    0.007530379209300   -0.001900397496000
  -0.009786562607500   -0.006348792739780    0.013026593808000
  -0.000195641197500    0.004950763183660   -0.002988385731999
   0.009618089582499    0.026613649145020    0.020248043323999
   0.002079402342499    0.023732940631300    0.006048714647999
  -0.000181019965001    0.020065062786841    0.012069688492002
  -0.022782561637500    0.004123722758020    0.009131297176001
   0.010607071772500   -0.011163994200780   -0.027410962792001
  -0.014633475885002   -0.025004171342760    0.016931035760003
  -0.011846436244999    0.038702302232360    0.010154048795998
  -0.004140389015001    0.005059861014761    0.015024541384001
   0.004660682284999    0.003563687225039    0.014124641896000
   0.022682186117500    0.005245195884459   -0.015081242368002
  -0.011490163860000    0.021680236459799    0.004001077500000
   0.022068499092498   -0.003520836751619    0.016161609504003
   0.004818682662501   -0.017180060462899   -0.004871407120000
   0.000674043877500    0.002950548651380    0.011049680468000
  -0.009201055605002   -0.006731467622040    0.001226387411998
   0.002572375662500   -0.008586831780980   -0.002599404788000