Ru                                      
   1.00000000000000     
    10.7043999999999997    0.0000000000000000    0.0000000000000007
    -5.3521999999999990    9.2702823322701455    0.0000000000000007
     0.0000000000000000    0.0000000000000000   16.4502999999999986
   Ru   C    H 
    64     1     2
Selective dynamics
Direct
  0.0833299999999966  0.1666700000000034  0.0000000000000000   F   F   F
  0.0835609007738447  0.1658496458664689  0.2616302204801794   T   T   T
  0.1666700000000034  0.0833299999999966  0.1306999999999974   F   F   F
  0.1686750429276420  0.0836643363793784  0.3881638061271655   T   T   T
  0.3333332999999996  0.1666700000000034  0.0000000000000000   F   F   F
  0.3336423304389334  0.1665081691284109  0.2613357783662125   T   T   T
  0.4166700000000034  0.0833299999999966  0.1306999999999974   F   F   F
  0.4171820089776664  0.0810464670092515  0.3883489386243427   T   T   T
  0.5833299999999966  0.1666700000000034  0.0000000000000000   F   F   F
  0.5834820373330063  0.1663599854145954  0.2614448009150763   T   T   T
  0.6666667000000004  0.0833299999999966  0.1306999999999974   F   F   F
  0.6661106347467201  0.0816758010284236  0.3884088374217302   T   T   T
  0.8333299999999966  0.1666700000000034  0.0000000000000000   F   F   F
  0.8336768571509002  0.1668543629218334  0.2616993909350498   T   T   T
  0.9166700000000034  0.0833299999999966  0.1306999999999974   F   F   F
  0.9167889229811288  0.0839210879639962  0.3881921134465627   T   T   T
  0.0833299999999966  0.4166700000000034  0.0000000000000000   F   F   F
  0.0829488568939484  0.4161237062632291  0.2620227543461215   T   T   T
  0.1666700000000034  0.3333332999999996  0.1306999999999974   F   F   F
  0.1648849359276919  0.3285071383531370  0.3879417095037759   T   T   T
  0.3333332999999996  0.4166700000000034  0.0000000000000000   F   F   F
  0.3344214861648664  0.4176623553543878  0.2615454676860518   T   T   T
  0.4166700000000034  0.3333332999999996  0.1306999999999974   F   F   F
  0.4170876007627069  0.3351711412921110  0.3884248447551589   T   T   T
  0.5833299999999966  0.4166700000000034  0.0000000000000000   F   F   F
  0.5834369421747169  0.4163207329468431  0.2614741634557204   T   T   T
  0.6666667000000004  0.3333332999999996  0.1306999999999974   F   F   F
  0.6670462440360827  0.3328452007375762  0.3885122916980875   T   T   T
  0.8333299999999966  0.4166700000000034  0.0000000000000000   F   F   F
  0.8334413207485845  0.4163099869237206  0.2613560222979864   T   T   T
  0.9166700000000034  0.3333332999999996  0.1306999999999974   F   F   F
  0.9165941857450980  0.3322737938616205  0.3882658246494010   T   T   T
  0.0833299999999966  0.6666667000000004  0.0000000000000000   F   F   F
  0.0829411821347949  0.6659176888032478  0.2621169074373337   T   T   T
  0.1666700000000034  0.5833299999999966  0.1306999999999974   F   F   F
  0.1646885657171283  0.5818264130676447  0.3898897402080648   T   T   T
  0.3333332999999996  0.6666667000000004  0.0000000000000000   F   F   F
  0.3349145231018976  0.6671101296711995  0.2598850566584917   T   T   T
  0.4166700000000034  0.5833299999999966  0.1306999999999974   F   F   F
  0.4202163872598844  0.5792638645252783  0.3934827110189347   T   T   T
  0.5833299999999966  0.6666667000000004  0.0000000000000000   F   F   F
  0.5831739516523849  0.6662901275093223  0.2619018034928021   T   T   T
  0.6666667000000004  0.5833299999999966  0.1306999999999974   F   F   F
  0.6660839478196909  0.5829453000218995  0.3884297977982434   T   T   T
  0.8333299999999966  0.6666667000000004  0.0000000000000000   F   F   F
  0.8336756757532937  0.6660872991159303  0.2617157135877822   T   T   T
  0.9166700000000034  0.5833299999999966  0.1306999999999974   F   F   F
  0.9164399566519882  0.5828811416834048  0.3882325622388596   T   T   T
  0.0833299999999966  0.9166700000000034  0.0000000000000000   F   F   F
  0.0836135981517805  0.9169052581081548  0.2616384899197710   T   T   T
  0.1666700000000034  0.8333299999999966  0.1306999999999974   F   F   F
  0.1648307697152650  0.8349242820974592  0.3879514241459175   T   T   T
  0.3333332999999996  0.9166700000000034  0.0000000000000000   F   F   F
  0.3343556652825822  0.9160888042878677  0.2615417923462582   T   T   T
  0.4166700000000034  0.8333299999999966  0.1306999999999974   F   F   F
  0.4197331745645384  0.8396319090320751  0.3931154911601734   T   T   T
  0.5833299999999966  0.9166700000000034  0.0000000000000000   F   F   F
  0.5832862192298714  0.9161181191837249  0.2618562947249380   T   T   T
  0.6666667000000004  0.8333299999999966  0.1306999999999974   F   F   F
  0.6715663382137914  0.8351181244589942  0.3879936650582785   T   T   T
  0.8333299999999966  0.9166700000000034  0.0000000000000000   F   F   F
  0.8345911135892240  0.9169257094328850  0.2614732430354791   T   T   T
  0.9166700000000034  0.8333299999999966  0.1306999999999974   F   F   F
  0.9168589458996260  0.8316268389806352  0.3881733174245048   T   T   T
  0.3411956979297621  0.6698232344297012  0.4745039509886981   T   T   T
  0.3870891017842082  0.6980508257420595  0.5362406256775766   T   T   T
  0.2148388679586564  0.6017352050079788  0.4956585619836611   T   T   T
 
  0.00000000E+00  0.00000000E+00  0.00000000E+00
  0.00000000E+00  0.00000000E+00  0.00000000E+00
  0.00000000E+00  0.00000000E+00  0.00000000E+00
  0.00000000E+00  0.00000000E+00  0.00000000E+00
  0.00000000E+00  0.00000000E+00  0.00000000E+00
  0.00000000E+00  0.00000000E+00  0.00000000E+00
  0.00000000E+00  0.00000000E+00  0.00000000E+00
  0.00000000E+00  0.00000000E+00  0.00000000E+00
  0.00000000E+00  0.00000000E+00  0.00000000E+00
  0.00000000E+00  0.00000000E+00  0.00000000E+00
  0.00000000E+00  0.00000000E+00  0.00000000E+00
  0.00000000E+00  0.00000000E+00  0.00000000E+00
  0.00000000E+00  0.00000000E+00  0.00000000E+00
  0.00000000E+00  0.00000000E+00  0.00000000E+00
  0.00000000E+00  0.00000000E+00  0.00000000E+00
  0.00000000E+00  0.00000000E+00  0.00000000E+00
  0.00000000E+00  0.00000000E+00  0.00000000E+00
  0.00000000E+00  0.00000000E+00  0.00000000E+00
  0.00000000E+00  0.00000000E+00  0.00000000E+00
  0.00000000E+00  0.00000000E+00  0.00000000E+00
  0.00000000E+00  0.00000000E+00  0.00000000E+00
  0.00000000E+00  0.00000000E+00  0.00000000E+00
  0.00000000E+00  0.00000000E+00  0.00000000E+00
  0.00000000E+00  0.00000000E+00  0.00000000E+00
  0.00000000E+00  0.00000000E+00  0.00000000E+00
  0.00000000E+00  0.00000000E+00  0.00000000E+00
  0.00000000E+00  0.00000000E+00  0.00000000E+00
  0.00000000E+00  0.00000000E+00  0.00000000E+00
  0.00000000E+00  0.00000000E+00  0.00000000E+00
  0.00000000E+00  0.00000000E+00  0.00000000E+00
  0.00000000E+00  0.00000000E+00  0.00000000E+00
  0.00000000E+00  0.00000000E+00  0.00000000E+00
  0.00000000E+00  0.00000000E+00  0.00000000E+00
  0.00000000E+00  0.00000000E+00  0.00000000E+00
  0.00000000E+00  0.00000000E+00  0.00000000E+00
  0.00000000E+00  0.00000000E+00  0.00000000E+00
  0.00000000E+00  0.00000000E+00  0.00000000E+00
  0.00000000E+00  0.00000000E+00  0.00000000E+00
  0.00000000E+00  0.00000000E+00  0.00000000E+00
  0.00000000E+00  0.00000000E+00  0.00000000E+00
  0.00000000E+00  0.00000000E+00  0.00000000E+00
  0.00000000E+00  0.00000000E+00  0.00000000E+00
  0.00000000E+00  0.00000000E+00  0.00000000E+00
  0.00000000E+00  0.00000000E+00  0.00000000E+00
  0.00000000E+00  0.00000000E+00  0.00000000E+00
  0.00000000E+00  0.00000000E+00  0.00000000E+00
  0.00000000E+00  0.00000000E+00  0.00000000E+00
  0.00000000E+00  0.00000000E+00  0.00000000E+00
  0.00000000E+00  0.00000000E+00  0.00000000E+00
  0.00000000E+00  0.00000000E+00  0.00000000E+00
  0.00000000E+00  0.00000000E+00  0.00000000E+00
  0.00000000E+00  0.00000000E+00  0.00000000E+00
  0.00000000E+00  0.00000000E+00  0.00000000E+00
  0.00000000E+00  0.00000000E+00  0.00000000E+00
  0.00000000E+00  0.00000000E+00  0.00000000E+00
  0.00000000E+00  0.00000000E+00  0.00000000E+00
  0.00000000E+00  0.00000000E+00  0.00000000E+00
  0.00000000E+00  0.00000000E+00  0.00000000E+00
  0.00000000E+00  0.00000000E+00  0.00000000E+00
  0.00000000E+00  0.00000000E+00  0.00000000E+00
  0.00000000E+00  0.00000000E+00  0.00000000E+00
  0.00000000E+00  0.00000000E+00  0.00000000E+00
  0.00000000E+00  0.00000000E+00  0.00000000E+00
  0.00000000E+00  0.00000000E+00  0.00000000E+00
  0.00000000E+00  0.00000000E+00  0.00000000E+00
  0.00000000E+00  0.00000000E+00  0.00000000E+00
  0.00000000E+00  0.00000000E+00  0.00000000E+00
