Ni_COCH2
   1.00000000000000     
     9.8291997910000006    0.0000000000000000    0.0000000000000000
     4.9145998955000003    8.5123367178000002    0.0000000000000000
     0.0000000000000000    0.0000000000000000   19.0128002167000005
   Ni   O    C    H 
    64     1     2     2
Selective dynamics
Direct
      0.8324280850076983      0.5870049144564236      0.2716593537277279   T T T
      0.3326803068349851      0.0872942439614792      0.2721016340445950   T T T
      0.8321632828728570      0.0872208327553226      0.2719270502054891   T T T
      0.3328909929460307      0.5868528567729570      0.2725994090869265   T T T
      0.5820948696307851      0.8378476446130190      0.2709853698746708   T T T
      0.8325190738951721      0.8368736884164885      0.2715261835912381   T T T
      0.0829195710126024      0.3367361679112988      0.2717649541108274   T T T
      0.8324784313515787      0.3372674357286652      0.2718486534797867   T T T
      0.5820457519748450      0.5874526794378704      0.2719034422690815   T T T
      0.0825872161280942      0.5869675837309727      0.2716315642818102   T T T
      0.0833959463199362      0.0867384541265439      0.2717392855473316   T T T
      0.5821069871672288      0.0873027512336778      0.2716023125132397   T T T
      0.3330214111062675      0.8364460839506503      0.2719404876258098   T T T
      0.0826422892429387      0.8369856344014525      0.2716412684494582   T T T
      0.3328009343575177      0.3372994091446892      0.2720127439347312   T T T
      0.5822996261296386      0.3367448918763059      0.2723144991141565   T T T
      0.9155954229983875      0.6698752967070869      0.3768088336902281   T T T
      0.9158429620117360      0.4197062773065671      0.3772978286622899   T T T
      0.6658083431834338      0.6703982090376009      0.3764368537515631   T T T
      0.1650592493621243      0.1705981559424959      0.3779843693027686   T T T
      0.9170929269203137      0.1699358767204251      0.3766784445319228   T T T
      0.9163268327569967      0.9199939749004356      0.3768358448355518   T T T
      0.4163627691421362      0.9199299146310481      0.3766604722913117   T T T
      0.4165093600353788      0.1705952703704647      0.3770384796820240   T T T
      0.6674334474948278      0.1708066026986853      0.3781465385241594   T T T
      0.1661203282135992      0.6699179704976519      0.3770494718895432   T T T
      0.4176616712231264      0.6681187242448736      0.3788354745257177   T T T
      0.4175494499427593      0.4207180734488034      0.3790793772030566   T T T
      0.6662515886637006      0.9202349953642529      0.3767079082340556   T T T
      0.1661739649120077      0.4200784916076286      0.3769188289261067   T T T
      0.6664200066133152      0.4198165591432942      0.3771734954407350   T T T
      0.1667902855040873      0.9195254053384428      0.3768323641810835   T T T
      0.0046675001456869      0.2482358194421776      0.4853538472716197   T T T
      0.4996157778621507      0.2503828098036937      0.4821080121511548   T T T
     -0.0004462304810908      0.7520089999421853      0.4827922378139123   T T T
      0.4993393388854107      0.7563930555773895      0.4821709150051792   T T T
      0.7500197015804081      0.7530981351589529      0.4826310480031878   T T T
      0.0001921989173696      0.5034769885175205      0.4822857306780788   T T T
      0.7471684928754204      0.5072808669170165      0.4839115970687619   T T T
      0.2524983156585145      0.0004365193991656      0.4826102821000784   T T T
      0.0022511400779065      0.9985102670899910      0.4827852461940635   T T T
      0.4999916825305412      0.0029883496576642      0.4827034204834676   T T T
      0.2485924622554158      0.7528784425135471      0.4827871662803260   T T T
      0.7499653600550835      0.0006085400611004      0.4824167687088255   T T T
      0.2501539815075097      0.2527414826787632      0.4827005143618341   T T T
      0.7560533065833649      0.2469388553854666      0.4850611440258853   T T T
      0.2481991749749179      0.5027585521853907      0.4829902167173719   T T T
      0.4962939552827499      0.5047296063215461      0.4898682630460656   T T T
     -0.0017007525541065      0.2542241081205029      0.1662567893905150   F F F
      0.4983997927279826      0.2542599650360108      0.1662852028819703   F F F
     -0.0012510060974963      0.7540066022171258      0.1658169194256744   F F F
      0.4984520385786897      0.7538535399587816      0.1659798171739834   F F F
      0.7488601346310175      0.7539211370158895      0.1658740793004066   F F F
     -0.0013364287626653      0.5040723743639974      0.1660186935632681   F F F
      0.7485387542007435      0.5039368274182648      0.1662212889930970   F F F
      0.2485219460343271      0.0040014732559256      0.1663176683006618   F F F
     -0.0013926445804510      0.0040268933906862      0.1661382268239845   F F F
      0.4985909196425027      0.0040521918121327      0.1657016982516660   F F F
      0.2485148336266944      0.7540041369996539      0.1662899458331819   F F F
      0.7489942416876177      0.0040539296199161      0.1662052934109689   F F F
      0.2485842305965750      0.2540287866064345      0.1662620438160737   F F F
      0.7482243712584875      0.2542244969993499      0.1663690490977680   F F F
      0.2486655957381914      0.5040677248098949      0.1663211737358184   F F F
      0.4982970271902409      0.5041365122431248      0.1665886177880956   F F F
      0.5769680817129293      0.4658153201290948      0.5910195008014224   T T T
      0.7114178981057981      0.4078136202364674      0.5620840212502141   T T T
      0.8591377588836980      0.2665502960428591      0.5768449667910541   T T T
      0.9613760055964001      0.2872936323106610      0.5822795245207142   T T T
      0.8635762871153859      0.1840957912840339      0.6168125374107351   T T T
 
  0.00000000E+00  0.00000000E+00  0.00000000E+00
  0.00000000E+00  0.00000000E+00  0.00000000E+00
  0.00000000E+00  0.00000000E+00  0.00000000E+00
  0.00000000E+00  0.00000000E+00  0.00000000E+00
  0.00000000E+00  0.00000000E+00  0.00000000E+00
  0.00000000E+00  0.00000000E+00  0.00000000E+00
  0.00000000E+00  0.00000000E+00  0.00000000E+00
  0.00000000E+00  0.00000000E+00  0.00000000E+00
  0.00000000E+00  0.00000000E+00  0.00000000E+00
  0.00000000E+00  0.00000000E+00  0.00000000E+00
  0.00000000E+00  0.00000000E+00  0.00000000E+00
  0.00000000E+00  0.00000000E+00  0.00000000E+00
  0.00000000E+00  0.00000000E+00  0.00000000E+00
  0.00000000E+00  0.00000000E+00  0.00000000E+00
  0.00000000E+00  0.00000000E+00  0.00000000E+00
  0.00000000E+00  0.00000000E+00  0.00000000E+00
  0.00000000E+00  0.00000000E+00  0.00000000E+00
  0.00000000E+00  0.00000000E+00  0.00000000E+00
  0.00000000E+00  0.00000000E+00  0.00000000E+00
  0.00000000E+00  0.00000000E+00  0.00000000E+00
  0.00000000E+00  0.00000000E+00  0.00000000E+00
  0.00000000E+00  0.00000000E+00  0.00000000E+00
  0.00000000E+00  0.00000000E+00  0.00000000E+00
  0.00000000E+00  0.00000000E+00  0.00000000E+00
  0.00000000E+00  0.00000000E+00  0.00000000E+00
  0.00000000E+00  0.00000000E+00  0.00000000E+00
  0.00000000E+00  0.00000000E+00  0.00000000E+00
  0.00000000E+00  0.00000000E+00  0.00000000E+00
  0.00000000E+00  0.00000000E+00  0.00000000E+00
  0.00000000E+00  0.00000000E+00  0.00000000E+00
  0.00000000E+00  0.00000000E+00  0.00000000E+00
  0.00000000E+00  0.00000000E+00  0.00000000E+00
  0.00000000E+00  0.00000000E+00  0.00000000E+00
  0.00000000E+00  0.00000000E+00  0.00000000E+00
  0.00000000E+00  0.00000000E+00  0.00000000E+00
  0.00000000E+00  0.00000000E+00  0.00000000E+00
  0.00000000E+00  0.00000000E+00  0.00000000E+00
  0.00000000E+00  0.00000000E+00  0.00000000E+00
  0.00000000E+00  0.00000000E+00  0.00000000E+00
  0.00000000E+00  0.00000000E+00  0.00000000E+00
  0.00000000E+00  0.00000000E+00  0.00000000E+00
  0.00000000E+00  0.00000000E+00  0.00000000E+00
  0.00000000E+00  0.00000000E+00  0.00000000E+00
  0.00000000E+00  0.00000000E+00  0.00000000E+00
  0.00000000E+00  0.00000000E+00  0.00000000E+00
  0.00000000E+00  0.00000000E+00  0.00000000E+00
  0.00000000E+00  0.00000000E+00  0.00000000E+00
  0.00000000E+00  0.00000000E+00  0.00000000E+00
  0.00000000E+00  0.00000000E+00  0.00000000E+00
  0.00000000E+00  0.00000000E+00  0.00000000E+00
  0.00000000E+00  0.00000000E+00  0.00000000E+00
  0.00000000E+00  0.00000000E+00  0.00000000E+00
  0.00000000E+00  0.00000000E+00  0.00000000E+00
  0.00000000E+00  0.00000000E+00  0.00000000E+00
  0.00000000E+00  0.00000000E+00  0.00000000E+00
  0.00000000E+00  0.00000000E+00  0.00000000E+00
  0.00000000E+00  0.00000000E+00  0.00000000E+00
  0.00000000E+00  0.00000000E+00  0.00000000E+00
  0.00000000E+00  0.00000000E+00  0.00000000E+00
  0.00000000E+00  0.00000000E+00  0.00000000E+00
  0.00000000E+00  0.00000000E+00  0.00000000E+00
  0.00000000E+00  0.00000000E+00  0.00000000E+00
  0.00000000E+00  0.00000000E+00  0.00000000E+00
  0.00000000E+00  0.00000000E+00  0.00000000E+00
  0.00000000E+00  0.00000000E+00  0.00000000E+00
  0.00000000E+00  0.00000000E+00  0.00000000E+00
  0.00000000E+00  0.00000000E+00  0.00000000E+00
  0.00000000E+00  0.00000000E+00  0.00000000E+00
  0.00000000E+00  0.00000000E+00  0.00000000E+00
