 Ni_Pol_CO_COH(ER)
   1.000
    9.8292000000000002    0.0000000000000000    0.0000000000000000
    4.9146000000000001    8.5123370000000005    0.0000000000000000
    0.0000000000000000    0.0000000000000000   33.0127999999999986
   Ni   O    O    H    C    O 
   64    3   30   60    1    1
Selective Dynamics
Direct
    0.8387067400000000    0.5766137900000000    0.1270701600000000    T  T  T
    0.3500352900000000    0.0739181500000000    0.1241790600000000    T  T  T
    0.8302597400000000    0.0917181700000000    0.1167778700000000    T  T  T
    0.3420897100000000    0.5763854000000000    0.1228040800000000    T  T  T
    0.5954650700000000    0.8222033900000000    0.1218939700000000    T  T  T
    0.8432004700000000    0.8295994000000000    0.1227862200000000    T  T  T
    0.0905281100000000    0.3223748000000000    0.1246753400000000    T  T  T
    0.8421500700000000    0.3242274500000000    0.1230219300000000    T  T  T
    0.5845343400000000    0.5777283500000000    0.1222232500000000    T  T  T
    0.0875081300000000    0.5747213400000000    0.1220239900000000    T  T  T
    0.0877753300000000    0.0723835200000000    0.1205802000000000    T  T  T
    0.5949749700000000    0.0717469600000000    0.1230030200000000    T  T  T
    0.3482311700000000    0.8189695600000000    0.1223788500000000    T  T  T
    0.0834518500000000    0.8270981100000000    0.1230997700000000    T  T  T
    0.3324729200000000    0.3381303000000000    0.1240824000000000    T  T  T
    0.5726124800000000    0.3375294000000000    0.1232879300000000    T  T  T
    0.9265218300000000    0.6587322600000000    0.1840534600000000    T  T  T
    0.9151495300000000    0.4116215100000000    0.1829646600000000    T  T  T
    0.6836929800000000    0.6560291900000000    0.1875924700000000    T  T  T
    0.1689394000000000    0.1661373500000000    0.1835611200000000    T  T  T
    0.9259893300000001    0.1576287700000000    0.1820730500000000    T  T  T
    0.9157850100000000    0.9160892800000000    0.1828715700000000    T  T  T
    0.4227011800000000    0.9023162500000000    0.1864512300000000    T  T  T
    0.4367929200000000    0.1628374300000000    0.1812411200000000    T  T  T
    0.6757770000000000    0.1583692700000000    0.1840650100000000    T  T  T
    0.1893771800000000    0.6574400700000000    0.1850590400000000    T  T  T
    0.4235380600000000    0.6697555500000000    0.1865005000000000    T  T  T
    0.4273157100000000    0.4180285300000000    0.1863690900000000    T  T  T
    0.6762521700000000    0.9082630500000000    0.1833693200000000    T  T  T
    0.1760263400000000    0.4108558800000000    0.1851705400000000    T  T  T
    0.6778128000000000    0.4215192600000000    0.1829223600000000    T  T  T
    0.1782296400000000    0.9036460500000000    0.1840150400000000    T  T  T
    0.9997277500000000    0.2489531000000000    0.2423869200000000    T  T  T
    0.5072341800000000    0.2501788600000000    0.2471959000000000    T  T  T
    0.9962014800000000    0.7394811300000000    0.2511783900000000    T  T  T
    0.5285741600000000    0.7270847300000000    0.2520227500000000    T  T  T
    0.7499956400000000    0.7508507900000000    0.2441308500000000    T  T  T
    0.9951952600000000    0.5055831800000000    0.2483956200000000    T  T  T
    0.7585686000000000    0.4877962100000000    0.2514310000000000    T  T  T
    0.2561036600000000    0.9988410100000000    0.2491600300000000    T  T  T
    0.0073152600000000    0.9854789200000000    0.2516290400000000    T  T  T
    0.5136090800000001    0.9867746900000000    0.2514853800000000    T  T  T
    0.2521089300000000    0.7488677200000000    0.2504604500000000    T  T  T
    0.7485655600000000    0.9957470100000000    0.2494712600000000    T  T  T
    0.2650028300000000    0.2422163700000000    0.2438841600000000    T  T  T
    0.7612130000000000    0.2405145200000000    0.2453824400000000    T  T  T
    0.2500189700000000    0.5027760700000000    0.2478404900000000    T  T  T
    0.5096942900000000    0.4951959500000000    0.2476237500000000    T  T  T
    0.0085134600000000    0.2532034900000000    0.0572315500000000    F  F  F
    0.5132362800000000    0.2497304200000000    0.0591809100000000    F  F  F
    0.0126117000000000    0.7435753100000000    0.0602198300000000    F  F  F
    0.5076465800000000    0.7432739500000000    0.0619010800000000    F  F  F
    0.7485616700000000    0.7474104400000000    0.0631465600000000    F  F  F
    0.0239780600000000    0.4899038300000000    0.0635113400000000    F  F  F
    0.7643858600000000    0.4936459500000000    0.0643413400000000    F  F  F
    0.2558581900000000    0.9901649100000000    0.0615668300000000    F  F  F
    0.9913224600000000    0.0044060700000000    0.0593102000000000    F  F  F
    0.4997282600000000    0.9915387800000000    0.0618401800000000    F  F  F
    0.2592658600000000    0.7373623900000000    0.0566623100000000    F  F  F
    0.7502099800000001    0.9838151800000000    0.0598900700000000    F  F  F
    0.2669153200000000    0.2388803800000000    0.0606668500000000    F  F  F
    0.7594657400000000    0.2523583800000000    0.0605329100000000    F  F  F
    0.2731021300000000    0.4920525800000000    0.0587759800000000    F  F  F
    0.5064068300000000    0.5083868300000000    0.0597305300000000    F  F  F
    0.3392074700000000    0.0907008200000000    0.2837058900000000    T  T  T
    0.8219210800000000    0.0915511100000000    0.2843058200000000    T  T  T
    0.3473276800000000    0.5729252200000000    0.2884296400000000    T  T  T
    0.6889586200000000    0.2221501300000000    0.5954619100000000    T  T  T
    0.1289153600000000    0.6021838900000001    0.5160349500000000    T  T  T
    0.0894111900000000    0.2967720600000000    0.4572057800000000    T  T  T
    0.7839601600000000    0.4880310800000000    0.4687956500000000    T  T  T
    0.4872751500000000    0.2690662200000000    0.3053356600000000    T  T  T
    0.9073236600000000    0.5842795200000001    0.5588963600000000    T  T  T
    0.9759995900000000    0.7363928700000000    0.3096268100000000    T  T  T
    0.1313935600000000    0.2596705500000000    0.3370768800000000    T  T  T
    0.4764912200000000    0.0636463200000000    0.3627501300000000    T  T  T
    0.3600632600000000    0.7533331000000000    0.5171336000000000    T  T  T
    0.8346363000000000    0.8780527200000000    0.4061199700000000    T  T  T
    0.4207583600000000    0.4691511600000000    0.5540604900000000    T  T  T
    0.1462349900000000    0.0684303200000000    0.5190386000000000    T  T  T
    0.7414228200000000    0.7889536000000000    0.3434391900000000    T  T  T
    0.5884329000000000    0.3183840100000000    0.4069268200000000    T  T  T
    0.1237209200000000    0.0862955900000000    0.4009533200000000    T  T  T
    0.1270733500000000    0.6537594500000000    0.4309119000000000    T  T  T
    0.5442521900000000    0.7439261200000000    0.3121401400000000    T  T  T
    0.6449032700000000    0.7525184900000000    0.5108173200000000    T  T  T
    0.3936186200000000    0.2150327700000000    0.4359035700000000    T  T  T
    0.8533448500000000    0.8520822700000000    0.6005367600000000    T  T  T
    0.6641225300000000    0.2965935200000000    0.4863527200000000    T  T  T
    0.3042565600000000    0.7998626700000000    0.4395257900000000    T  T  T
    0.8518497600000000    0.1135302900000000    0.3654304500000000    T  T  T
    0.8165150500000000    0.4203126700000000    0.3152714100000000    T  T  T
    0.9158738800000000    0.9762623000000000    0.5256817200000000    T  T  T
    0.6949208000000000    0.9772308900000000    0.4833538300000000    T  T  T
    0.8843339200000000    0.3166457500000000    0.5585483900000000    T  T  T
    0.6078586900000000    0.6270853700000000    0.4034912200000000    T  T  T
    0.1874483900000000    0.4922177200000000    0.3563135100000000    T  T  T
    0.6687278200000000    0.1379730900000000    0.5977357000000000    T  T  T
    0.5885014800000000    0.3193766800000000    0.5895554000000000    T  T  T
    0.0517414200000000    0.5679669800000000    0.5243686000000000    T  T  T
    0.0811318600000000    0.7168179300000000    0.5219304800000000    T  T  T
    0.9868701800000000    0.3853326500000000    0.4628618700000000    T  T  T
    0.1730709300000000    0.3090317500000000    0.4462606700000000    T  T  T
    0.7217731600000000    0.5234351900000001    0.4440572200000000    T  T  T
    0.7574622500000000    0.4113020900000000    0.4823900700000000    T  T  T
    0.4594492800000000    0.2118935500000000    0.3245264700000000    T  T  T
    0.4218701400000000    0.3808900900000000    0.3120875200000000    T  T  T
    0.7949337800000000    0.6599590400000001    0.5552961199999999    T  T  T
    0.9018155100000000    0.4906513700000000    0.5676281900000000    T  T  T
    0.0697462700000000    0.6372883700000000    0.3195024200000000    T  T  T
    0.8702804300000000    0.7640628800000000    0.3262104700000000    T  T  T
    0.1442628600000000    0.1881554600000000    0.3598111900000000    T  T  T
    0.2058444500000000    0.1892577900000000    0.3133603700000000    T  T  T
    0.4410573500000000    0.1094815300000000    0.3891115000000000    T  T  T
    0.4144505800000000    0.0208299700000000    0.3536247800000000    T  T  T
    0.3483289900000000    0.7731182200000000    0.4875410500000000    T  T  T
    0.2955540900000000    0.8600125400000000    0.5273118400000000    T  T  T
    0.7823624400000000    0.8494741400000000    0.3864513500000000    T  T  T
    0.8536865600000000    0.9573491800000000    0.3916851000000000    T  T  T
    0.4293048900000000    0.5637170700000000    0.5437944300000001    T  T  T
    0.3149476100000000    0.4938691200000000    0.5430770700000001    T  T  T
    0.1528388200000000    0.1335445600000000    0.4958363000000000    T  T  T
    0.0677929400000000    0.0385750000000000    0.5128601400000000    T  T  T
    0.6479617400000000    0.7538472800000000    0.3254231800000000    T  T  T
    0.6677148400000000    0.9060295500000000    0.3464766700000000    T  T  T
    0.5715396600000000    0.4202988600000000    0.3985892800000000    T  T  T
    0.6200469800000000    0.3035159300000000    0.4369401500000000    T  T  T
    0.0880856300000000    0.1618679500000000    0.4237463600000000    T  T  T
    0.0366571000000000    0.0850047800000000    0.3862505400000000    T  T  T
    0.1252073000000000    0.6206921900000000    0.4587927800000000    T  T  T
    0.0203352500000000    0.7221819900000001    0.4238434300000000    T  T  T
    0.5440105600000000    0.6575888800000000    0.3248210700000000    T  T  T
    0.2397764200000000    0.7780750700000000    0.3303156400000000    T  T  T
    0.5450840200000000    0.7525607400000000    0.5178820100000000    T  T  T
    0.7194182099999999    0.6424806300000000    0.4996922000000000    T  T  T
    0.4240650400000000    0.2837356400000000    0.4209404200000000    T  T  T
    0.4497524200000000    0.1805724900000000    0.4614413800000000    T  T  T
    0.8766477800000000    0.7418193100000000    0.5980378400000000    T  T  T
    0.9322076200000000    0.8536309100000000    0.6183461300000000    T  T  T
    0.7407116600000000    0.2018776100000000    0.5019108700000000    T  T  T
    0.5802556300000000    0.3450964000000000    0.5068564700000000    T  T  T
    0.2627992400000000    0.7261626600000000    0.4362751500000000    T  T  T
    0.2369307800000000    0.9037392400000001    0.4211716200000000    T  T  T
    0.8319394900000000    0.1097801800000000    0.3347126400000000    T  T  T
    0.7563091900000000    0.1974733600000000    0.3792812600000000    T  T  T
    0.9290249000000000    0.3657225600000000    0.3253947600000000    T  T  T
    0.7933142800000000    0.3383914700000000    0.3186447000000000    T  T  T
    0.8322798700000000    0.9725058100000000    0.5077098799999999    T  T  T
    0.8797775799999999    0.9534191600000000    0.5526074500000000    T  T  T
    0.6741599700000001    0.8964837600000000    0.4940780900000000    T  T  T
    0.7636364400000000    0.9208191500000000    0.4591350200000000    T  T  T
    0.8382925300000000    0.2793933600000000    0.5770574700000000    T  T  T
    0.9906769900000000    0.2258502900000000    0.5512298600000000    T  T  T
    0.6471410600000000    0.6799606400000000    0.3843869300000000    T  T  T
    0.5111525099999999    0.7116297300000000    0.4158066600000000    T  T  T
    0.1495296100000000    0.5300117600000001    0.3832563100000000    T  T  T
    0.1568202300000000    0.4076752100000000    0.3542660800000000    T  T  T
    0.1748954400000000    0.9145276000000000    0.2848161800000000    T  T  T
    0.2098739200000000    0.8910998000000000    0.3241224900000000    T  T  T

   0.000265437546000   -0.001693699692891   -0.000630544480000
   0.001451527110000    0.000041625327930    0.001244582560000
  -0.000542522693999   -0.000157903851350    0.000532496464000
   0.003623337996000   -0.001731239099061   -0.001037592304000
   0.006012079326000    0.001691145991790   -0.003595424048000
   0.001233171432000   -0.002014529674420    0.001832870656000
   0.001835603100000   -0.001947792952340    0.000338051072001
   0.000293352473999    0.003155438202530   -0.001949405840000
   0.000312224538000    0.002193203628050   -0.004173808304000
   0.002360187504001   -0.000215362126100   -0.000229769088000
   0.001098707976000    0.000057032657900   -0.001518918928000
   0.004451448095999   -0.000007831350040   -0.001598809904000
   0.000969355704000   -0.001576825305880    0.003429039536001
   0.003076097286001   -0.002496583318730    0.001757271344000
   0.001502982972000   -0.002651252482020   -0.000263772272000
  -0.005960230296000    0.000718270996060   -0.000052160224000
   0.000379603704001    0.001034759685721    0.001786982863999
  -0.001079442743999    0.001444203095420   -0.001853008464000
   0.000885561774000    0.003198510627750   -0.000677422656000
  -0.002017885614000   -0.000443237387590   -0.000657614976000
   0.000021624240002    0.005592775655740    0.002065610896000
  -0.001744830438001   -0.000129813139250    0.003555148432000
  -0.002932590966001    0.000386204729690   -0.000498163152000
  -0.001987021926000   -0.000682944797510   -0.001937851359999
   0.002056268640000   -0.003306191690800    0.000618329743999
  -0.002636142294000   -0.002348979395150   -0.000334089536000
  -0.001387293288000    0.002244362773420   -0.003236905040001
  -0.002219580798000   -0.001689103030910   -0.001057399984000
  -0.001612725989999    0.001262634947210    0.000763255936000
   0.000519768096000   -0.000191868075980   -0.000311640832000
   0.000711830664001   -0.001383254762500   -0.001773447616000
  -0.000946502813999   -0.001942259933290    0.001139931984000
   0.174298261425999   -0.000354028095830    0.000778111696000
  -0.001681333805999    0.004402155079550    0.000365451696000
   0.001699321242000    0.000378713873129   -0.000912473792001
   0.000715221738000    0.001208496483890    0.000846118064000
  -0.002672461188000   -0.000853276660879    0.002963228927999
  -0.003316519518000   -0.004682551460331   -0.001363098512000
   0.000098046270001   -0.002047131925130    0.001638095135998
  -0.000263520852000   -0.000699203361179    0.000383278608000
  -0.001787784042000   -0.001217689807850   -0.001407995920001
   0.001386310368000    0.000013789985941   -0.002055707055998
   0.000383633676000   -0.000564878683320    0.001499771504001
   0.000997909530000   -0.001617939893590   -0.001068294208000
   0.002901481548000   -0.001882077710700   -0.000091775583998
  -0.002210193911999   -0.000709247918840   -0.002116120480000
   0.001197196560000   -0.000683200167621    0.000306028655999
  -0.000178350834000    0.001130523476970    0.002677007952000
   0.001941267000000    0.001655649546501    0.003367965856000
  -0.000130580922001    0.004474850437530    0.001345601728000
   0.002259045036000   -0.001684080752080    0.000593240016000
   0.001710133362002   -0.002743781585210   -0.001129367888000
   0.001606337010003   -0.001272339011390    0.002444927968000
  -0.003064597122000    0.000686860472530   -0.000198406928000
  -0.002684501958001    0.000731975858630   -0.000304047888000
  -0.000461087772001    0.001408451280021    0.002066601280000
  -0.000532398618001   -0.000863236095170    0.001422521552000
  -0.003111728136002    0.003522234803860   -0.000421573456000
   0.001133601635999   -0.002159750143640   -0.000838525120000
   0.000284113026002   -0.003213151847390   -0.001576691328000
  -0.004878772566001    0.002993533552790   -0.001621918864000
   0.003228449885999    0.003244477247550   -0.000166714640000
   0.001268851428001   -0.000295378093901    0.001429124112000
  -0.002872288823998    0.001086684941421   -0.002094332032000
  -0.003597634638000    0.008576264650870    0.003979693040000
  -0.001454377578002   -0.000736232027130    0.000150868496000
   0.001409605571999    0.003271631602580   -0.004402917135998
   0.000781421399999    0.008521360077220   -0.000397474111999
  -0.002398963698001   -0.003037116718231   -0.001291130607999
   0.005488576134000   -0.001971372125830   -0.000714727120000
  -0.008739240012002    0.005408568683061    0.004005443023999
   0.003319959737999    0.004644586437310    0.002112819199999
   0.003166771656002   -0.006940789343060   -0.000860643696001
  -0.001312640514000   -0.004126866100970   -0.000777121312000
  -0.001632040368000    0.005252622669220    0.001904178304001
   0.002731338096001   -0.002168602974120   -0.005569589488001
  -0.000596829023999   -0.004019355284659   -0.004231250575998
   0.002079072383999   -0.000250262707800    0.005489038256000
  -0.001585990565999    0.005472496333930    0.003106504480002
  -0.005664223938000   -0.000536021860890    0.001089092272000
  -0.003359227392002   -0.001333883207900    0.004253039024000
   0.001199948735999    0.000198507698840    0.004928480911998
  -0.004266069384000    0.002991916208760    0.003898811680001
   0.000894260616000    0.001521324868640   -0.002094992288001
  -0.002322885689999   -0.002530802913470    0.001967232752000
  -0.002483298234001   -0.005750509260350   -0.001201996048000
  -0.000135593814001   -0.006254439610750   -0.004502615792003
   0.004532784726001   -0.001392533209830   -0.005941973871998
   0.003384242706000    0.003768326466530   -0.005081000048001
  -0.003338291195999    0.001741283656720    0.008361812111998
  -0.001867695438003   -0.006288488958750    0.000521932367999
  -0.001141366703999    0.000642170703280    0.001116492895999
   0.000602480814001   -0.009557396613490    0.000290842767999
   0.000948370362000    0.001364782991210   -0.003809016864000
  -0.000362500895999    0.005288204237880   -0.000263772272000
   0.000209558544000    0.003356244232361   -0.000089464687999
  -0.000624547368001    0.009257336734240    0.001789954015999
  -0.016294258008000    0.015224144477760   -0.046140670047997
   0.016296715307999    0.007337123753779    0.002774725839998
  -0.005391316200000   -0.007632331600941    0.028179726080001
   0.002138145876001    0.014315878119859   -0.032503412495998
   0.018932955894000    0.001029396913410    0.001663514992000
   0.010808139174000   -0.002748378247190    0.012956203487999
   0.002753699526000   -0.013450428817070   -0.001226755648000
  -0.023779881852001    0.010610117330280   -0.012406540368000
  -0.023145013824000   -0.013742997839760   -0.001593527856000
  -0.015824569686001    0.004731582521449    0.010016413648000
  -0.002732566745999   -0.007782404102250   -0.004320055007998
   0.016720402974002   -0.011229900587249    0.006217630752001
  -0.004343179458000    0.010272432921489    0.016841149791999
   0.007321033889998    0.009192217356190    0.022842216576000
   0.023639668314000   -0.017784910817470    0.005798368192000
  -0.003389648766000    0.007220760106990    0.005183339728001
   0.003796479354000    0.012737435469950   -0.003398007504000
   0.000636342408000   -0.003032945673100   -0.007933305968001
   0.016908288132000   -0.017630241654180    0.001794245680003
   0.001977291018001   -0.020779891467550   -0.005502573504000
  -0.008083976393999    0.011127752543250   -0.002806748256003
   0.008960544450000    0.005836483864051    0.013695029951998
   0.009132604596000   -0.000210084477160    0.004458708767999
   0.004701208068001    0.008744894046840    0.001238970384001
  -0.003957629088000   -0.023340317313780   -0.028144402384001
   0.002568173376000   -0.018835929066860    0.011673656208000
  -0.000701411712001    0.009976799457480   -0.015904906784000
  -0.002040836795999   -0.016067206334239    0.027232918976001
   0.003565689738000   -0.003231878988790    0.006419999216000
  -0.016439042124000    0.009799742847880    0.003757516896000
   0.001112370564000    0.008705226556420   -0.000476704832000
  -0.019202374266000    0.004417307039410    0.035157641616001
   0.004518286656001    0.028685894703040    0.006264839056000
  -0.025911589602000    0.009757606779730   -0.008734196496000
  -0.000917260944002    0.017319200860200   -0.007655998448000
  -0.012006171216000    0.001972308482900    0.011489774912000
  -0.004121727582000   -0.013753127520789    0.015219561056000
   0.004535586048000   -0.012463423341921   -0.011721194640000
  -0.029695143558000    0.016739085093650   -0.024325481679998
   0.003446363250000   -0.009705341030550   -0.008376998000001
  -0.003457519392001    0.006308663197440   -0.007292857648000
   0.022230455910002    0.004139975099950   -0.022366832256001
   0.013460548794001    0.001622025815350   -0.004935413600002
  -0.027748372206000   -0.005409675286870   -0.010642996592001
  -0.014855754587999   -0.014904931840260    0.006601899744000
   0.018886021464000   -0.031711179272840    0.017961604224000
   0.006186007020000    0.001298642132720    0.001601450928002
   0.006310297254002   -0.004747585715010   -0.020287686112001
   0.012664334448001   -0.025793572837180    0.005136131423999
   0.007535703617998    0.018922329287410    0.002432383104001
   0.018748707539999   -0.009589488123980    0.022502844992001
   0.011109256716001    0.014330349092759   -0.009244244256003
   0.003873982596001   -0.010627993237979    0.009220144912000
  -0.005736222828000   -0.023699367688440    0.007696604192001
  -0.013428259872001    0.001111540965461   -0.004048689792000
  -0.003443611073999   -0.010328103605470   -0.003691491295999
  -0.001626388578000    0.021095869416990    0.004323026160000
   0.008172095172000    0.003536535530020    0.004801711759999
   0.012109770983999    0.002694665400719   -0.021100791375998
   0.006713933352000   -0.010209186257580   -0.016724944735998
  -0.000602726544001   -0.005143835002360   -0.004029872495998
  -0.001269883494000    0.008593800065090    0.001677710495999