Ni_COOHCH
   1.00000000000000     
     9.8291997910000006    0.0000000000000000    0.0000000000000000
     4.9145998955000003    8.5123367178000002    0.0000000000000000
     0.0000000000000000    0.0000000000000000   19.0128002167000005
   Ni   O    C    H 
    64     2     2     2
Selective dynamics
Direct
      0.8313373573654127      0.5867588426775155      0.2734233162987092   T T T
      0.3317614198820688      0.0869417686346558      0.2720845150235670   T T T
      0.8313027700923673      0.0871744340477695      0.2723054776840736   T T T
      0.3317506207746621      0.5868733705382896      0.2725384742013046   T T T
      0.5818674609021883      0.8368905790944573      0.2725039990352666   T T T
      0.8311827643632298      0.8370063427402336      0.2723125645960875   T T T
      0.0816979919242699      0.3370416927788841      0.2722748602793326   T T T
      0.8317679340822985      0.3368226745636307      0.2717259423784882   T T T
      0.5816661110527280      0.5875846723038511      0.2722739927609162   T T T
      0.0812825543523608      0.5868962820513998      0.2724978327179900   T T T
      0.0816637996712403      0.0870042715388709      0.2715594541949794   T T T
      0.5814604874432279      0.0865956997074381      0.2720879897349518   T T T
      0.3316751961758631      0.8370972854441263      0.2716352772744335   T T T
      0.0813811402225077      0.8369252520266716      0.2718554930975489   T T T
      0.3317375553467998      0.3366485329435081      0.2717399937977413   T T T
      0.5812008529862931      0.3367703115454508      0.2723808513013760   T T T
      0.9143628093190207      0.6689976231627938      0.3787372034819527   T T T
      0.9151704688819016      0.4192582999123790      0.3782950708266364   T T T
      0.6655512146846400      0.6695062193105118      0.3793205179843154   T T T
      0.1647573712799270      0.1700288865501119      0.3769602410776273   T T T
      0.9146081778464600      0.1704202833963941      0.3773040172348091   T T T
      0.9146382522501542      0.9198017037558511      0.3773148464749778   T T T
      0.4150618781605532      0.9197356222249156      0.3771607635766387   T T T
      0.4148967862316502      0.1699800967826237      0.3771961525091418   T T T
      0.6644560447594319      0.1699890872757351      0.3776622965838197   T T T
      0.1650991260039846      0.6693848567529038      0.3773397224717678   T T T
      0.4158358990378778      0.6694818131372637      0.3775045540698357   T T T
      0.4149686411134584      0.4195467791301284      0.3778703146990697   T T T
      0.6661548512664419      0.9175891289288367      0.3793253077534142   T T T
      0.1633948327280109      0.4205626182211229      0.3783911651545139   T T T
      0.6652449348651766      0.4199967240262344      0.3764212464372648   T T T
      0.1647689573782608      0.9197537862260953      0.3770870909780804   T T T
      0.0028934185313619      0.2480619479921330      0.4827330230891773   T T T
      0.4969917944655685      0.2512716967635654      0.4831195183992733   T T T
      0.0007754031332526      0.7538937464039124      0.4822333392775260   T T T
      0.4945605144656909      0.7562947991200472      0.4826667610005893   T T T
      0.7455744408595498      0.7564941262407137      0.4895325926318947   T T T
     -0.0014311968520850      0.5014626404457585      0.4883195755285933   T T T
      0.7495135733917755      0.5001373323043490      0.4865878375524535   T T T
      0.2481791169510721      0.0025818755811087      0.4830940401119327   T T T
     -0.0005168886392325      0.0019508312379427      0.4831007031670773   T T T
      0.4960964781463837      0.0044624306867156      0.4830087064649639   T T T
      0.2485038612968438      0.7527916484928633      0.4831653759055429   T T T
      0.7485384977882968      0.0034510471385630      0.4830207744107856   T T T
      0.2486397047704511      0.2523634631983590      0.4830381884314579   T T T
      0.7508742168345884      0.2477142209896465      0.4866773951800225   T T T
      0.2486052370899529      0.5024425177948150      0.4833158217746737   T T T
      0.4956708243626818      0.5039883490872362      0.4869380308907304   T T T
      0.9980758743998932      0.2542483767117785      0.1663956296834318   F F F
      0.4983427249342587      0.2541450135423018      0.1663877971296454   F F F
     -0.0017442727938731      0.7540302442272879      0.1663489159171841   F F F
      0.4984749209444175      0.7539196596371341      0.1665053760507829   F F F
      0.7485739102122544      0.7537810537259927      0.1670528218094287   F F F
     -0.0018855543396013      0.5042215782362757      0.1670328860880218   F F F
      0.7482001233928400      0.5042592167007406      0.1669597490910990   F F F
      0.2483460452508756      0.0040112898100444      0.1661708517543148   F F F
     -0.0018907459208757      0.0040637570837564      0.1663269317684081   F F F
      0.4983377989171108      0.0039108041309667      0.1666396920542992   F F F
      0.2480614610814236      0.7540114229619914      0.1663099465456688   F F F
      0.7484162860697672      0.0038281735905893      0.1665839193755888   F F F
      0.2480376073499728      0.2540614359981437      0.1665644592394518   F F F
      0.7480544980966566      0.2539916441643297      0.1665455720007670   F F F
      0.2478448328750674      0.5043272477916609      0.1667972908968455   F F F
      0.4980648540494584      0.5041733913512215      0.1669464750487999   F F F
      0.8069920099497044      0.6930778074137662      0.5920229425032827   T T T
      0.9943576908423750      0.4658199565093237      0.6350446302687051   T T T
      0.9240792228565354      0.5598285381025404      0.5795308513649299   T T T
      0.6639041892310045      0.4156610728248195      0.5468545700824019   T T T
      0.0817191494379672      0.3677422437191175      0.6160366259957845   T T T
      0.6654359401221451      0.4158836168578304      0.6048021388238164   T T T
 
  0.00000000E+00  0.00000000E+00  0.00000000E+00
  0.00000000E+00  0.00000000E+00  0.00000000E+00
  0.00000000E+00  0.00000000E+00  0.00000000E+00
  0.00000000E+00  0.00000000E+00  0.00000000E+00
  0.00000000E+00  0.00000000E+00  0.00000000E+00
  0.00000000E+00  0.00000000E+00  0.00000000E+00
  0.00000000E+00  0.00000000E+00  0.00000000E+00
  0.00000000E+00  0.00000000E+00  0.00000000E+00
  0.00000000E+00  0.00000000E+00  0.00000000E+00
  0.00000000E+00  0.00000000E+00  0.00000000E+00
  0.00000000E+00  0.00000000E+00  0.00000000E+00
  0.00000000E+00  0.00000000E+00  0.00000000E+00
  0.00000000E+00  0.00000000E+00  0.00000000E+00
  0.00000000E+00  0.00000000E+00  0.00000000E+00
  0.00000000E+00  0.00000000E+00  0.00000000E+00
  0.00000000E+00  0.00000000E+00  0.00000000E+00
  0.00000000E+00  0.00000000E+00  0.00000000E+00
  0.00000000E+00  0.00000000E+00  0.00000000E+00
  0.00000000E+00  0.00000000E+00  0.00000000E+00
  0.00000000E+00  0.00000000E+00  0.00000000E+00
  0.00000000E+00  0.00000000E+00  0.00000000E+00
  0.00000000E+00  0.00000000E+00  0.00000000E+00
  0.00000000E+00  0.00000000E+00  0.00000000E+00
  0.00000000E+00  0.00000000E+00  0.00000000E+00
  0.00000000E+00  0.00000000E+00  0.00000000E+00
  0.00000000E+00  0.00000000E+00  0.00000000E+00
  0.00000000E+00  0.00000000E+00  0.00000000E+00
  0.00000000E+00  0.00000000E+00  0.00000000E+00
  0.00000000E+00  0.00000000E+00  0.00000000E+00
  0.00000000E+00  0.00000000E+00  0.00000000E+00
  0.00000000E+00  0.00000000E+00  0.00000000E+00
  0.00000000E+00  0.00000000E+00  0.00000000E+00
  0.00000000E+00  0.00000000E+00  0.00000000E+00
  0.00000000E+00  0.00000000E+00  0.00000000E+00
  0.00000000E+00  0.00000000E+00  0.00000000E+00
  0.00000000E+00  0.00000000E+00  0.00000000E+00
  0.00000000E+00  0.00000000E+00  0.00000000E+00
  0.00000000E+00  0.00000000E+00  0.00000000E+00
  0.00000000E+00  0.00000000E+00  0.00000000E+00
  0.00000000E+00  0.00000000E+00  0.00000000E+00
  0.00000000E+00  0.00000000E+00  0.00000000E+00
  0.00000000E+00  0.00000000E+00  0.00000000E+00
  0.00000000E+00  0.00000000E+00  0.00000000E+00
  0.00000000E+00  0.00000000E+00  0.00000000E+00
  0.00000000E+00  0.00000000E+00  0.00000000E+00
  0.00000000E+00  0.00000000E+00  0.00000000E+00
  0.00000000E+00  0.00000000E+00  0.00000000E+00
  0.00000000E+00  0.00000000E+00  0.00000000E+00
  0.00000000E+00  0.00000000E+00  0.00000000E+00
  0.00000000E+00  0.00000000E+00  0.00000000E+00
  0.00000000E+00  0.00000000E+00  0.00000000E+00
  0.00000000E+00  0.00000000E+00  0.00000000E+00
  0.00000000E+00  0.00000000E+00  0.00000000E+00
  0.00000000E+00  0.00000000E+00  0.00000000E+00
  0.00000000E+00  0.00000000E+00  0.00000000E+00
  0.00000000E+00  0.00000000E+00  0.00000000E+00
  0.00000000E+00  0.00000000E+00  0.00000000E+00
  0.00000000E+00  0.00000000E+00  0.00000000E+00
  0.00000000E+00  0.00000000E+00  0.00000000E+00
  0.00000000E+00  0.00000000E+00  0.00000000E+00
  0.00000000E+00  0.00000000E+00  0.00000000E+00
  0.00000000E+00  0.00000000E+00  0.00000000E+00
  0.00000000E+00  0.00000000E+00  0.00000000E+00
  0.00000000E+00  0.00000000E+00  0.00000000E+00
  0.00000000E+00  0.00000000E+00  0.00000000E+00
  0.00000000E+00  0.00000000E+00  0.00000000E+00
  0.00000000E+00  0.00000000E+00  0.00000000E+00
  0.00000000E+00  0.00000000E+00  0.00000000E+00
  0.00000000E+00  0.00000000E+00  0.00000000E+00
  0.00000000E+00  0.00000000E+00  0.00000000E+00
