 Ni\(1\1\1)                             
   1.00000000000000     
     9.8291997910000006    0.0000000000000000    0.0000000000000000
     4.9145998955000003    8.5123367178000002    0.0000000000000000
     0.0000000000000000    0.0000000000000000   19.0128002167000005
   Ni   O    C    O    C    O    H 
    64     3     1     2     1     1     2
Selective dynamics
Direct
  0.8347379155108201  0.5815321005258890  0.2718803645753610   T   T   T
  0.3333245977649858  0.0822339461103198  0.2707035110384425   T   T   T
  0.8350327508440420  0.0826297243241320  0.2705288428402366   T   T   T
  0.3344701177184449  0.5821338724463514  0.2704445336659805   T   T   T
  0.5846849549133765  0.8319068040335530  0.2707428747852684   T   T   T
  0.8345884964070677  0.8319289664558366  0.2706646091138560   T   T   T
  0.0838507363432700  0.3323335963691793  0.2716209953202329   T   T   T
  0.8349489497065615  0.3325997405451390  0.2717947490221062   T   T   T
  0.5849991798910251  0.5820393169104354  0.2715053840841542   T   T   T
  0.0844701569896824  0.5815733391992385  0.2710741106958182   T   T   T
  0.0842630150833824  0.0829850982153788  0.2713392296981308   T   T   T
  0.5842399685135625  0.0819199890152379  0.2713161367419135   T   T   T
  0.3345839669297859  0.8319239529070090  0.2706807998932638   T   T   T
  0.0839995450493126  0.8320182818332419  0.2704578645120386   T   T   T
  0.3341351230390857  0.3320541611601706  0.2713952290831601   T   T   T
  0.5848816306336285  0.3323618486865592  0.2711331423391544   T   T   T
  0.9183223769735466  0.6644474640679984  0.3755796390636049   T   T   T
  0.9171984642675303  0.4156170121005839  0.3788415711713243   T   T   T
  0.6686276860753505  0.6639481830915094  0.3762126187503543   T   T   T
  0.1664009267779811  0.1662618933014282  0.3778211461730982   T   T   T
  0.9185389138828222  0.1659637698275112  0.3772066665970827   T   T   T
  0.9181415057457507  0.9158922650923449  0.3754350907852519   T   T   T
  0.4172222448989172  0.9151928459829103  0.3755829168176780   T   T   T
  0.4167283678652023  0.1650014714030580  0.3756314702271435   T   T   T
  0.6683842726904565  0.1650539513553629  0.3750601829881308   T   T   T
  0.1684545714692277  0.6651082764266086  0.3756076861856087   T   T   T
  0.4172475004765764  0.6652542090748366  0.3758926049809139   T   T   T
  0.4180997475065742  0.4155667551977901  0.3757164601294515   T   T   T
  0.6675764810350666  0.9160382655661863  0.3769370736776103   T   T   T
  0.1674844562033757  0.4153009714356652  0.3783172880398341   T   T   T
  0.6681431095680210  0.4160807049446047  0.3785050949145982   T   T   T
  0.1674652333369691  0.9156301060931802  0.3779983465925859   T   T   T
 -0.0013654734479137  0.2489410129100082  0.4858599578429886   T   T   T
  0.5006636435944013  0.2482509700175960  0.4788555021855374   T   T   T
 -0.0014296373056764  0.7490448014071136  0.4788580478739159   T   T   T
  0.5047472787436118  0.7474148065960926  0.4795804370086057   T   T   T
  0.7494030396179816  0.7517702930578988  0.4792641088406406   T   T   T
  0.0019091947658126  0.5034996182260288  0.4837405792372348   T   T   T
  0.7462290253993282  0.5032058079745426  0.4885688998518190   T   T   T
  0.2506350428209874 -0.0049233480536681  0.4853050033172936   T   T   T
  0.0035571201157105 -0.0044909897975937  0.4855288109083425   T   T   T
  0.5052435026406175 -0.0039628857224781  0.4850410986059676   T   T   T
  0.2486290851455410  0.7529969605221788  0.4853867954170424   T   T   T
  0.7483720834677183 -0.0031684086929853  0.4851075970048542   T   T   T
  0.2521018928264456  0.2503145389363881  0.4850817380688414   T   T   T
  0.7465697311829163  0.2501150285732113  0.4826754986823175   T   T   T
  0.2505568707004535  0.4974172022900872  0.4848074533027570   T   T   T
  0.5029149372684855  0.4980741362732949  0.4854335535574045   T   T   T
  0.9970724670000024  0.2558556729999992  0.1637003960000030   F   F   F
  0.4999617989999976  0.2500875830000027  0.1643123180000003   F   F   F
  0.9968841629999972  0.7476992069999966  0.1643590660000029   F   F   F
  0.5054474789999972  0.7476858750000019  0.1651548480000002   F   F   F
  0.7507219769999978  0.7486395119999969  0.1651830500000031   F   F   F
  0.9979410790000003  0.5014025589999989  0.1651978470000017   F   F   F
  0.7507272960000009  0.5014379059999996  0.1654730480000026   F   F   F
  0.2484077359999972  0.9989653640000000  0.1655050250000016   F   F   F
  0.0026835399999996  0.9989392600000002  0.1655775309999967   F   F   F
  0.5037179199999997  0.9979203070000011  0.1655856309999990   F   F   F
  0.2483221529999966  0.7533767729999994  0.1658259459999982   F   F   F
  0.7484137009999969  0.9978805350000002  0.1658943890000018   F   F   F
  0.2473094730000014  0.2543786680000011  0.1660089160000027   F   F   F
  0.7483561820000020  0.2543461500000035  0.1660180820000008   F   F   F
  0.2472921950000000  0.4989472700000022  0.1662971330000005   F   F   F
  0.5037960519999984  0.4989156760000029  0.1664085250000014   F   F   F
  0.3365451726335184  0.0795079727175206  0.5444367508036966   T   T   T
  0.8313287933787405  0.0833049574706674  0.5446301160131793   T   T   T
  0.3322107667121298  0.5840340316483850  0.5447729830833093   T   T   T
  0.9068946141881994  0.4349498351807330  0.5891643632716411   T   T   T
  0.9787437150351717  0.5162037318602403  0.5846266495014656   T   T   T
 -0.0223486829606911  0.2827679198385279  0.5890960554251874   T   T   T
  0.7340136944149234  0.5213937223474824  0.5981842959571628   T   T   T
  0.6667160337840423  0.4447671516464347  0.6289471224478371   T   T   T
  0.6775200976829859  0.6450857445350717  0.6137092000056361   T   T   T
  0.7389311276102408  0.3309254006694118  0.6220622852269521   T   T   T
 
  0.00000000E+00  0.00000000E+00  0.00000000E+00
  0.00000000E+00  0.00000000E+00  0.00000000E+00
  0.00000000E+00  0.00000000E+00  0.00000000E+00
  0.00000000E+00  0.00000000E+00  0.00000000E+00
  0.00000000E+00  0.00000000E+00  0.00000000E+00
  0.00000000E+00  0.00000000E+00  0.00000000E+00
  0.00000000E+00  0.00000000E+00  0.00000000E+00
  0.00000000E+00  0.00000000E+00  0.00000000E+00
  0.00000000E+00  0.00000000E+00  0.00000000E+00
  0.00000000E+00  0.00000000E+00  0.00000000E+00
  0.00000000E+00  0.00000000E+00  0.00000000E+00
  0.00000000E+00  0.00000000E+00  0.00000000E+00
  0.00000000E+00  0.00000000E+00  0.00000000E+00
  0.00000000E+00  0.00000000E+00  0.00000000E+00
  0.00000000E+00  0.00000000E+00  0.00000000E+00
  0.00000000E+00  0.00000000E+00  0.00000000E+00
  0.00000000E+00  0.00000000E+00  0.00000000E+00
  0.00000000E+00  0.00000000E+00  0.00000000E+00
  0.00000000E+00  0.00000000E+00  0.00000000E+00
  0.00000000E+00  0.00000000E+00  0.00000000E+00
  0.00000000E+00  0.00000000E+00  0.00000000E+00
  0.00000000E+00  0.00000000E+00  0.00000000E+00
  0.00000000E+00  0.00000000E+00  0.00000000E+00
  0.00000000E+00  0.00000000E+00  0.00000000E+00
  0.00000000E+00  0.00000000E+00  0.00000000E+00
  0.00000000E+00  0.00000000E+00  0.00000000E+00
  0.00000000E+00  0.00000000E+00  0.00000000E+00
  0.00000000E+00  0.00000000E+00  0.00000000E+00
  0.00000000E+00  0.00000000E+00  0.00000000E+00
  0.00000000E+00  0.00000000E+00  0.00000000E+00
  0.00000000E+00  0.00000000E+00  0.00000000E+00
  0.00000000E+00  0.00000000E+00  0.00000000E+00
  0.00000000E+00  0.00000000E+00  0.00000000E+00
  0.00000000E+00  0.00000000E+00  0.00000000E+00
  0.00000000E+00  0.00000000E+00  0.00000000E+00
  0.00000000E+00  0.00000000E+00  0.00000000E+00
  0.00000000E+00  0.00000000E+00  0.00000000E+00
  0.00000000E+00  0.00000000E+00  0.00000000E+00
  0.00000000E+00  0.00000000E+00  0.00000000E+00
  0.00000000E+00  0.00000000E+00  0.00000000E+00
  0.00000000E+00  0.00000000E+00  0.00000000E+00
  0.00000000E+00  0.00000000E+00  0.00000000E+00
  0.00000000E+00  0.00000000E+00  0.00000000E+00
  0.00000000E+00  0.00000000E+00  0.00000000E+00
  0.00000000E+00  0.00000000E+00  0.00000000E+00
  0.00000000E+00  0.00000000E+00  0.00000000E+00
  0.00000000E+00  0.00000000E+00  0.00000000E+00
  0.00000000E+00  0.00000000E+00  0.00000000E+00
  0.00000000E+00  0.00000000E+00  0.00000000E+00
  0.00000000E+00  0.00000000E+00  0.00000000E+00
  0.00000000E+00  0.00000000E+00  0.00000000E+00
  0.00000000E+00  0.00000000E+00  0.00000000E+00
  0.00000000E+00  0.00000000E+00  0.00000000E+00
  0.00000000E+00  0.00000000E+00  0.00000000E+00
  0.00000000E+00  0.00000000E+00  0.00000000E+00
  0.00000000E+00  0.00000000E+00  0.00000000E+00
  0.00000000E+00  0.00000000E+00  0.00000000E+00
  0.00000000E+00  0.00000000E+00  0.00000000E+00
  0.00000000E+00  0.00000000E+00  0.00000000E+00
  0.00000000E+00  0.00000000E+00  0.00000000E+00
  0.00000000E+00  0.00000000E+00  0.00000000E+00
  0.00000000E+00  0.00000000E+00  0.00000000E+00
  0.00000000E+00  0.00000000E+00  0.00000000E+00
  0.00000000E+00  0.00000000E+00  0.00000000E+00
  0.00000000E+00  0.00000000E+00  0.00000000E+00
  0.00000000E+00  0.00000000E+00  0.00000000E+00
  0.00000000E+00  0.00000000E+00  0.00000000E+00
  0.00000000E+00  0.00000000E+00  0.00000000E+00
  0.00000000E+00  0.00000000E+00  0.00000000E+00
  0.00000000E+00  0.00000000E+00  0.00000000E+00
  0.00000000E+00  0.00000000E+00  0.00000000E+00
  0.00000000E+00  0.00000000E+00  0.00000000E+00
  0.00000000E+00  0.00000000E+00  0.00000000E+00
  0.00000000E+00  0.00000000E+00  0.00000000E+00
