 Ni_O                                   
   1.00000000000000     
     9.8292000000000002    0.0000000000000000    0.0000000000000000
     4.9146000000000001    8.5123370000000005    0.0000000000000000
     0.0000000000000000    0.0000000000000000   33.0128020000000006
   Ni   O    H    C 
    64    35    63     2
Selective dynamics
Direct
  0.8161304600000000  0.5889720300000000  0.1200248400000000   F   F   F
  0.3267620200000000  0.0893950100000000  0.1211907300000000   F   F   F
  0.8281435400000000  0.0930463300000000  0.1197676300000000   F   F   F
  0.3295063100000000  0.5878229699999999  0.1215391800000000   F   F   F
  0.5760458100000000  0.8344788000000000  0.1202235300000000   F   F   F
  0.8191150400000000  0.8479825300000000  0.1227014700000000   F   F   F
  0.0724901800000000  0.3403221100000000  0.1244834100000000   F   F   F
  0.8360157000000000  0.3349392400000000  0.1203170300000000   F   F   F
  0.5719467400000000  0.5928171900000000  0.1215288300000000   F   F   F
  0.0639449900000000  0.5965508800000000  0.1207646700000000   F   F   F
  0.0879175800000000  0.0802031900000000  0.1190218400000000   F   F   F
  0.5738104600000000  0.0977474800000000  0.1218458600000000   F   F   F
  0.3280706100000000  0.8348992500000000  0.1225252200000000   F   F   F
  0.0801046300000000  0.8404303200000000  0.1228029800000000   F   F   F
  0.3222068800000000  0.3505104500000000  0.1209987600000000   F   F   F
  0.5919944600000000  0.3370575900000000  0.1200636500000000   F   F   F
  0.9020270757618998  0.6783111834024956  0.1799966126601426   T   T   T
  0.9121445179922827  0.4170828018923605  0.1814456731824646   T   T   T
  0.6619644864553582  0.6694942291512602  0.1863035098219566   T   T   T
  0.1710012712032585  0.1569027041262216  0.1840805646296932   T   T   T
  0.9172568336840004  0.1671009637669472  0.1825257263473600   T   T   T
  0.9021473889940054  0.9367983934279678  0.1844820524327373   T   T   T
  0.4063898586272888  0.9174430003869737  0.1833120508367049   T   T   T
  0.4127055594267077  0.1661942737265147  0.1849819848152720   T   T   T
  0.6597764136080159  0.1848663404405047  0.1828409537215318   T   T   T
  0.1568686100584243  0.6763192988759275  0.1822668579035460   T   T   T
  0.4157525164166648  0.6737601419820762  0.1835447983559354   T   T   T
  0.4113999099043534  0.4270717604863667  0.1854634740597722   T   T   T
  0.6609549553785785  0.9241462897700903  0.1842741132364551   T   T   T
  0.1622907810455360  0.4247322616244358  0.1829675789026929   T   T   T
  0.6682159342105712  0.4159865574603466  0.1888426320693780   T   T   T
  0.1608359189044068  0.9162724670884513  0.1829305779470808   T   T   T
 -0.0026249992826273  0.2563697324971659  0.2421765992915111   T   T   T
  0.4971759149861315  0.2541495143789736  0.2471508083725945   T   T   T
  1.0024476175025436  0.7536892299220929  0.2436640462720919   T   T   T
  0.4991211690923957  0.7544985287721796  0.2447069783155044   T   T   T
  0.7604109472802806  0.7513208421414695  0.2428646656585962   T   T   T
  0.9936378150758334  0.4997268739013266  0.2392157754740752   T   T   T
  0.7468375401190108  0.5017284914244984  0.2524235696713921   T   T   T
  0.2408294232120644  0.0085122822602588  0.2497500021668656   T   T   T
  0.0051009034376758  0.0055775271470445  0.2466216970789050   T   T   T
  0.5153358752101774 -0.0083259187255821  0.2491306500365366   T   T   T
  0.2385294913166891  0.7571746067255171  0.2451493967286317   T   T   T
  0.7536778331494426  1.0038741427333255  0.2479183082626568   T   T   T
  0.2457809828313738  0.2530965170018903  0.2456298867710430   T   T   T
  0.7459852427993913  0.2430178159787701  0.2482838337533654   T   T   T
  0.2327967185827174  0.5010843309940139  0.2440860431882096   T   T   T
  0.4928656492718875  0.5050687754548304  0.2488718595544825   T   T   T
  0.9970724600000000  0.2558556800000000  0.0591330300000000   F   F   F
  0.4999617900000000  0.2500875900000000  0.0594854500000000   F   F   F
  0.9968841700000000  0.7476992000000000  0.0595123700000000   F   F   F
  0.5054474500000000  0.7476859100000000  0.0599706800000000   F   F   F
  0.7507219900000000  0.7486395200000000  0.0599869200000000   F   F   F
  0.9979410800000000  0.5014025600000001  0.0599954500000000   F   F   F
  0.7507273000000000  0.5014379000000000  0.0601539400000000   F   F   F
  0.2484077800000000  0.9989653800000000  0.0601723600000000   F   F   F
  0.0026835400000000  0.9989392800000000  0.0602141100000000   F   F   F
  0.5037179000000001  0.9979203300000000  0.0602187800000000   F   F   F
  0.2483221600000000  0.7533767800000000  0.0603571800000000   F   F   F
  0.7484136200000000  0.9978805200000000  0.0603966000000000   F   F   F
  0.2473094800000000  0.2543786800000000  0.0604625600000000   F   F   F
  0.7483561600000000  0.2543461600000000  0.0604678400000000   F   F   F
  0.2472921900000000  0.4989472600000000  0.0606285500000000   F   F   F
  0.5037960400000000  0.4989156700000000  0.0606927000000000   F   F   F
  0.4142071343284943  0.9271146786274530  0.2824187529504628   T   T   T
  0.8467302310484341  0.0738875390602210  0.2868182968164381   T   T   T
  0.3062307857569751  0.5966131899826633  0.2800037821895224   T   T   T
  0.2639642184937612  0.6048517795244920  0.5762639327690787   T   T   T
  0.6135757553539506  0.2335720259856988  0.5037581763556866   T   T   T
  0.4675957756999314  0.9224088632129135  0.5016431261749079   T   T   T
  0.2732936665941226  1.0823111681377724  0.4378240744400320   T   T   T
 -0.1882969464861084  0.9554557117170780  0.4663111825488008   T   T   T
  0.2803686050056743  1.1830665769247113  0.5545152614203667   T   T   T
  0.9687001938698611  0.6602414222868724  0.3380091547432001   T   T   T
  0.2932609891222646  0.7571866695586301  0.3715373129730456   T   T   T
  0.5650546613946572  0.7664087198120327  0.3490698267208147   T   T   T
  1.0702616975074843 -0.0019509145958121  0.4689639798526596   T   T   T
  0.1956006324125246  0.6969597073993257  0.5010341178734763   T   T   T
  0.7852667572460269  0.9982496300301579  0.5900347113162211   T   T   T
  0.5120174288871677  0.6676045926915123  0.5545401559680726   T   T   T
  0.8914958630514911  0.9606067516359621  0.3505472738040445   T   T   T
  0.7800533611409320  0.7852823773491263  0.5267754750338671   T   T   T
  0.4492748087128204  0.5785600674936826  0.4319314645267123   T   T   T
  0.7608375312052296  0.5953972052319196  0.4357806516398561   T   T   T
  0.7579789622748113  0.4861713579700818  0.3113874411280820   T   T   T
  0.1621700661559008  0.3923782141868761  0.4439568071216776   T   T   T
  0.6290903525343093  0.9207889312361746  0.4078901727764196   T   T   T
  0.0856019099720015  0.8545210637352039  0.6218416938300809   T   T   T
 -0.0498280270084315  1.1481030675763708  0.5448264675587773   T   T   T
  0.4623397092391323  0.3009910174295454  0.4375009849709873   T   T   T
  0.1072315794993807  0.1015667609737966  0.3691716699537048   T   T   T
  0.7992809923026702  0.3530064732923426  0.3817653497960984   T   T   T
  0.4999775235669039  0.2655748138470950  0.5796849161430085   T   T   T
  0.0552013597102748  0.4755124602661068  0.5240809042784803   T   T   T
  0.2011147157096874  1.1043749346377729  0.6266517488287007   T   T   T
  0.7279535626829481  0.4365689451404975  0.5075431831079578   T   T   T
  0.6471586918038161  0.1974541684840442  0.3678182017330339   T   T   T
  0.2802787353849834  0.4099752010737230  0.3510620710727059   T   T   T
  0.4537022585548057  0.2668839321130128  0.3033360655811855   T   T   T
  0.1994191102702016  0.6951738384033675  0.5953660579835564   T   T   T
  0.2264990539222697  0.6537501580308303  0.5493161430163012   T   T   T
  0.5697530075126662  1.2584778866857549  0.5327083370435076   T   T   T
  0.6578517765319678  1.3011952596492011  0.4989734143162571   T   T   T
  0.4480534573763131  0.9368629998367500  0.4734158330150249   T   T   T
  0.5818197990268033  0.8820245192820076  0.5083076492087101   T   T   T
  0.2324336989674038  1.1975348112389319  0.4438009869282032   T   T   T
  0.2217467962349535  1.0900790205786766  0.4119593568634242   T   T   T
 -0.0982747877022664  0.9602074321868136  0.4561363563773678   T   T   T
 -0.2471830952892771  1.0538548212340726  0.4816961606379262   T   T   T
  0.1915909662141433  1.2727445643762729  0.5390454257429595   T   T   T
  0.3521929042837387  1.1097067663652622  0.5350099496378556   T   T   T
  0.0799960896736477  0.5685011065181305  0.3400382525664605   T   T   T
  0.8995095753778427  0.8557110007413893  0.3498857672949620   T   T   T
  0.2568431539661954  0.7073235773910708  0.3519776071186230   T   T   T
  0.3619911593065753  0.7879515072880513  0.3568924775654064   T   T   T
  0.5202028481366447  0.8229909756849300  0.3234397756809791   T   T   T
  0.6000033404602998  0.8274051621359358  0.3630520595330854   T   T   T
  1.1364104414530751  0.0455261470659729  0.4618371581998754   T   T   T
  1.0173400445882999  1.0541238838353844  0.4936570402227315   T   T   T
  0.1393123762430318  0.8090776954928601  0.4895618829583568   T   T   T
  0.2877834529143352  0.6437364460435897  0.4828756892014706   T   T   T
  0.6768602680039202  1.0812439527597344  0.5973958258406321   T   T   T
  0.7673237265495633  0.9328465620314208  0.5688664892211184   T   T   T
  0.4512093908058192  0.7669376403961841  0.5406404695707813   T   T   T
  0.4374241713694845  0.6283607004300404  0.5580255647722497   T   T   T
  0.7907449425287271  1.0405508780869026  0.3622909063201387   T   T   T
  0.8822947618059332  1.0094640009117635  0.3199765760838373   T   T   T
 -0.1546321640997617  0.6747332098562823  0.5312161429572988   T   T   T
 -0.1793779269704350  0.8149206403660365  0.5029641319559827   T   T   T
  0.5343867224539285  0.6003048300300534  0.4366015138356598   T   T   T
  0.3966752508855170  0.6280277905825709  0.4066131479281819   T   T   T
  0.7492666665149974  0.5514037519836973  0.4613850649926640   T   T   T
  0.7276088178979181  0.7093808530255131  0.4391196433135667   T   T   T
  0.7002957002577520  0.5808976885036594  0.3281537954930908   T   T   T
  0.7970144535203534  0.3937812130839731  0.3275864730228647   T   T   T
  0.0980113500978366  0.4331931808397179  0.4183785223497666   T   T   T
  0.2749372897780795  0.3701361773315583  0.4361541551792766   T   T   T
  0.6910298069260122  0.9562644611382560  0.4240342017762639   T   T   T
  0.5164100890756315  0.9962384175814141  0.4146917919799739   T   T   T
  0.1086603244479188  0.9314777925743366  0.6338548149121993   T   T   T
  0.9809566228470806  0.9170355237673629  0.6123619468325620   T   T   T
  0.0414362494501553  1.1122967621943489  0.5640574304230168   T   T   T
  0.8720569269106939  1.1295895496678410  0.5610393333755245   T   T   T
  0.5113865448681694  0.2638479714883826  0.4641503862861900   T   T   T
  0.4732986223167751  0.3972102344592391  0.4333449055698593   T   T   T
  0.1253972574383932 -0.0062779599093687  0.3742848958444742   T   T   T
  1.0020801483755915  0.1909344156556146  0.3771029161744594   T   T   T
  0.7146689390758021  0.3224784406554762  0.3816856867310842   T   T   T
  0.7562403992529699  0.4522540096324780  0.3963645730621242   T   T   T
  0.4151504442873321  0.2345316126487488  0.5741391493928891   T   T   T
  0.4386798027089425  0.3764160957598333  0.5883430139146967   T   T   T
  0.0972811224270079  0.5448556290039867  0.5323139491238109   T   T   T
  0.0722848845577529  0.4618844661802096  0.4938089496443294   T   T   T
  0.2465623262370287  1.1054987936405378  0.5999382584384981   T   T   T
  0.1257254725838541  1.2154902410109381  0.6305896909297625   T   T   T
  0.6441013431580033  0.5225418371129071  0.5231671437018498   T   T   T
  0.8047454094437873  0.3704328207045503  0.5285162023668187   T   T   T
  0.5847450845378060  0.2199864625330743  0.3911365819250299   T   T   T
  0.5711342546826776  0.2393926730848299  0.3452568951318328   T   T   T
  0.9129773674321611  0.6233346287788899  0.3211811849279028   T   T   T
  0.0871551287058055  0.3529530134995467  0.3150629998490828   T   T   T
  0.2317443964648054  0.1582431668772457  0.3150297882937407   T   T   T
  0.3132748444540254  0.3126981575872987  0.3222035980004745   T   T   T
  0.2067942062675667  0.2773534379966233  0.3068293362758310   T   T   T
 
  0.00000000E+00  0.00000000E+00  0.00000000E+00
  0.00000000E+00  0.00000000E+00  0.00000000E+00
  0.00000000E+00  0.00000000E+00  0.00000000E+00
  0.00000000E+00  0.00000000E+00  0.00000000E+00
  0.00000000E+00  0.00000000E+00  0.00000000E+00
  0.00000000E+00  0.00000000E+00  0.00000000E+00
  0.00000000E+00  0.00000000E+00  0.00000000E+00
  0.00000000E+00  0.00000000E+00  0.00000000E+00
  0.00000000E+00  0.00000000E+00  0.00000000E+00
  0.00000000E+00  0.00000000E+00  0.00000000E+00
  0.00000000E+00  0.00000000E+00  0.00000000E+00
  0.00000000E+00  0.00000000E+00  0.00000000E+00
  0.00000000E+00  0.00000000E+00  0.00000000E+00
  0.00000000E+00  0.00000000E+00  0.00000000E+00
  0.00000000E+00  0.00000000E+00  0.00000000E+00
  0.00000000E+00  0.00000000E+00  0.00000000E+00
  0.23016487E-02  0.26057956E-02  0.75186814E-03
  0.32054343E-02  0.69198510E-03 -0.22816068E-03
  0.32559961E-02 -0.89801726E-03 -0.10951941E-03
 -0.14827164E-02 -0.26719713E-02 -0.98024549E-03
  0.33091322E-02 -0.12311167E-02  0.29259010E-03
 -0.11775596E-02  0.17691696E-02  0.26440446E-02
 -0.28664184E-02 -0.16090294E-02  0.19751330E-02
 -0.23129637E-02  0.34303145E-02 -0.83538461E-03
 -0.48493038E-04  0.10494995E-02 -0.76466983E-03
 -0.20398034E-02  0.15589098E-02  0.49570614E-02
 -0.22378849E-03  0.97675643E-03 -0.59819803E-03
 -0.17541020E-02  0.44975740E-03 -0.25304480E-03
 -0.16451123E-02 -0.13602258E-02  0.25724261E-02
  0.13576963E-02 -0.36257223E-03  0.53892759E-03
 -0.94058451E-03 -0.17303404E-02 -0.20078215E-02
  0.15495851E-03  0.15292105E-02 -0.14190246E-02
  0.13245568E-02 -0.32972542E-03 -0.10828374E-02
  0.39208860E-02 -0.29620517E-03 -0.12501543E-03
  0.85661287E-03  0.37792336E-03 -0.14965280E-02
 -0.35455670E-03 -0.36308718E-02  0.28833026E-03
  0.22702538E-02  0.86024982E-03  0.13192143E-02
  0.10277703E-02  0.23125892E-03 -0.13478837E-02
  0.22935659E-02 -0.74540057E-03 -0.22340094E-02
  0.50075859E-03  0.47122660E-02 -0.14615697E-02
  0.47513859E-03 -0.17092877E-02  0.91521580E-03
  0.20498881E-02  0.24428035E-02 -0.14566004E-02
  0.77885520E-03 -0.47366623E-04 -0.22104998E-02
 -0.64359734E-03  0.23325608E-02  0.25402272E-02
 -0.14066369E-02  0.48409550E-02 -0.27212496E-02
 -0.21252710E-02  0.47977179E-02 -0.24909093E-02
  0.34965697E-02 -0.11190366E-02 -0.18259335E-02
  0.45893139E-03 -0.16449101E-02  0.75189810E-03
  0.00000000E+00  0.00000000E+00  0.00000000E+00
  0.00000000E+00  0.00000000E+00  0.00000000E+00
  0.00000000E+00  0.00000000E+00  0.00000000E+00
  0.00000000E+00  0.00000000E+00  0.00000000E+00
  0.00000000E+00  0.00000000E+00  0.00000000E+00
  0.00000000E+00  0.00000000E+00  0.00000000E+00
  0.00000000E+00  0.00000000E+00  0.00000000E+00
  0.00000000E+00  0.00000000E+00  0.00000000E+00
  0.00000000E+00  0.00000000E+00  0.00000000E+00
  0.00000000E+00  0.00000000E+00  0.00000000E+00
  0.00000000E+00  0.00000000E+00  0.00000000E+00
  0.00000000E+00  0.00000000E+00  0.00000000E+00
  0.00000000E+00  0.00000000E+00  0.00000000E+00
  0.00000000E+00  0.00000000E+00  0.00000000E+00
  0.00000000E+00  0.00000000E+00  0.00000000E+00
  0.00000000E+00  0.00000000E+00  0.00000000E+00
 -0.92611623E-02 -0.42014197E-03  0.35168631E-03
  0.95124399E-03 -0.24097224E-02  0.32016014E-02
  0.11976990E-02 -0.14975627E-02  0.14634329E-02
  0.25297045E-02 -0.21194411E-02 -0.44124814E-03
 -0.47154403E-02 -0.19430395E-02 -0.38421459E-02
  0.25091187E-03  0.57570067E-03 -0.29621131E-03
  0.40566784E-02  0.46318494E-02 -0.33085096E-02
 -0.46121820E-02  0.52522183E-02  0.11391719E-02
 -0.24899169E-02  0.22830553E-02 -0.27812385E-02
  0.83930577E-03  0.12442978E-02  0.65345546E-02
  0.19493181E-02 -0.36148924E-02  0.81176485E-03
  0.42232561E-02  0.19248235E-02 -0.31560013E-03
 -0.19500460E-03 -0.16652759E-02 -0.13820009E-02
  0.49319921E-02  0.10087136E-02 -0.52868633E-03
  0.33671050E-02  0.41394369E-02 -0.66502754E-02
  0.18407875E-02  0.37508029E-02 -0.29869364E-02
 -0.20649032E-02 -0.38103494E-02  0.30378762E-03
 -0.26087481E-02  0.67858207E-02  0.45211917E-04
 -0.70826815E-03 -0.18840296E-02 -0.11853091E-02
 -0.27106996E-02  0.26570761E-02  0.54237256E-02
 -0.33764541E-02  0.16080001E-02  0.50557950E-02
  0.19050941E-02 -0.11659530E-02  0.48752602E-02
  0.33111509E-02 -0.75608585E-03  0.57469663E-02
  0.59807307E-02 -0.29209013E-02 -0.51930273E-02
  0.28966496E-02  0.17041091E-02  0.86455657E-02
 -0.37741784E-02 -0.58910891E-02 -0.41168831E-02
 -0.29081020E-02  0.38858465E-02 -0.52763447E-02
 -0.14326078E-02  0.54636399E-02 -0.48357825E-03
 -0.44694320E-02  0.37908777E-02 -0.20218505E-02
 -0.65004221E-03 -0.15425298E-03 -0.79717430E-02
  0.18533804E-02  0.42053427E-02  0.41236191E-02
  0.54992509E-02  0.47830392E-02  0.65379270E-02
  0.30894841E-02 -0.34973769E-02 -0.23578925E-02
 -0.42960684E-02 -0.29182906E-02  0.37146345E-02
 -0.81044327E-03  0.59885939E-02 -0.65982970E-03
  0.19734363E-01 -0.12236413E-01 -0.10068916E-01
  0.24734954E-02 -0.18917793E-01  0.96202116E-02
  0.48519747E-02 -0.38559763E-01  0.10403027E-01
  0.73332816E-02 -0.10190150E-01 -0.97101231E-02
  0.15185507E-02  0.34883358E-01 -0.26685428E-01
  0.13408209E-01  0.81546054E-02 -0.20753761E-01
 -0.17327188E-01 -0.30256493E-02  0.16425670E-01
  0.23321418E-03 -0.24546491E-01 -0.16032811E-01
  0.19187750E-01  0.13079850E-01 -0.55915557E-02
  0.42844095E-02  0.24754554E-01  0.34555356E-02
  0.52437870E-02 -0.11987070E-03 -0.65893531E-03
  0.18963979E-01 -0.27726905E-02  0.19959490E-01
  0.24367174E-02 -0.15028774E-01 -0.69912111E-02
 -0.16421393E-02 -0.78346161E-02  0.49962720E-02
 -0.94372414E-02  0.34607778E-01 -0.53996612E-02
 -0.31634052E-01  0.26535539E-01  0.10294651E-01
 -0.12274515E-03  0.34560822E-01 -0.35054025E-03
  0.19341939E-01 -0.18754644E-02 -0.11534862E-01
 -0.29759842E-01 -0.81501622E-02  0.36545828E-02
 -0.32409157E-02 -0.22420837E-01  0.56724067E-02
  0.12022937E-01 -0.14886706E-02 -0.90519331E-02
 -0.17120153E-01 -0.67683790E-02 -0.16589134E-01
 -0.11678453E-01 -0.89733650E-04  0.44310661E-02
  0.15618485E-02  0.40141473E-01  0.19889772E-01
  0.18310006E-01  0.88675636E-02  0.92588695E-02
 -0.10019055E-01  0.16219546E-01 -0.11210396E-01
 -0.15797940E-01  0.31352361E-02  0.25381875E-02
 -0.20496968E-03 -0.39304718E-01  0.26193513E-02
  0.84450344E-02 -0.12396586E-01  0.18136240E-01
 -0.48976946E-03  0.11147901E-01 -0.13600938E-01
  0.73203978E-02 -0.14745263E-01 -0.11464912E-01
 -0.39615084E-02 -0.83893738E-03 -0.27579468E-01
  0.34597856E-02 -0.82394492E-02  0.46694242E-01
 -0.33809559E-02 -0.27150348E-01  0.17343937E-01
 -0.10411849E-01 -0.65267964E-02  0.26615064E-01
  0.15895052E-01 -0.15994104E-01 -0.54108720E-02
  0.39778602E-01 -0.12442657E-01 -0.13174410E-01
 -0.15706640E-02  0.76079089E-02 -0.17284438E-01
 -0.12249337E-01 -0.11324108E-02  0.13494579E-02
  0.49001296E-02  0.47838726E-02 -0.15137350E-01
  0.15249442E-02  0.15108904E-01 -0.16906545E-01
 -0.41941877E-02  0.18845014E-02 -0.12075850E-01
  0.39782783E-02 -0.83424900E-02  0.25528830E-01
  0.26261343E-01  0.19405961E-01  0.35153103E-01
 -0.75137578E-02  0.21679833E-01  0.51018534E-02
 -0.36364622E-02  0.11765659E-01 -0.10001693E-01
 -0.16123198E-01 -0.17017958E-01 -0.85849300E-02
  0.17393197E-01 -0.17326756E-01 -0.29771796E-01
 -0.76624681E-02 -0.81308470E-02 -0.13726203E-01
 -0.19339937E-01 -0.21588908E-01  0.13083058E-01
 -0.79983041E-03  0.33199227E-01  0.17101900E-01
  0.91180655E-02  0.92395811E-02 -0.23295906E-01
  0.57438119E-02  0.12281485E-02 -0.13629644E-01
 -0.63566595E-02 -0.12988506E-01  0.96757700E-02
 -0.12829763E-01  0.46825829E-02 -0.23996435E-01
  0.73795409E-02  0.21858149E-01 -0.96908579E-02
 -0.69497945E-02 -0.20438615E-01  0.40024904E-02
 -0.38577416E-02 -0.10737899E-02 -0.11705381E-01
 -0.25997072E-01 -0.43310113E-02  0.27527258E-01
 -0.14955535E-01  0.16128180E-02  0.17165508E-02
  0.44248457E-02  0.87239569E-03 -0.24975446E-01
 -0.97571459E-03 -0.15264838E-01 -0.32929914E-02
 -0.26301378E-01  0.34387296E-01  0.54052780E-02
  0.47288114E-02 -0.56114379E-02  0.24943446E-02
  0.46535577E-02 -0.53188997E-02  0.46427213E-02
 
           1
   1.00000000000000     
  0.10824183E+00  0.66357120E-02  0.73004160E-02  0.10127377E+00
  0.81613046E+00  0.58897203E+00  0.12002484E+00
  0.32676202E+00  0.89395010E-01  0.12119073E+00
  0.82814354E+00  0.93046330E-01  0.11976763E+00
  0.32950631E+00  0.58782297E+00  0.12153918E+00
  0.57604581E+00  0.83447880E+00  0.12022353E+00
  0.81911504E+00  0.84798253E+00  0.12270147E+00
  0.72490180E-01  0.34032211E+00  0.12448341E+00
  0.83601570E+00  0.33493924E+00  0.12031703E+00
  0.57194674E+00  0.59281719E+00  0.12152883E+00
  0.63944990E-01  0.59655088E+00  0.12076467E+00
  0.87917580E-01  0.80203190E-01  0.11902184E+00
  0.57381046E+00  0.97747480E-01  0.12184586E+00
  0.32807061E+00  0.83489925E+00  0.12252522E+00
  0.80104630E-01  0.84043032E+00  0.12280298E+00
  0.32220688E+00  0.35051045E+00  0.12099876E+00
  0.59199446E+00  0.33705759E+00  0.12006365E+00
  0.90210818E+00  0.67861730E+00  0.18001939E+00
  0.91242999E+00  0.41716409E+00  0.18143876E+00
  0.66234849E+00  0.66938873E+00  0.18630019E+00
  0.17100737E+00  0.15658881E+00  0.18405087E+00
  0.91766581E+00  0.16695634E+00  0.18253459E+00
  0.90192367E+00  0.93700623E+00  0.18456214E+00
  0.40619275E+00  0.91725398E+00  0.18337188E+00
  0.41226875E+00  0.16659726E+00  0.18495668E+00
  0.65970983E+00  0.18498963E+00  0.18281779E+00
  0.15656952E+00  0.67650243E+00  0.18241701E+00
  0.41567238E+00  0.67387489E+00  0.18352668E+00
  0.41119503E+00  0.42712460E+00  0.18545581E+00
  0.66086748E+00  0.92398650E+00  0.18435204E+00
  0.16245021E+00  0.42468967E+00  0.18298390E+00
  0.66822188E+00  0.41578328E+00  0.18878181E+00
  0.16076186E+00  0.91645211E+00  0.18288759E+00
  0.99752913E+00  0.25633100E+00  0.24214380E+00
  0.49759222E+00  0.25411472E+00  0.24714702E+00
  0.25125687E-02  0.75373363E+00  0.24361871E+00
  0.49929837E+00  0.75407199E+00  0.24471571E+00
  0.76059139E+00  0.75142190E+00  0.24290463E+00
  0.99372879E+00  0.49975404E+00  0.23917495E+00
  0.74711467E+00  0.50164092E+00  0.25235590E+00
  0.24060358E+00  0.90658630E-02  0.24970573E+00
  0.52496436E-02  0.53767259E-02  0.24664942E+00
  0.51540094E+00  0.99196105E+00  0.24908653E+00
  0.23861151E+00  0.75716904E+00  0.24508244E+00
  0.75347534E+00  0.41481639E-02  0.24799525E+00
  0.24535353E+00  0.25366522E+00  0.24554746E+00
  0.74548721E+00  0.24358144E+00  0.24820838E+00
  0.23321818E+00  0.50095287E+00  0.24403073E+00
  0.49300896E+00  0.50487554E+00  0.24889464E+00
  0.99707246E+00  0.25585568E+00  0.59133030E-01
  0.49996179E+00  0.25008759E+00  0.59485450E-01
  0.99688417E+00  0.74769920E+00  0.59512370E-01
  0.50544745E+00  0.74768591E+00  0.59970680E-01
  0.75072199E+00  0.74863952E+00  0.59986920E-01
  0.99794108E+00  0.50140256E+00  0.59995450E-01
  0.75072730E+00  0.50143790E+00  0.60153940E-01
  0.24840778E+00  0.99896538E+00  0.60172360E-01
  0.26835400E-02  0.99893928E+00  0.60214110E-01
  0.50371790E+00  0.99792033E+00  0.60218780E-01
  0.24832216E+00  0.75337678E+00  0.60357180E-01
  0.74841362E+00  0.99788052E+00  0.60396600E-01
  0.24730948E+00  0.25437868E+00  0.60462560E-01
  0.74835616E+00  0.25434616E+00  0.60467840E-01
  0.24729219E+00  0.49894726E+00  0.60628550E-01
  0.50379604E+00  0.49891567E+00  0.60692700E-01
  0.41328960E+00  0.92706532E+00  0.28242941E+00
  0.84696855E+00  0.73604453E-01  0.28691528E+00
  0.30644060E+00  0.59643726E+00  0.28004811E+00
  0.26434608E+00  0.60460279E+00  0.57625057E+00
  0.61321015E+00  0.23334376E+00  0.50364179E+00
  0.46758749E+00  0.92247649E+00  0.50163415E+00
  0.27343432E+00  0.82855302E-01  0.43772386E+00
  0.81092531E+00  0.95607272E+00  0.46634569E+00
  0.27998118E+00  0.18333478E+00  0.55443101E+00
  0.96871249E+00  0.66038760E+00  0.33820709E+00
  0.29367164E+00  0.75676200E+00  0.37156190E+00
  0.56537126E+00  0.76663484E+00  0.34906027E+00
  0.70339674E-01  0.99785345E+00  0.46892212E+00
  0.19604315E+00  0.69707821E+00  0.50101810E+00
  0.78536618E+00  0.99873592E+00  0.58983327E+00
  0.51198439E+00  0.66804522E+00  0.55444968E+00
  0.89150960E+00  0.96015912E+00  0.35055648E+00
  0.77938937E+00  0.78607955E+00  0.52677684E+00
  0.44931342E+00  0.57833874E+00  0.43189556E+00
  0.76040568E+00  0.59570935E+00  0.43594494E+00
  0.75754100E+00  0.48636026E+00  0.31154059E+00
  0.16243237E+00  0.39224124E+00  0.44410448E+00
  0.62947163E+00  0.92070011E+00  0.40806426E+00
  0.86381944E-01  0.85417793E+00  0.62168439E+00
  0.95036657E+00  0.14830326E+00  0.54508835E+00
  0.46230177E+00  0.30029895E+00  0.43737628E+00
  0.10670747E+00  0.10202326E+00  0.36901184E+00
  0.79881432E+00  0.35364832E+00  0.38175070E+00
  0.49930014E+00  0.26602015E+00  0.57962367E+00
  0.55144286E-01  0.47549434E+00  0.52383943E+00
  0.20105626E+00  0.10486896E+00  0.62677666E+00
  0.72823210E+00  0.43713084E+00  0.50774123E+00
  0.64767844E+00  0.19704331E+00  0.36774678E+00
  0.28001308E+00  0.40963237E+00  0.35117459E+00
  0.45326805E+00  0.26758745E+00  0.30331608E+00
  0.20214558E+00  0.69373635E+00  0.59506106E+00
  0.22786190E+00  0.65152776E+00  0.54960755E+00
  0.57251157E+00  0.25394802E+00  0.53302346E+00
  0.65919640E+00  0.29999816E+00  0.49867928E+00
  0.44615896E+00  0.94096098E+00  0.47260750E+00
  0.58270493E+00  0.88298249E+00  0.50767899E+00
  0.23084859E+00  0.19717937E+00  0.44429854E+00
  0.22321234E+00  0.87195383E-01  0.41147370E+00
  0.90290904E+00  0.96174401E+00  0.45596698E+00
  0.75179875E+00  0.56762901E-01  0.48180083E+00
  0.19213150E+00  0.27273048E+00  0.53902547E+00
  0.35428512E+00  0.10938104E+00  0.53561455E+00
  0.81126760E-01  0.56673558E+00  0.33982648E+00
  0.89980270E+00  0.85479062E+00  0.35003711E+00
  0.25385023E+00  0.71138918E+00  0.35181404E+00
  0.35721413E+00  0.79106881E+00  0.35720432E+00
  0.51816032E+00  0.82705106E+00  0.32342916E+00
  0.60208131E+00  0.82718484E+00  0.36270265E+00
  0.13386147E+00  0.44568694E-01  0.46194786E+00
  0.18327283E-01  0.51489961E-01  0.49382886E+00
  0.14062300E+00  0.80890281E+00  0.48928769E+00
  0.28643925E+00  0.64294132E+00  0.48237318E+00
  0.67567740E+00  0.81233411E-01  0.59753005E+00
  0.76512478E+00  0.93756224E+00  0.56946898E+00
  0.45255134E+00  0.76797937E+00  0.54092093E+00
  0.43545215E+00  0.63026612E+00  0.55768599E+00
  0.78895354E+00  0.40919195E-01  0.36236779E+00
  0.88458260E+00  0.48466181E-02  0.32005592E+00
  0.84695517E+00  0.67327690E+00  0.53176551E+00
  0.81991744E+00  0.81623026E+00  0.50255214E+00
  0.53599759E+00  0.59857261E+00  0.43625423E+00
  0.39632149E+00  0.62792924E+00  0.40577773E+00
  0.75010263E+00  0.55043581E+00  0.46279949E+00
  0.72885961E+00  0.70619132E+00  0.43964501E+00
  0.69961980E+00  0.58013094E+00  0.32896000E+00
  0.79957105E+00  0.39190228E+00  0.32742257E+00
  0.10278919E+00  0.43173146E+00  0.41797945E+00
  0.27433062E+00  0.37102993E+00  0.43563059E+00
  0.68985010E+00  0.95613143E+00  0.42407508E+00
  0.51662762E+00  0.99680041E+00  0.41423326E+00
  0.10792800E+00  0.93325273E+00  0.63334269E+00
  0.98041922E+00  0.91725691E+00  0.61199615E+00
  0.42331014E-01  0.11131672E+00  0.56483073E+00
  0.87358882E+00  0.13186930E+00  0.56210417E+00
  0.50934868E+00  0.26639484E+00  0.46430493E+00
  0.47223756E+00  0.39859242E+00  0.43304194E+00
  0.12475653E+00  0.99172283E+00  0.37402485E+00
  0.48674356E-02  0.18889893E+00  0.37620109E+00
  0.71436697E+00  0.32152326E+00  0.38126990E+00
  0.75554089E+00  0.44971782E+00  0.39676088E+00
  0.41311901E+00  0.23843174E+00  0.57465719E+00
  0.43906474E+00  0.37750153E+00  0.58763735E+00
  0.97793345E-01  0.54499991E+00  0.53190109E+00
  0.72401095E-01  0.46035862E+00  0.49410204E+00
  0.24498201E+00  0.10604889E+00  0.59921138E+00
  0.12519234E+00  0.21805806E+00  0.63029614E+00
  0.64459482E+00  0.52014078E+00  0.52328838E+00
  0.80441600E+00  0.37030668E+00  0.52816163E+00
  0.58235460E+00  0.21947767E+00  0.39197042E+00
  0.56951798E+00  0.23958214E+00  0.34530889E+00
  0.91337630E+00  0.62343711E+00  0.32042465E+00
  0.87952492E-01  0.35115975E+00  0.31496325E+00
  0.22704870E+00  0.16228287E+00  0.31519352E+00
  0.31408555E+00  0.31203895E+00  0.32227915E+00
  0.20758007E+00  0.27672859E+00  0.30696997E+00
  0.00000000E+00  0.00000000E+00  0.00000000E+00
  0.00000000E+00  0.00000000E+00  0.00000000E+00
  0.00000000E+00  0.00000000E+00  0.00000000E+00
  0.00000000E+00  0.00000000E+00  0.00000000E+00
  0.00000000E+00  0.00000000E+00  0.00000000E+00
  0.00000000E+00  0.00000000E+00  0.00000000E+00
  0.00000000E+00  0.00000000E+00  0.00000000E+00
  0.00000000E+00  0.00000000E+00  0.00000000E+00
  0.00000000E+00  0.00000000E+00  0.00000000E+00
  0.00000000E+00  0.00000000E+00  0.00000000E+00
  0.00000000E+00  0.00000000E+00  0.00000000E+00
  0.00000000E+00  0.00000000E+00  0.00000000E+00
  0.00000000E+00  0.00000000E+00  0.00000000E+00
  0.00000000E+00  0.00000000E+00  0.00000000E+00
  0.00000000E+00  0.00000000E+00  0.00000000E+00
  0.00000000E+00  0.00000000E+00  0.00000000E+00
  0.00000000E+00  0.00000000E+00  0.00000000E+00
  0.00000000E+00  0.00000000E+00  0.00000000E+00
  0.00000000E+00  0.00000000E+00  0.00000000E+00
  0.00000000E+00  0.00000000E+00  0.00000000E+00
  0.00000000E+00  0.00000000E+00  0.00000000E+00
  0.00000000E+00  0.00000000E+00  0.00000000E+00
  0.00000000E+00  0.00000000E+00  0.00000000E+00
  0.00000000E+00  0.00000000E+00  0.00000000E+00
  0.00000000E+00  0.00000000E+00  0.00000000E+00
  0.00000000E+00  0.00000000E+00  0.00000000E+00
  0.00000000E+00  0.00000000E+00  0.00000000E+00
  0.00000000E+00  0.00000000E+00  0.00000000E+00
  0.00000000E+00  0.00000000E+00  0.00000000E+00
  0.00000000E+00  0.00000000E+00  0.00000000E+00