 Ni\(1\1\1)                             
   1.00000000000000     
     9.8291997910000006    0.0000000000000000    0.0000000000000000
     4.9145998955000003    8.5123367178000002    0.0000000000000000
     0.0000000000000000    0.0000000000000000   19.0128002167000005
   Ni   O    C    O    H    C    O    H 
    64     3     1     2     1     1     1     1
Selective dynamics
Direct
  0.8328408903686413  0.5851687152691887  0.2713211534895036   T   T   T
  0.3338382691845076  0.0847648654759430  0.2702797594085780   T   T   T
  0.8323611961461267  0.0854352443201438  0.2707492325538809   T   T   T
  0.3337988457281587  0.5844575922973514  0.2709429980456244   T   T   T
  0.5834169643895418  0.8350084978624218  0.2713133298315856   T   T   T
  0.8323791675657241  0.8352864080322520  0.2706992133688122   T   T   T
  0.0832029375304134  0.3349587296607533  0.2707874733138935   T   T   T
  0.8324639488057397  0.3348689513420671  0.2706733815219226   T   T   T
  0.5838041929230768  0.5840484321849874  0.2716279740173072   T   T   T
  0.0828005148191904  0.5848051234584998  0.2708445165639312   T   T   T
  0.0825802373854034  0.0857227880472748  0.2698935701076626   T   T   T
  0.5832809175735737  0.0847063347633915  0.2719719530088640   T   T   T
  0.3341940770440249  0.8344328191526367  0.2703331109290786   T   T   T
  0.0829023604153788  0.8350209394244597  0.2702981641286116   T   T   T
  0.3341795242887040  0.3343100716200916  0.2714810842489422   T   T   T
  0.5830129125284857  0.3345266260652650  0.2730948961959576   T   T   T
  0.9160625262363417  0.6683397780164044  0.3759655514766955   T   T   T
  0.9167529111824718  0.4184566209791645  0.3749423614383572   T   T   T
  0.6669939534532172  0.6686484979458699  0.3761754623588151   T   T   T
  0.1669143680234799  0.1682518494339248  0.3751442771998668   T   T   T
  0.9156128638954882  0.1686820241606223  0.3759610407089108   T   T   T
  0.9162754013807760  0.9188854475626960  0.3750333205022413   T   T   T
  0.4163662784357790  0.9188596949738885  0.3757475154868283   T   T   T
  0.4173527612144738  0.1687359800256936  0.3773936330495850   T   T   T
  0.6669512575561791  0.1676373364306532  0.3782177240425848   T   T   T
  0.1667643378979374  0.6685196495671772  0.3749348587515471   T   T   T
  0.4170161255108853  0.6674091961417742  0.3762572612605162   T   T   T
  0.4158926900994744  0.4187130775003674  0.3781365646340334   T   T   T
  0.6669100151204470  0.9171176743216046  0.3790336994256247   T   T   T
  0.1660373091788369  0.4186161739886974  0.3774671652184796   T   T   T
  0.6655874020651367  0.4168992111750011  0.3796592771327749   T   T   T
  0.1670373231206084  0.9191096334521894  0.3765558315100641   T   T   T
 -0.0025836029999303  0.2553649257994967  0.4788365126377345   T   T   T
  0.4981346026163269  0.2502331289357635  0.4850259151555363   T   T   T
 -0.0012907195106907  0.7506364554370488  0.4782002862584943   T   T   T
  0.5036156358021603  0.7489337942101383  0.4793516844169982   T   T   T
  0.7481237723317252  0.7528664824504165  0.4866845699077698   T   T   T
 -0.0010398105631785  0.5009543092793524  0.4848059483886712   T   T   T
  0.7523074678674904  0.5008868228905051  0.4796583062140024   T   T   T
  0.2480437995678225  0.0009649738529085  0.4847321312409439   T   T   T
  0.0054821104563941 -0.0001315018129447  0.4829714391992280   T   T   T
  0.5016350748428627 -0.0006670389919282  0.4858236862718217   T   T   T
  0.2480691545799244  0.7573441294137505  0.4829295946146305   T   T   T
  0.7508968031071545  0.9972505459058838  0.4845874243873627   T   T   T
  0.2466216621956515  0.2554865021497081  0.4842965454891475   T   T   T
  0.7494423273603419  0.2559320280409610  0.4935044197184804   T   T   T
  0.2443179193256664  0.5028509356959854  0.4841733248578845   T   T   T
  0.5049077580850004  0.5009525984868507  0.4930991421746697   T   T   T
  0.9970724670000024  0.2558556729999992  0.1637003960000030   F   F   F
  0.4999617989999976  0.2500875830000027  0.1643123180000003   F   F   F
  0.9968841629999972  0.7476992069999966  0.1643590660000029   F   F   F
  0.5054474789999972  0.7476858750000019  0.1651548480000002   F   F   F
  0.7507219769999978  0.7486395119999969  0.1651830500000031   F   F   F
  0.9979410790000003  0.5014025589999989  0.1651978470000017   F   F   F
  0.7507272960000009  0.5014379059999996  0.1654730480000026   F   F   F
  0.2484077359999972  0.9989653640000000  0.1655050250000016   F   F   F
  0.0026835399999996  0.9989392600000002  0.1655775309999967   F   F   F
  0.5037179199999997  0.9979203070000011  0.1655856309999990   F   F   F
  0.2483221529999966  0.7533767729999994  0.1658259459999982   F   F   F
  0.7484137009999969  0.9978805350000002  0.1658943890000018   F   F   F
  0.2473094730000014  0.2543786680000011  0.1660089160000027   F   F   F
  0.7483561820000020  0.2543461500000035  0.1660180820000008   F   F   F
  0.2472921950000000  0.4989472700000022  0.1662971330000005   F   F   F
  0.5037960519999984  0.4989156760000029  0.1664085250000014   F   F   F
  0.3302737701455106  0.0873825172824211  0.5451657420803921   T   T   T
  0.8461778965452235  0.0685956401712945  0.5454194341056122   T   T   T
  0.3173297739869303  0.5969556510628610  0.5449128438874812   T   T   T
  0.9249993644540051  0.5517347041033845  0.5766089481243063   T   T   T
  0.8024069345029020  0.6813787084173685  0.5887607724737406   T   T   T
  0.9987503275409219  0.4604966434383691  0.6320597673194163   T   T   T
  0.0926728251524664  0.3656650546619917  0.6147248376208906   T   T   T
  0.5999426487546943  0.3520131841837506  0.5722208779931806   T   T   T
  0.5274815012845078  0.2800566461709959  0.5873299499174116   T   T   T
  0.6432484444690297  0.3958793039185551  0.6155900945659369   T   T   T
 
  0.00000000E+00  0.00000000E+00  0.00000000E+00
  0.00000000E+00  0.00000000E+00  0.00000000E+00
  0.00000000E+00  0.00000000E+00  0.00000000E+00
  0.00000000E+00  0.00000000E+00  0.00000000E+00
  0.00000000E+00  0.00000000E+00  0.00000000E+00
  0.00000000E+00  0.00000000E+00  0.00000000E+00
  0.00000000E+00  0.00000000E+00  0.00000000E+00
  0.00000000E+00  0.00000000E+00  0.00000000E+00
  0.00000000E+00  0.00000000E+00  0.00000000E+00
  0.00000000E+00  0.00000000E+00  0.00000000E+00
  0.00000000E+00  0.00000000E+00  0.00000000E+00
  0.00000000E+00  0.00000000E+00  0.00000000E+00
  0.00000000E+00  0.00000000E+00  0.00000000E+00
  0.00000000E+00  0.00000000E+00  0.00000000E+00
  0.00000000E+00  0.00000000E+00  0.00000000E+00
  0.00000000E+00  0.00000000E+00  0.00000000E+00
  0.00000000E+00  0.00000000E+00  0.00000000E+00
  0.00000000E+00  0.00000000E+00  0.00000000E+00
  0.00000000E+00  0.00000000E+00  0.00000000E+00
  0.00000000E+00  0.00000000E+00  0.00000000E+00
  0.00000000E+00  0.00000000E+00  0.00000000E+00
  0.00000000E+00  0.00000000E+00  0.00000000E+00
  0.00000000E+00  0.00000000E+00  0.00000000E+00
  0.00000000E+00  0.00000000E+00  0.00000000E+00
  0.00000000E+00  0.00000000E+00  0.00000000E+00
  0.00000000E+00  0.00000000E+00  0.00000000E+00
  0.00000000E+00  0.00000000E+00  0.00000000E+00
  0.00000000E+00  0.00000000E+00  0.00000000E+00
  0.00000000E+00  0.00000000E+00  0.00000000E+00
  0.00000000E+00  0.00000000E+00  0.00000000E+00
  0.00000000E+00  0.00000000E+00  0.00000000E+00
  0.00000000E+00  0.00000000E+00  0.00000000E+00
  0.00000000E+00  0.00000000E+00  0.00000000E+00
  0.00000000E+00  0.00000000E+00  0.00000000E+00
  0.00000000E+00  0.00000000E+00  0.00000000E+00
  0.00000000E+00  0.00000000E+00  0.00000000E+00
  0.00000000E+00  0.00000000E+00  0.00000000E+00
  0.00000000E+00  0.00000000E+00  0.00000000E+00
  0.00000000E+00  0.00000000E+00  0.00000000E+00
  0.00000000E+00  0.00000000E+00  0.00000000E+00
  0.00000000E+00  0.00000000E+00  0.00000000E+00
  0.00000000E+00  0.00000000E+00  0.00000000E+00
  0.00000000E+00  0.00000000E+00  0.00000000E+00
  0.00000000E+00  0.00000000E+00  0.00000000E+00
  0.00000000E+00  0.00000000E+00  0.00000000E+00
  0.00000000E+00  0.00000000E+00  0.00000000E+00
  0.00000000E+00  0.00000000E+00  0.00000000E+00
  0.00000000E+00  0.00000000E+00  0.00000000E+00
  0.00000000E+00  0.00000000E+00  0.00000000E+00
  0.00000000E+00  0.00000000E+00  0.00000000E+00
  0.00000000E+00  0.00000000E+00  0.00000000E+00
  0.00000000E+00  0.00000000E+00  0.00000000E+00
  0.00000000E+00  0.00000000E+00  0.00000000E+00
  0.00000000E+00  0.00000000E+00  0.00000000E+00
  0.00000000E+00  0.00000000E+00  0.00000000E+00
  0.00000000E+00  0.00000000E+00  0.00000000E+00
  0.00000000E+00  0.00000000E+00  0.00000000E+00
  0.00000000E+00  0.00000000E+00  0.00000000E+00
  0.00000000E+00  0.00000000E+00  0.00000000E+00
  0.00000000E+00  0.00000000E+00  0.00000000E+00
  0.00000000E+00  0.00000000E+00  0.00000000E+00
  0.00000000E+00  0.00000000E+00  0.00000000E+00
  0.00000000E+00  0.00000000E+00  0.00000000E+00
  0.00000000E+00  0.00000000E+00  0.00000000E+00
  0.00000000E+00  0.00000000E+00  0.00000000E+00
  0.00000000E+00  0.00000000E+00  0.00000000E+00
  0.00000000E+00  0.00000000E+00  0.00000000E+00
  0.00000000E+00  0.00000000E+00  0.00000000E+00
  0.00000000E+00  0.00000000E+00  0.00000000E+00
  0.00000000E+00  0.00000000E+00  0.00000000E+00
  0.00000000E+00  0.00000000E+00  0.00000000E+00
  0.00000000E+00  0.00000000E+00  0.00000000E+00
  0.00000000E+00  0.00000000E+00  0.00000000E+00
  0.00000000E+00  0.00000000E+00  0.00000000E+00
