 Ni\(1\1\1)                             
   1.00000000000000     
     9.8291997910000006    0.0000000000000000    0.0000000000000000
     4.9145998955000003    8.5123367178000002    0.0000000000000000
     0.0000000000000000    0.0000000000000000   19.0128002167000005
   Ni   O    C    H 
    64     3     2     1
Direct
  0.8357334407763711  0.5849308666842271  0.2691883895394988
  0.3351798910785240  0.0855583906401872  0.2696404153243952
  0.8353584740494204  0.0856022778411406  0.2696775509714572
  0.3357365524860617  0.5849513588976545  0.2693490678460174
  0.5851308540801511  0.8354162886012398  0.2693552328329342
  0.8351799646069389  0.8356313069562092  0.2686974970856819
  0.0859174885801557  0.3347463963720862  0.2700167465423841
  0.8359102776797673  0.3347210776832307  0.2697818242864427
  0.5853477215194950  0.5850348842922213  0.2691491746256899
  0.0854115126645338  0.5852217733753657  0.2693407279795863
  0.0854246091350071  0.0852881518290835  0.2697276810447524
  0.5849814601625268  0.0856682465957328  0.2698575165726796
  0.3353192406188658  0.8352198861004796  0.2690756485295943
  0.0853140750077683  0.8353195342703444  0.2693218863404491
  0.3356095342271707  0.3349918855959625  0.2694247123820190
  0.5853240060591586  0.3351259871301455  0.2700340704191600
  0.9190880994261785  0.6682355442317415  0.3745899840448910
  0.9192632481965398  0.4185680017085811  0.3753082054841309
  0.6687967033787443  0.6685871922629170  0.3738573595874616
  0.1669713640165445  0.1694999754774393  0.3757602221025823
  0.9188644804000501  0.1697107942111630  0.3765676433727415
  0.9185933334689932  0.9192250387473633  0.3742383026506361
  0.4183993470756892  0.9189702218763696  0.3742964486200456
  0.4190423532326428  0.1698262794458941  0.3759554765322832
  0.6684127885943850  0.1692980721185362  0.3754225230269309
  0.1693618715174547  0.6681307021483635  0.3742441782493617
  0.4195037657518935  0.6673123428045299  0.3749377195163545
  0.4192319133223583  0.4183802207033573  0.3755584558054378
  0.6687850979852682  0.9187816587487878  0.3741794034560316
  0.1683421314186719  0.4189681385142769  0.3748452186849839
  0.6688978562054873  0.4180946108920430  0.3745995999698281
  0.1688031518138265  0.9185021609228662  0.3744815341211425
  0.0015628066691856  0.2509006605658608  0.4863971582753241
  0.4992392227285583  0.2481291652114478  0.4856941225009204
  0.0026065472171177  0.7518911903997948  0.4799153618595615
  0.5016619357577596  0.7519716799187446  0.4801154858858177
  0.7517100464965463  0.7527581279550056  0.4795973720396501
  0.0019115952214803  0.5026478256690955  0.4851287820368700
  0.7503592866602821  0.5070260699419749  0.4781512918186595
  0.2534565636819572 -0.0008487558132251  0.4797142354292676
  0.0021414659592367  0.0008255733647342  0.4798216083951781
  0.5026984644622680 -0.0010405138490853  0.4798191702773348
  0.2535852107906243  0.7501943294415147  0.4801142343634435
  0.7546406719882427  0.9983909514741189  0.4791680533962513
  0.2530238225805294  0.2504810431705514  0.4789665891875058
  0.7494499204556103  0.2546108733479767  0.4835511796224684
  0.2498425231627732  0.5043476702584294  0.4792707976115924
  0.5056697970251529  0.5007920415708660  0.4852650616045668
  0.0018005894556504  0.2520297254280436  0.1642273910274437
  0.5021777501809259  0.2517756982865002  0.1641071431155658
  0.0021682280997548  0.7514580115957905  0.1633551293279900
  0.5020119546514651  0.7516019093190559  0.1634816191048953
  0.7521884339765006  0.7514769785625856  0.1634901064323451
  0.0021080112418994  0.5016547398341920  0.1638241080432282
  0.7519982879841260  0.5016354896238341  0.1635322227262828
  0.2517945262297254  0.0018336962795475  0.1638762603990695
  0.0016644480887377  0.0018376961691102  0.1640480154224966
  0.5021786675555976  0.0017016536891050  0.1641081052977558
  0.2520662533940505  0.7515008310936375  0.1635617586010830
  0.7515471689648289  0.0022880036374792  0.1636295921631615
  0.2519273347259398  0.2519047488992168  0.1641781187756959
  0.7520013676927123  0.2519554233810689  0.1643013303888337
  0.2520200905211639  0.5016423485769677  0.1635517738356271
  0.5020779322378165  0.5016705676715826  0.1637705125665208
  0.9931410488045643  0.5353111857866706  0.6250566473563047
  0.9894168751520368  0.3152545310634605  0.5854283314102742
  0.5337641424543663  0.2874284242130493  0.5831596563357594
  0.9934173129985541  0.4434647924436632  0.5821437902415720
  0.6108804058127214  0.3545388359465552  0.5631612866353288
  0.6634764703828979  0.3922233071915350  0.6052793549407626
 
  0.00000000E+00  0.00000000E+00  0.00000000E+00
  0.00000000E+00  0.00000000E+00  0.00000000E+00
  0.00000000E+00  0.00000000E+00  0.00000000E+00
  0.00000000E+00  0.00000000E+00  0.00000000E+00
  0.00000000E+00  0.00000000E+00  0.00000000E+00
  0.00000000E+00  0.00000000E+00  0.00000000E+00
  0.00000000E+00  0.00000000E+00  0.00000000E+00
  0.00000000E+00  0.00000000E+00  0.00000000E+00
  0.00000000E+00  0.00000000E+00  0.00000000E+00
  0.00000000E+00  0.00000000E+00  0.00000000E+00
  0.00000000E+00  0.00000000E+00  0.00000000E+00
  0.00000000E+00  0.00000000E+00  0.00000000E+00
  0.00000000E+00  0.00000000E+00  0.00000000E+00
  0.00000000E+00  0.00000000E+00  0.00000000E+00
  0.00000000E+00  0.00000000E+00  0.00000000E+00
  0.00000000E+00  0.00000000E+00  0.00000000E+00
  0.00000000E+00  0.00000000E+00  0.00000000E+00
  0.00000000E+00  0.00000000E+00  0.00000000E+00
  0.00000000E+00  0.00000000E+00  0.00000000E+00
  0.00000000E+00  0.00000000E+00  0.00000000E+00
  0.00000000E+00  0.00000000E+00  0.00000000E+00
  0.00000000E+00  0.00000000E+00  0.00000000E+00
  0.00000000E+00  0.00000000E+00  0.00000000E+00
  0.00000000E+00  0.00000000E+00  0.00000000E+00
  0.00000000E+00  0.00000000E+00  0.00000000E+00
  0.00000000E+00  0.00000000E+00  0.00000000E+00
  0.00000000E+00  0.00000000E+00  0.00000000E+00
  0.00000000E+00  0.00000000E+00  0.00000000E+00
  0.00000000E+00  0.00000000E+00  0.00000000E+00
  0.00000000E+00  0.00000000E+00  0.00000000E+00
  0.00000000E+00  0.00000000E+00  0.00000000E+00
  0.00000000E+00  0.00000000E+00  0.00000000E+00
  0.00000000E+00  0.00000000E+00  0.00000000E+00
  0.00000000E+00  0.00000000E+00  0.00000000E+00
  0.00000000E+00  0.00000000E+00  0.00000000E+00
  0.00000000E+00  0.00000000E+00  0.00000000E+00
  0.00000000E+00  0.00000000E+00  0.00000000E+00
  0.00000000E+00  0.00000000E+00  0.00000000E+00
  0.00000000E+00  0.00000000E+00  0.00000000E+00
  0.00000000E+00  0.00000000E+00  0.00000000E+00
  0.00000000E+00  0.00000000E+00  0.00000000E+00
  0.00000000E+00  0.00000000E+00  0.00000000E+00
  0.00000000E+00  0.00000000E+00  0.00000000E+00
  0.00000000E+00  0.00000000E+00  0.00000000E+00
  0.00000000E+00  0.00000000E+00  0.00000000E+00
  0.00000000E+00  0.00000000E+00  0.00000000E+00
  0.00000000E+00  0.00000000E+00  0.00000000E+00
  0.00000000E+00  0.00000000E+00  0.00000000E+00
  0.00000000E+00  0.00000000E+00  0.00000000E+00
  0.00000000E+00  0.00000000E+00  0.00000000E+00
  0.00000000E+00  0.00000000E+00  0.00000000E+00
  0.00000000E+00  0.00000000E+00  0.00000000E+00
  0.00000000E+00  0.00000000E+00  0.00000000E+00
  0.00000000E+00  0.00000000E+00  0.00000000E+00
  0.00000000E+00  0.00000000E+00  0.00000000E+00
  0.00000000E+00  0.00000000E+00  0.00000000E+00
  0.00000000E+00  0.00000000E+00  0.00000000E+00
  0.00000000E+00  0.00000000E+00  0.00000000E+00
  0.00000000E+00  0.00000000E+00  0.00000000E+00
  0.00000000E+00  0.00000000E+00  0.00000000E+00
  0.00000000E+00  0.00000000E+00  0.00000000E+00
  0.00000000E+00  0.00000000E+00  0.00000000E+00
  0.00000000E+00  0.00000000E+00  0.00000000E+00
  0.00000000E+00  0.00000000E+00  0.00000000E+00
  0.00000000E+00  0.00000000E+00  0.00000000E+00
  0.00000000E+00  0.00000000E+00  0.00000000E+00
  0.00000000E+00  0.00000000E+00  0.00000000E+00
  0.00000000E+00  0.00000000E+00  0.00000000E+00
  0.00000000E+00  0.00000000E+00  0.00000000E+00
  0.00000000E+00  0.00000000E+00  0.00000000E+00
